sample(s_13146_jpg).
holds(s_13146_jpg, building).
holds(s_13146_jpg, feature).
holds(s_13146_jpg, cafe).
holds(s_13146_jpg, hotel).
holds(s_13146_jpg, store).
holds(s_13146_jpg, misccommercial).
holds(s_13146_jpg, commercial).
holds(s_13146_jpg, awning).
holds(s_13146_jpg, vendingmachine).
holds(s_13146_jpg, chimney).
holds(s_13146_jpg, pipe).
holds(s_13146_jpg, car).

sample(s_8998_jpg).
holds(s_8998_jpg, building).
holds(s_8998_jpg, feature).
holds(s_8998_jpg, powerplant).
holds(s_8998_jpg, door).
holds(s_8998_jpg, window).
holds(s_8998_jpg, awning).
holds(s_8998_jpg, tiledrooftop).
holds(s_8998_jpg, vendingmachine).
holds(s_8998_jpg, chimney).
holds(s_8998_jpg, machine).

sample(s_7853_jpg).
holds(s_7853_jpg, building).
holds(s_7853_jpg, feature).
holds(s_7853_jpg, miscresidential).
holds(s_7853_jpg, countryhouse).
holds(s_7853_jpg, door).
holds(s_7853_jpg, window).
holds(s_7853_jpg, sign).
holds(s_7853_jpg, tiledroof).
holds(s_7853_jpg, chimney).
holds(s_7853_jpg, car).

sample(s_13785_jpg).
holds(s_13785_jpg, building).
holds(s_13785_jpg, feature).
holds(s_13785_jpg, cafe).
holds(s_13785_jpg, store).
holds(s_13785_jpg, misccommercial).
holds(s_13785_jpg, residential).
holds(s_13785_jpg, commercial).
holds(s_13785_jpg, awning).
holds(s_13785_jpg, vendingmachine).
holds(s_13785_jpg, chimney).
holds(s_13785_jpg, pipe).
holds(s_13785_jpg, car).

sample(s_2758_jpg).
holds(s_2758_jpg, building).
holds(s_2758_jpg, feature).
holds(s_2758_jpg, powerplant).
holds(s_2758_jpg, door).
holds(s_2758_jpg, window).
holds(s_2758_jpg, awning).
holds(s_2758_jpg, sign).
holds(s_2758_jpg, tiledrooftop).
holds(s_2758_jpg, vendingmachine).
holds(s_2758_jpg, chimney).
holds(s_2758_jpg, machine).

sample(s_11395_jpg).
holds(s_11395_jpg, building).
holds(s_11395_jpg, feature).
holds(s_11395_jpg, miscindustrial).
holds(s_11395_jpg, powerplant).
holds(s_11395_jpg, watertreatment).
holds(s_11395_jpg, door).
holds(s_11395_jpg, window).
holds(s_11395_jpg, sign).
holds(s_11395_jpg, tiledrooftop).
holds(s_11395_jpg, vendingmachine).
holds(s_11395_jpg, chimney).
holds(s_11395_jpg, machine).

sample(s_1242_jpg).
holds(s_1242_jpg, building).
holds(s_1242_jpg, feature).
holds(s_1242_jpg, hotel).
holds(s_1242_jpg, misccommercial).
holds(s_1242_jpg, commercial).
holds(s_1242_jpg, door).
holds(s_1242_jpg, awning).
holds(s_1242_jpg, tiledrooftop).
holds(s_1242_jpg, vendingmachine).
holds(s_1242_jpg, chimney).
holds(s_1242_jpg, car).

sample(s_13400_jpg).
holds(s_13400_jpg, building).
holds(s_13400_jpg, feature).
holds(s_13400_jpg, suburban).
holds(s_13400_jpg, miscresidential).
holds(s_13400_jpg, commercial).
holds(s_13400_jpg, door).
holds(s_13400_jpg, window).
holds(s_13400_jpg, porch).
holds(s_13400_jpg, sign).
holds(s_13400_jpg, tiledroof).
holds(s_13400_jpg, vendingmachine).
holds(s_13400_jpg, car).

sample(s_2717_jpg).
holds(s_2717_jpg, building).
holds(s_2717_jpg, feature).
holds(s_2717_jpg, miscresidential).
holds(s_2717_jpg, countryhouse).
holds(s_2717_jpg, door).
holds(s_2717_jpg, window).
holds(s_2717_jpg, sign).
holds(s_2717_jpg, tiledroof).
holds(s_2717_jpg, chimney).
holds(s_2717_jpg, car).

sample(s_4561_jpg).
holds(s_4561_jpg, building).
holds(s_4561_jpg, feature).
holds(s_4561_jpg, powerplant).
holds(s_4561_jpg, door).
holds(s_4561_jpg, window).
holds(s_4561_jpg, sign).
holds(s_4561_jpg, tiledrooftop).
holds(s_4561_jpg, vendingmachine).
holds(s_4561_jpg, chimney).
holds(s_4561_jpg, machine).

sample(s_4202_jpg).
holds(s_4202_jpg, building).
holds(s_4202_jpg, feature).
holds(s_4202_jpg, miscresidential).
holds(s_4202_jpg, countryhouse).
holds(s_4202_jpg, door).
holds(s_4202_jpg, window).
holds(s_4202_jpg, porch).
holds(s_4202_jpg, sign).
holds(s_4202_jpg, tiledroof).
holds(s_4202_jpg, chimney).
holds(s_4202_jpg, car).

sample(s_5290_jpg).
holds(s_5290_jpg, building).
holds(s_5290_jpg, feature).
holds(s_5290_jpg, powerplant).
holds(s_5290_jpg, door).
holds(s_5290_jpg, window).
holds(s_5290_jpg, sign).
holds(s_5290_jpg, tiledrooftop).
holds(s_5290_jpg, vendingmachine).
holds(s_5290_jpg, chimney).
holds(s_5290_jpg, machine).

sample(s_3785_jpg).
holds(s_3785_jpg, building).
holds(s_3785_jpg, feature).
holds(s_3785_jpg, miscresidential).
holds(s_3785_jpg, commercial).
holds(s_3785_jpg, door).
holds(s_3785_jpg, window).
holds(s_3785_jpg, awning).
holds(s_3785_jpg, porch).
holds(s_3785_jpg, sign).
holds(s_3785_jpg, tiledroof).
holds(s_3785_jpg, vendingmachine).
holds(s_3785_jpg, chimney).
holds(s_3785_jpg, car).

sample(s_13398_jpg).
holds(s_13398_jpg, building).
holds(s_13398_jpg, feature).
holds(s_13398_jpg, cafe).
holds(s_13398_jpg, store).
holds(s_13398_jpg, commercial).
holds(s_13398_jpg, door).
holds(s_13398_jpg, awning).
holds(s_13398_jpg, vendingmachine).
holds(s_13398_jpg, chimney).
holds(s_13398_jpg, car).

sample(s_9698_jpg).
holds(s_9698_jpg, building).
holds(s_9698_jpg, feature).
holds(s_9698_jpg, suburban).
holds(s_9698_jpg, miscresidential).
holds(s_9698_jpg, countryhouse).
holds(s_9698_jpg, commercial).
holds(s_9698_jpg, door).
holds(s_9698_jpg, window).
holds(s_9698_jpg, porch).
holds(s_9698_jpg, sign).
holds(s_9698_jpg, tiledroof).
holds(s_9698_jpg, vendingmachine).
holds(s_9698_jpg, car).

sample(s_8386_jpg).
holds(s_8386_jpg, building).
holds(s_8386_jpg, feature).
holds(s_8386_jpg, miscindustrial).
holds(s_8386_jpg, powerplant).
holds(s_8386_jpg, watertreatment).
holds(s_8386_jpg, door).
holds(s_8386_jpg, window).
holds(s_8386_jpg, sign).
holds(s_8386_jpg, tiledrooftop).
holds(s_8386_jpg, chimney).
holds(s_8386_jpg, machine).

sample(s_9686_jpg).
holds(s_9686_jpg, building).
holds(s_9686_jpg, feature).
holds(s_9686_jpg, miscresidential).
holds(s_9686_jpg, countryhouse).
holds(s_9686_jpg, door).
holds(s_9686_jpg, window).
holds(s_9686_jpg, sign).
holds(s_9686_jpg, tiledroof).
holds(s_9686_jpg, chimney).
holds(s_9686_jpg, car).

sample(s_14817_jpg).
holds(s_14817_jpg, building).
holds(s_14817_jpg, feature).
holds(s_14817_jpg, cafe).
holds(s_14817_jpg, hotel).
holds(s_14817_jpg, store).
holds(s_14817_jpg, misccommercial).
holds(s_14817_jpg, commercial).
holds(s_14817_jpg, awning).
holds(s_14817_jpg, vendingmachine).
holds(s_14817_jpg, chimney).
holds(s_14817_jpg, car).

sample(s_1235_jpg).
holds(s_1235_jpg, building).
holds(s_1235_jpg, feature).
holds(s_1235_jpg, miscresidential).
holds(s_1235_jpg, countryhouse).
holds(s_1235_jpg, door).
holds(s_1235_jpg, window).
holds(s_1235_jpg, porch).
holds(s_1235_jpg, sign).
holds(s_1235_jpg, tiledroof).
holds(s_1235_jpg, chimney).
holds(s_1235_jpg, car).

sample(s_2060_jpg).
holds(s_2060_jpg, building).
holds(s_2060_jpg, feature).
holds(s_2060_jpg, suburban).
holds(s_2060_jpg, miscresidential).
holds(s_2060_jpg, commercial).
holds(s_2060_jpg, door).
holds(s_2060_jpg, window).
holds(s_2060_jpg, porch).
holds(s_2060_jpg, sign).
holds(s_2060_jpg, tiledroof).
holds(s_2060_jpg, vendingmachine).
holds(s_2060_jpg, car).

sample(s_10381_jpg).
holds(s_10381_jpg, building).
holds(s_10381_jpg, feature).
holds(s_10381_jpg, miscindustrial).
holds(s_10381_jpg, watertreatment).
holds(s_10381_jpg, door).
holds(s_10381_jpg, window).
holds(s_10381_jpg, sign).
holds(s_10381_jpg, tiledrooftop).
holds(s_10381_jpg, vendingmachine).
holds(s_10381_jpg, machine).

sample(s_7564_jpg).
holds(s_7564_jpg, building).
holds(s_7564_jpg, feature).
holds(s_7564_jpg, miscindustrial).
holds(s_7564_jpg, watertreatment).
holds(s_7564_jpg, door).
holds(s_7564_jpg, window).
holds(s_7564_jpg, sign).
holds(s_7564_jpg, tiledrooftop).
holds(s_7564_jpg, vendingmachine).
holds(s_7564_jpg, chimney).
holds(s_7564_jpg, machine).

sample(s_3469_jpg).
holds(s_3469_jpg, building).
holds(s_3469_jpg, feature).
holds(s_3469_jpg, miscindustrial).
holds(s_3469_jpg, watertreatment).
holds(s_3469_jpg, door).
holds(s_3469_jpg, window).
holds(s_3469_jpg, awning).
holds(s_3469_jpg, sign).
holds(s_3469_jpg, tiledrooftop).
holds(s_3469_jpg, vendingmachine).
holds(s_3469_jpg, chimney).
holds(s_3469_jpg, machine).

sample(s_1399_jpg).
holds(s_1399_jpg, building).
holds(s_1399_jpg, feature).
holds(s_1399_jpg, miscindustrial).
holds(s_1399_jpg, powerplant).
holds(s_1399_jpg, watertreatment).
holds(s_1399_jpg, door).
holds(s_1399_jpg, window).
holds(s_1399_jpg, sign).
holds(s_1399_jpg, tiledrooftop).
holds(s_1399_jpg, vendingmachine).
holds(s_1399_jpg, chimney).
holds(s_1399_jpg, machine).

sample(s_6737_jpg).
holds(s_6737_jpg, building).
holds(s_6737_jpg, feature).
holds(s_6737_jpg, suburban).
holds(s_6737_jpg, miscresidential).
holds(s_6737_jpg, countryhouse).
holds(s_6737_jpg, door).
holds(s_6737_jpg, window).
holds(s_6737_jpg, porch).
holds(s_6737_jpg, sign).
holds(s_6737_jpg, tiledroof).
holds(s_6737_jpg, chimney).
holds(s_6737_jpg, car).

sample(s_14895_jpg).
holds(s_14895_jpg, building).
holds(s_14895_jpg, feature).
holds(s_14895_jpg, cafe).
holds(s_14895_jpg, hotel).
holds(s_14895_jpg, restaurant).
holds(s_14895_jpg, misccommercial).
holds(s_14895_jpg, commercial).
holds(s_14895_jpg, door).
holds(s_14895_jpg, awning).
holds(s_14895_jpg, tiledrooftop).
holds(s_14895_jpg, vendingmachine).
holds(s_14895_jpg, chimney).
holds(s_14895_jpg, machine).
holds(s_14895_jpg, car).

sample(s_9804_jpg).
holds(s_9804_jpg, building).
holds(s_9804_jpg, feature).
holds(s_9804_jpg, cafe).
holds(s_9804_jpg, hotel).
holds(s_9804_jpg, store).
holds(s_9804_jpg, misccommercial).
holds(s_9804_jpg, commercial).
holds(s_9804_jpg, awning).
holds(s_9804_jpg, vendingmachine).
holds(s_9804_jpg, chimney).
holds(s_9804_jpg, pipe).
holds(s_9804_jpg, car).

sample(s_9346_jpg).
holds(s_9346_jpg, building).
holds(s_9346_jpg, feature).
holds(s_9346_jpg, constructionsite).
holds(s_9346_jpg, powerplant).
holds(s_9346_jpg, commercial).
holds(s_9346_jpg, door).
holds(s_9346_jpg, awning).
holds(s_9346_jpg, tiledrooftop).
holds(s_9346_jpg, vendingmachine).
holds(s_9346_jpg, chimney).
holds(s_9346_jpg, machine).

sample(s_14670_jpg).
holds(s_14670_jpg, building).
holds(s_14670_jpg, feature).
holds(s_14670_jpg, cafe).
holds(s_14670_jpg, hotel).
holds(s_14670_jpg, restaurant).
holds(s_14670_jpg, store).
holds(s_14670_jpg, residential).
holds(s_14670_jpg, commercial).
holds(s_14670_jpg, vendingmachine).
holds(s_14670_jpg, chimney).
holds(s_14670_jpg, pipe).
holds(s_14670_jpg, car).

sample(s_14525_jpg).
holds(s_14525_jpg, building).
holds(s_14525_jpg, feature).
holds(s_14525_jpg, miscresidential).
holds(s_14525_jpg, commercial).
holds(s_14525_jpg, door).
holds(s_14525_jpg, window).
holds(s_14525_jpg, awning).
holds(s_14525_jpg, porch).
holds(s_14525_jpg, sign).
holds(s_14525_jpg, tiledroof).
holds(s_14525_jpg, vendingmachine).
holds(s_14525_jpg, chimney).
holds(s_14525_jpg, car).

sample(s_6713_jpg).
holds(s_6713_jpg, building).
holds(s_6713_jpg, feature).
holds(s_6713_jpg, suburban).
holds(s_6713_jpg, miscresidential).
holds(s_6713_jpg, commercial).
holds(s_6713_jpg, door).
holds(s_6713_jpg, window).
holds(s_6713_jpg, porch).
holds(s_6713_jpg, sign).
holds(s_6713_jpg, tiledroof).
holds(s_6713_jpg, vendingmachine).
holds(s_6713_jpg, chimney).
holds(s_6713_jpg, car).

sample(s_10430_jpg).
holds(s_10430_jpg, building).
holds(s_10430_jpg, feature).
holds(s_10430_jpg, miscresidential).
holds(s_10430_jpg, countryhouse).
holds(s_10430_jpg, door).
holds(s_10430_jpg, window).
holds(s_10430_jpg, porch).
holds(s_10430_jpg, sign).
holds(s_10430_jpg, tiledroof).
holds(s_10430_jpg, chimney).
holds(s_10430_jpg, car).

sample(s_3115_jpg).
holds(s_3115_jpg, building).
holds(s_3115_jpg, feature).
holds(s_3115_jpg, constructionsite).
holds(s_3115_jpg, commercial).
holds(s_3115_jpg, door).
holds(s_3115_jpg, awning).
holds(s_3115_jpg, tiledrooftop).
holds(s_3115_jpg, vendingmachine).
holds(s_3115_jpg, chimney).

sample(s_3705_jpg).
holds(s_3705_jpg, building).
holds(s_3705_jpg, feature).
holds(s_3705_jpg, cafe).
holds(s_3705_jpg, hotel).
holds(s_3705_jpg, store).
holds(s_3705_jpg, misccommercial).
holds(s_3705_jpg, residential).
holds(s_3705_jpg, commercial).
holds(s_3705_jpg, awning).
holds(s_3705_jpg, vendingmachine).
holds(s_3705_jpg, chimney).
holds(s_3705_jpg, car).

sample(s_6203_jpg).
holds(s_6203_jpg, building).
holds(s_6203_jpg, feature).
holds(s_6203_jpg, suburban).
holds(s_6203_jpg, miscresidential).
holds(s_6203_jpg, countryhouse).
holds(s_6203_jpg, door).
holds(s_6203_jpg, window).
holds(s_6203_jpg, porch).
holds(s_6203_jpg, sign).
holds(s_6203_jpg, tiledroof).
holds(s_6203_jpg, vendingmachine).
holds(s_6203_jpg, car).

sample(s_7406_jpg).
holds(s_7406_jpg, building).
holds(s_7406_jpg, feature).
holds(s_7406_jpg, suburban).
holds(s_7406_jpg, residential).
holds(s_7406_jpg, commercial).
holds(s_7406_jpg, door).
holds(s_7406_jpg, sign).
holds(s_7406_jpg, tiledroof).
holds(s_7406_jpg, tiledrooftop).
holds(s_7406_jpg, vendingmachine).

sample(s_13092_jpg).
holds(s_13092_jpg, building).
holds(s_13092_jpg, feature).
holds(s_13092_jpg, cafe).
holds(s_13092_jpg, hotel).
holds(s_13092_jpg, restaurant).
holds(s_13092_jpg, store).
holds(s_13092_jpg, residential).
holds(s_13092_jpg, commercial).
holds(s_13092_jpg, awning).
holds(s_13092_jpg, vendingmachine).
holds(s_13092_jpg, chimney).
holds(s_13092_jpg, pipe).
holds(s_13092_jpg, car).

sample(s_6892_jpg).
holds(s_6892_jpg, building).
holds(s_6892_jpg, feature).
holds(s_6892_jpg, powerplant).
holds(s_6892_jpg, door).
holds(s_6892_jpg, window).
holds(s_6892_jpg, sign).
holds(s_6892_jpg, tiledrooftop).
holds(s_6892_jpg, vendingmachine).
holds(s_6892_jpg, chimney).
holds(s_6892_jpg, machine).

sample(s_13913_jpg).
holds(s_13913_jpg, building).
holds(s_13913_jpg, feature).
holds(s_13913_jpg, suburban).
holds(s_13913_jpg, miscresidential).
holds(s_13913_jpg, countryhouse).
holds(s_13913_jpg, commercial).
holds(s_13913_jpg, door).
holds(s_13913_jpg, window).
holds(s_13913_jpg, porch).
holds(s_13913_jpg, sign).
holds(s_13913_jpg, tiledroof).
holds(s_13913_jpg, vendingmachine).
holds(s_13913_jpg, car).

sample(s_14004_jpg).
holds(s_14004_jpg, building).
holds(s_14004_jpg, feature).
holds(s_14004_jpg, cafe).
holds(s_14004_jpg, misccommercial).
holds(s_14004_jpg, miscresidential).
holds(s_14004_jpg, commercial).
holds(s_14004_jpg, door).
holds(s_14004_jpg, window).
holds(s_14004_jpg, awning).
holds(s_14004_jpg, porch).
holds(s_14004_jpg, tiledroof).
holds(s_14004_jpg, vendingmachine).
holds(s_14004_jpg, chimney).
holds(s_14004_jpg, car).

sample(s_9581_jpg).
holds(s_9581_jpg, building).
holds(s_9581_jpg, feature).
holds(s_9581_jpg, suburban).
holds(s_9581_jpg, miscresidential).
holds(s_9581_jpg, commercial).
holds(s_9581_jpg, door).
holds(s_9581_jpg, window).
holds(s_9581_jpg, porch).
holds(s_9581_jpg, sign).
holds(s_9581_jpg, tiledroof).
holds(s_9581_jpg, vendingmachine).
holds(s_9581_jpg, car).

sample(s_379_jpg).
holds(s_379_jpg, building).
holds(s_379_jpg, feature).
holds(s_379_jpg, miscindustrial).
holds(s_379_jpg, watertreatment).
holds(s_379_jpg, door).
holds(s_379_jpg, window).
holds(s_379_jpg, sign).
holds(s_379_jpg, tiledrooftop).
holds(s_379_jpg, vendingmachine).
holds(s_379_jpg, chimney).
holds(s_379_jpg, machine).

sample(s_13060_jpg).
holds(s_13060_jpg, building).
holds(s_13060_jpg, feature).
holds(s_13060_jpg, constructionsite).
holds(s_13060_jpg, commercial).
holds(s_13060_jpg, door).
holds(s_13060_jpg, awning).
holds(s_13060_jpg, tiledrooftop).
holds(s_13060_jpg, vendingmachine).
holds(s_13060_jpg, chimney).
holds(s_13060_jpg, machine).

sample(s_3524_jpg).
holds(s_3524_jpg, building).
holds(s_3524_jpg, feature).
holds(s_3524_jpg, misccommercial).
holds(s_3524_jpg, miscresidential).
holds(s_3524_jpg, commercial).
holds(s_3524_jpg, door).
holds(s_3524_jpg, window).
holds(s_3524_jpg, awning).
holds(s_3524_jpg, porch).
holds(s_3524_jpg, sign).
holds(s_3524_jpg, tiledroof).
holds(s_3524_jpg, vendingmachine).
holds(s_3524_jpg, chimney).
holds(s_3524_jpg, car).

sample(s_1621_jpg).
holds(s_1621_jpg, building).
holds(s_1621_jpg, feature).
holds(s_1621_jpg, miscindustrial).
holds(s_1621_jpg, powerplant).
holds(s_1621_jpg, watertreatment).
holds(s_1621_jpg, door).
holds(s_1621_jpg, window).
holds(s_1621_jpg, sign).
holds(s_1621_jpg, tiledrooftop).
holds(s_1621_jpg, vendingmachine).
holds(s_1621_jpg, chimney).
holds(s_1621_jpg, machine).

sample(s_5129_jpg).
holds(s_5129_jpg, building).
holds(s_5129_jpg, feature).
holds(s_5129_jpg, suburban).
holds(s_5129_jpg, miscresidential).
holds(s_5129_jpg, countryhouse).
holds(s_5129_jpg, door).
holds(s_5129_jpg, window).
holds(s_5129_jpg, porch).
holds(s_5129_jpg, sign).
holds(s_5129_jpg, tiledroof).
holds(s_5129_jpg, car).

sample(s_8691_jpg).
holds(s_8691_jpg, building).
holds(s_8691_jpg, feature).
holds(s_8691_jpg, cafe).
holds(s_8691_jpg, hotel).
holds(s_8691_jpg, store).
holds(s_8691_jpg, misccommercial).
holds(s_8691_jpg, commercial).
holds(s_8691_jpg, awning).
holds(s_8691_jpg, vendingmachine).
holds(s_8691_jpg, chimney).
holds(s_8691_jpg, car).

sample(s_6344_jpg).
holds(s_6344_jpg, building).
holds(s_6344_jpg, feature).
holds(s_6344_jpg, suburban).
holds(s_6344_jpg, miscresidential).
holds(s_6344_jpg, commercial).
holds(s_6344_jpg, door).
holds(s_6344_jpg, window).
holds(s_6344_jpg, porch).
holds(s_6344_jpg, sign).
holds(s_6344_jpg, tiledroof).
holds(s_6344_jpg, vendingmachine).
holds(s_6344_jpg, car).

sample(s_14949_jpg).
holds(s_14949_jpg, building).
holds(s_14949_jpg, feature).
holds(s_14949_jpg, cafe).
holds(s_14949_jpg, hotel).
holds(s_14949_jpg, store).
holds(s_14949_jpg, misccommercial).
holds(s_14949_jpg, commercial).
holds(s_14949_jpg, awning).
holds(s_14949_jpg, vendingmachine).
holds(s_14949_jpg, chimney).
holds(s_14949_jpg, car).

sample(s_7698_jpg).
holds(s_7698_jpg, building).
holds(s_7698_jpg, feature).
holds(s_7698_jpg, hotel).
holds(s_7698_jpg, store).
holds(s_7698_jpg, residential).
holds(s_7698_jpg, commercial).
holds(s_7698_jpg, vendingmachine).
holds(s_7698_jpg, chimney).
holds(s_7698_jpg, pipe).
holds(s_7698_jpg, car).

sample(s_334_jpg).
holds(s_334_jpg, building).
holds(s_334_jpg, feature).
holds(s_334_jpg, miscindustrial).
holds(s_334_jpg, watertreatment).
holds(s_334_jpg, door).
holds(s_334_jpg, window).
holds(s_334_jpg, sign).
holds(s_334_jpg, tiledrooftop).
holds(s_334_jpg, vendingmachine).
holds(s_334_jpg, machine).

sample(s_4472_jpg).
holds(s_4472_jpg, building).
holds(s_4472_jpg, feature).
holds(s_4472_jpg, suburban).
holds(s_4472_jpg, miscresidential).
holds(s_4472_jpg, countryhouse).
holds(s_4472_jpg, door).
holds(s_4472_jpg, window).
holds(s_4472_jpg, porch).
holds(s_4472_jpg, sign).
holds(s_4472_jpg, tiledroof).
holds(s_4472_jpg, vendingmachine).
holds(s_4472_jpg, car).

sample(s_1201_jpg).
holds(s_1201_jpg, building).
holds(s_1201_jpg, feature).
holds(s_1201_jpg, powerplant).
holds(s_1201_jpg, door).
holds(s_1201_jpg, window).
holds(s_1201_jpg, tiledrooftop).
holds(s_1201_jpg, vendingmachine).
holds(s_1201_jpg, chimney).
holds(s_1201_jpg, machine).

sample(s_591_jpg).
holds(s_591_jpg, building).
holds(s_591_jpg, feature).
holds(s_591_jpg, cafe).
holds(s_591_jpg, hotel).
holds(s_591_jpg, misccommercial).
holds(s_591_jpg, residential).
holds(s_591_jpg, commercial).
holds(s_591_jpg, door).
holds(s_591_jpg, awning).
holds(s_591_jpg, tiledrooftop).
holds(s_591_jpg, vendingmachine).
holds(s_591_jpg, chimney).
holds(s_591_jpg, car).

sample(s_13803_jpg).
holds(s_13803_jpg, building).
holds(s_13803_jpg, feature).
holds(s_13803_jpg, cafe).
holds(s_13803_jpg, hotel).
holds(s_13803_jpg, store).
holds(s_13803_jpg, misccommercial).
holds(s_13803_jpg, residential).
holds(s_13803_jpg, commercial).
holds(s_13803_jpg, awning).
holds(s_13803_jpg, vendingmachine).
holds(s_13803_jpg, chimney).
holds(s_13803_jpg, pipe).
holds(s_13803_jpg, car).

sample(s_3729_jpg).
holds(s_3729_jpg, building).
holds(s_3729_jpg, feature).
holds(s_3729_jpg, cafe).
holds(s_3729_jpg, hotel).
holds(s_3729_jpg, commercial).
holds(s_3729_jpg, door).
holds(s_3729_jpg, window).
holds(s_3729_jpg, awning).
holds(s_3729_jpg, vendingmachine).
holds(s_3729_jpg, chimney).
holds(s_3729_jpg, car).

sample(s_10090_jpg).
holds(s_10090_jpg, building).
holds(s_10090_jpg, feature).
holds(s_10090_jpg, miscindustrial).
holds(s_10090_jpg, powerplant).
holds(s_10090_jpg, watertreatment).
holds(s_10090_jpg, door).
holds(s_10090_jpg, window).
holds(s_10090_jpg, sign).
holds(s_10090_jpg, tiledrooftop).
holds(s_10090_jpg, vendingmachine).
holds(s_10090_jpg, chimney).
holds(s_10090_jpg, machine).

sample(s_273_jpg).
holds(s_273_jpg, building).
holds(s_273_jpg, feature).
holds(s_273_jpg, cafe).
holds(s_273_jpg, hotel).
holds(s_273_jpg, restaurant).
holds(s_273_jpg, store).
holds(s_273_jpg, misccommercial).
holds(s_273_jpg, residential).
holds(s_273_jpg, commercial).
holds(s_273_jpg, awning).
holds(s_273_jpg, vendingmachine).
holds(s_273_jpg, chimney).
holds(s_273_jpg, pipe).
holds(s_273_jpg, car).

sample(s_7131_jpg).
holds(s_7131_jpg, building).
holds(s_7131_jpg, feature).
holds(s_7131_jpg, cafe).
holds(s_7131_jpg, hotel).
holds(s_7131_jpg, restaurant).
holds(s_7131_jpg, misccommercial).
holds(s_7131_jpg, residential).
holds(s_7131_jpg, commercial).
holds(s_7131_jpg, awning).
holds(s_7131_jpg, tiledrooftop).
holds(s_7131_jpg, vendingmachine).
holds(s_7131_jpg, chimney).
holds(s_7131_jpg, car).

sample(s_13667_jpg).
holds(s_13667_jpg, building).
holds(s_13667_jpg, feature).
holds(s_13667_jpg, suburban).
holds(s_13667_jpg, miscresidential).
holds(s_13667_jpg, commercial).
holds(s_13667_jpg, door).
holds(s_13667_jpg, window).
holds(s_13667_jpg, porch).
holds(s_13667_jpg, sign).
holds(s_13667_jpg, tiledroof).
holds(s_13667_jpg, vendingmachine).
holds(s_13667_jpg, car).

sample(s_11750_jpg).
holds(s_11750_jpg, building).
holds(s_11750_jpg, feature).
holds(s_11750_jpg, suburban).
holds(s_11750_jpg, miscresidential).
holds(s_11750_jpg, commercial).
holds(s_11750_jpg, door).
holds(s_11750_jpg, window).
holds(s_11750_jpg, porch).
holds(s_11750_jpg, sign).
holds(s_11750_jpg, tiledroof).
holds(s_11750_jpg, vendingmachine).
holds(s_11750_jpg, car).

sample(s_13746_jpg).
holds(s_13746_jpg, building).
holds(s_13746_jpg, feature).
holds(s_13746_jpg, hotel).
holds(s_13746_jpg, misccommercial).
holds(s_13746_jpg, commercial).
holds(s_13746_jpg, door).
holds(s_13746_jpg, awning).
holds(s_13746_jpg, porch).
holds(s_13746_jpg, tiledrooftop).
holds(s_13746_jpg, vendingmachine).
holds(s_13746_jpg, chimney).
holds(s_13746_jpg, car).

sample(s_2208_jpg).
holds(s_2208_jpg, building).
holds(s_2208_jpg, feature).
holds(s_2208_jpg, cafe).
holds(s_2208_jpg, hotel).
holds(s_2208_jpg, residential).
holds(s_2208_jpg, commercial).
holds(s_2208_jpg, tiledrooftop).
holds(s_2208_jpg, vendingmachine).
holds(s_2208_jpg, car).

sample(s_1258_jpg).
holds(s_1258_jpg, building).
holds(s_1258_jpg, feature).
holds(s_1258_jpg, miscindustrial).
holds(s_1258_jpg, powerplant).
holds(s_1258_jpg, watertreatment).
holds(s_1258_jpg, door).
holds(s_1258_jpg, window).
holds(s_1258_jpg, sign).
holds(s_1258_jpg, tiledrooftop).
holds(s_1258_jpg, vendingmachine).
holds(s_1258_jpg, chimney).
holds(s_1258_jpg, machine).

sample(s_11394_jpg).
holds(s_11394_jpg, building).
holds(s_11394_jpg, feature).
holds(s_11394_jpg, cafe).
holds(s_11394_jpg, hotel).
holds(s_11394_jpg, store).
holds(s_11394_jpg, misccommercial).
holds(s_11394_jpg, residential).
holds(s_11394_jpg, commercial).
holds(s_11394_jpg, awning).
holds(s_11394_jpg, vendingmachine).
holds(s_11394_jpg, chimney).
holds(s_11394_jpg, pipe).
holds(s_11394_jpg, car).

sample(s_1295_jpg).
holds(s_1295_jpg, building).
holds(s_1295_jpg, feature).
holds(s_1295_jpg, miscresidential).
holds(s_1295_jpg, commercial).
holds(s_1295_jpg, door).
holds(s_1295_jpg, window).
holds(s_1295_jpg, awning).
holds(s_1295_jpg, porch).
holds(s_1295_jpg, sign).
holds(s_1295_jpg, tiledroof).
holds(s_1295_jpg, vendingmachine).
holds(s_1295_jpg, chimney).
holds(s_1295_jpg, car).

sample(s_3726_jpg).
holds(s_3726_jpg, building).
holds(s_3726_jpg, feature).
holds(s_3726_jpg, cafe).
holds(s_3726_jpg, hotel).
holds(s_3726_jpg, restaurant).
holds(s_3726_jpg, misccommercial).
holds(s_3726_jpg, residential).
holds(s_3726_jpg, commercial).
holds(s_3726_jpg, awning).
holds(s_3726_jpg, tiledrooftop).
holds(s_3726_jpg, vendingmachine).
holds(s_3726_jpg, chimney).
holds(s_3726_jpg, pipe).
holds(s_3726_jpg, car).

sample(s_11385_jpg).
holds(s_11385_jpg, building).
holds(s_11385_jpg, feature).
holds(s_11385_jpg, cafe).
holds(s_11385_jpg, hotel).
holds(s_11385_jpg, restaurant).
holds(s_11385_jpg, misccommercial).
holds(s_11385_jpg, commercial).
holds(s_11385_jpg, door).
holds(s_11385_jpg, window).
holds(s_11385_jpg, awning).
holds(s_11385_jpg, tiledrooftop).
holds(s_11385_jpg, vendingmachine).
holds(s_11385_jpg, chimney).
holds(s_11385_jpg, machine).
holds(s_11385_jpg, car).

sample(s_15797_jpg).
holds(s_15797_jpg, building).
holds(s_15797_jpg, feature).
holds(s_15797_jpg, suburban).
holds(s_15797_jpg, commercial).
holds(s_15797_jpg, door).
holds(s_15797_jpg, window).
holds(s_15797_jpg, porch).
holds(s_15797_jpg, sign).
holds(s_15797_jpg, tiledroof).
holds(s_15797_jpg, tiledrooftop).
holds(s_15797_jpg, vendingmachine).

sample(s_3664_jpg).
holds(s_3664_jpg, building).
holds(s_3664_jpg, feature).
holds(s_3664_jpg, miscindustrial).
holds(s_3664_jpg, powerplant).
holds(s_3664_jpg, watertreatment).
holds(s_3664_jpg, door).
holds(s_3664_jpg, window).
holds(s_3664_jpg, sign).
holds(s_3664_jpg, tiledrooftop).
holds(s_3664_jpg, chimney).
holds(s_3664_jpg, machine).

sample(s_9714_jpg).
holds(s_9714_jpg, building).
holds(s_9714_jpg, feature).
holds(s_9714_jpg, cafe).
holds(s_9714_jpg, hotel).
holds(s_9714_jpg, store).
holds(s_9714_jpg, residential).
holds(s_9714_jpg, commercial).
holds(s_9714_jpg, window).
holds(s_9714_jpg, vendingmachine).
holds(s_9714_jpg, chimney).
holds(s_9714_jpg, car).

sample(s_11097_jpg).
holds(s_11097_jpg, building).
holds(s_11097_jpg, feature).
holds(s_11097_jpg, cafe).
holds(s_11097_jpg, hotel).
holds(s_11097_jpg, restaurant).
holds(s_11097_jpg, misccommercial).
holds(s_11097_jpg, residential).
holds(s_11097_jpg, commercial).
holds(s_11097_jpg, tiledrooftop).
holds(s_11097_jpg, vendingmachine).
holds(s_11097_jpg, chimney).
holds(s_11097_jpg, pipe).
holds(s_11097_jpg, machine).
holds(s_11097_jpg, car).

sample(s_10454_jpg).
holds(s_10454_jpg, building).
holds(s_10454_jpg, feature).
holds(s_10454_jpg, suburban).
holds(s_10454_jpg, miscresidential).
holds(s_10454_jpg, commercial).
holds(s_10454_jpg, door).
holds(s_10454_jpg, window).
holds(s_10454_jpg, porch).
holds(s_10454_jpg, sign).
holds(s_10454_jpg, tiledroof).
holds(s_10454_jpg, vendingmachine).
holds(s_10454_jpg, car).

sample(s_5815_jpg).
holds(s_5815_jpg, building).
holds(s_5815_jpg, feature).
holds(s_5815_jpg, constructionsite).
holds(s_5815_jpg, powerplant).
holds(s_5815_jpg, commercial).
holds(s_5815_jpg, door).
holds(s_5815_jpg, awning).
holds(s_5815_jpg, tiledrooftop).
holds(s_5815_jpg, vendingmachine).
holds(s_5815_jpg, chimney).
holds(s_5815_jpg, machine).

sample(s_158_jpg).
holds(s_158_jpg, building).
holds(s_158_jpg, feature).
holds(s_158_jpg, suburban).
holds(s_158_jpg, commercial).
holds(s_158_jpg, door).
holds(s_158_jpg, window).
holds(s_158_jpg, porch).
holds(s_158_jpg, sign).
holds(s_158_jpg, tiledroof).
holds(s_158_jpg, tiledrooftop).
holds(s_158_jpg, vendingmachine).

sample(s_11993_jpg).
holds(s_11993_jpg, building).
holds(s_11993_jpg, feature).
holds(s_11993_jpg, miscresidential).
holds(s_11993_jpg, commercial).
holds(s_11993_jpg, door).
holds(s_11993_jpg, window).
holds(s_11993_jpg, awning).
holds(s_11993_jpg, porch).
holds(s_11993_jpg, sign).
holds(s_11993_jpg, tiledroof).
holds(s_11993_jpg, vendingmachine).
holds(s_11993_jpg, chimney).
holds(s_11993_jpg, car).

sample(s_6681_jpg).
holds(s_6681_jpg, building).
holds(s_6681_jpg, feature).
holds(s_6681_jpg, cafe).
holds(s_6681_jpg, hotel).
holds(s_6681_jpg, restaurant).
holds(s_6681_jpg, store).
holds(s_6681_jpg, residential).
holds(s_6681_jpg, commercial).
holds(s_6681_jpg, awning).
holds(s_6681_jpg, vendingmachine).
holds(s_6681_jpg, chimney).
holds(s_6681_jpg, pipe).
holds(s_6681_jpg, car).

sample(s_13034_jpg).
holds(s_13034_jpg, building).
holds(s_13034_jpg, feature).
holds(s_13034_jpg, suburban).
holds(s_13034_jpg, commercial).
holds(s_13034_jpg, door).
holds(s_13034_jpg, porch).
holds(s_13034_jpg, sign).
holds(s_13034_jpg, tiledroof).
holds(s_13034_jpg, tiledrooftop).
holds(s_13034_jpg, vendingmachine).

sample(s_11042_jpg).
holds(s_11042_jpg, building).
holds(s_11042_jpg, feature).
holds(s_11042_jpg, suburban).
holds(s_11042_jpg, miscresidential).
holds(s_11042_jpg, commercial).
holds(s_11042_jpg, door).
holds(s_11042_jpg, window).
holds(s_11042_jpg, porch).
holds(s_11042_jpg, sign).
holds(s_11042_jpg, tiledroof).
holds(s_11042_jpg, vendingmachine).
holds(s_11042_jpg, car).

sample(s_15363_jpg).
holds(s_15363_jpg, building).
holds(s_15363_jpg, feature).
holds(s_15363_jpg, cafe).
holds(s_15363_jpg, hotel).
holds(s_15363_jpg, store).
holds(s_15363_jpg, residential).
holds(s_15363_jpg, commercial).
holds(s_15363_jpg, awning).
holds(s_15363_jpg, vendingmachine).
holds(s_15363_jpg, chimney).
holds(s_15363_jpg, car).

sample(s_14544_jpg).
holds(s_14544_jpg, building).
holds(s_14544_jpg, feature).
holds(s_14544_jpg, cafe).
holds(s_14544_jpg, hotel).
holds(s_14544_jpg, restaurant).
holds(s_14544_jpg, misccommercial).
holds(s_14544_jpg, residential).
holds(s_14544_jpg, commercial).
holds(s_14544_jpg, awning).
holds(s_14544_jpg, tiledrooftop).
holds(s_14544_jpg, vendingmachine).
holds(s_14544_jpg, chimney).
holds(s_14544_jpg, pipe).
holds(s_14544_jpg, machine).
holds(s_14544_jpg, car).

sample(s_10241_jpg).
holds(s_10241_jpg, building).
holds(s_10241_jpg, feature).
holds(s_10241_jpg, miscresidential).
holds(s_10241_jpg, door).
holds(s_10241_jpg, window).
holds(s_10241_jpg, awning).
holds(s_10241_jpg, porch).
holds(s_10241_jpg, sign).
holds(s_10241_jpg, tiledroof).
holds(s_10241_jpg, vendingmachine).
holds(s_10241_jpg, chimney).
holds(s_10241_jpg, car).

sample(s_6852_jpg).
holds(s_6852_jpg, building).
holds(s_6852_jpg, feature).
holds(s_6852_jpg, cafe).
holds(s_6852_jpg, hotel).
holds(s_6852_jpg, misccommercial).
holds(s_6852_jpg, commercial).
holds(s_6852_jpg, awning).
holds(s_6852_jpg, vendingmachine).
holds(s_6852_jpg, chimney).
holds(s_6852_jpg, car).

sample(s_1534_jpg).
holds(s_1534_jpg, building).
holds(s_1534_jpg, feature).
holds(s_1534_jpg, constructionsite).
holds(s_1534_jpg, powerplant).
holds(s_1534_jpg, commercial).
holds(s_1534_jpg, door).
holds(s_1534_jpg, awning).
holds(s_1534_jpg, tiledrooftop).
holds(s_1534_jpg, vendingmachine).
holds(s_1534_jpg, chimney).
holds(s_1534_jpg, machine).

sample(s_15920_jpg).
holds(s_15920_jpg, building).
holds(s_15920_jpg, feature).
holds(s_15920_jpg, miscresidential).
holds(s_15920_jpg, countryhouse).
holds(s_15920_jpg, door).
holds(s_15920_jpg, window).
holds(s_15920_jpg, porch).
holds(s_15920_jpg, sign).
holds(s_15920_jpg, tiledroof).
holds(s_15920_jpg, chimney).
holds(s_15920_jpg, car).

sample(s_2870_jpg).
holds(s_2870_jpg, building).
holds(s_2870_jpg, feature).
holds(s_2870_jpg, suburban).
holds(s_2870_jpg, miscresidential).
holds(s_2870_jpg, commercial).
holds(s_2870_jpg, door).
holds(s_2870_jpg, window).
holds(s_2870_jpg, porch).
holds(s_2870_jpg, sign).
holds(s_2870_jpg, tiledroof).
holds(s_2870_jpg, vendingmachine).
holds(s_2870_jpg, car).

sample(s_3138_jpg).
holds(s_3138_jpg, building).
holds(s_3138_jpg, feature).
holds(s_3138_jpg, cafe).
holds(s_3138_jpg, hotel).
holds(s_3138_jpg, store).
holds(s_3138_jpg, misccommercial).
holds(s_3138_jpg, commercial).
holds(s_3138_jpg, door).
holds(s_3138_jpg, awning).
holds(s_3138_jpg, vendingmachine).
holds(s_3138_jpg, chimney).
holds(s_3138_jpg, car).

sample(s_540_jpg).
holds(s_540_jpg, building).
holds(s_540_jpg, feature).
holds(s_540_jpg, cafe).
holds(s_540_jpg, hotel).
holds(s_540_jpg, restaurant).
holds(s_540_jpg, misccommercial).
holds(s_540_jpg, residential).
holds(s_540_jpg, commercial).
holds(s_540_jpg, awning).
holds(s_540_jpg, tiledrooftop).
holds(s_540_jpg, vendingmachine).
holds(s_540_jpg, machine).
holds(s_540_jpg, car).

sample(s_15841_jpg).
holds(s_15841_jpg, building).
holds(s_15841_jpg, feature).
holds(s_15841_jpg, constructionsite).
holds(s_15841_jpg, powerplant).
holds(s_15841_jpg, commercial).
holds(s_15841_jpg, door).
holds(s_15841_jpg, window).
holds(s_15841_jpg, awning).
holds(s_15841_jpg, tiledrooftop).
holds(s_15841_jpg, vendingmachine).
holds(s_15841_jpg, chimney).
holds(s_15841_jpg, machine).

sample(s_8472_jpg).
holds(s_8472_jpg, building).
holds(s_8472_jpg, feature).
holds(s_8472_jpg, cafe).
holds(s_8472_jpg, hotel).
holds(s_8472_jpg, misccommercial).
holds(s_8472_jpg, commercial).
holds(s_8472_jpg, awning).
holds(s_8472_jpg, vendingmachine).
holds(s_8472_jpg, chimney).
holds(s_8472_jpg, car).

sample(s_13286_jpg).
holds(s_13286_jpg, building).
holds(s_13286_jpg, feature).
holds(s_13286_jpg, miscresidential).
holds(s_13286_jpg, countryhouse).
holds(s_13286_jpg, door).
holds(s_13286_jpg, window).
holds(s_13286_jpg, porch).
holds(s_13286_jpg, sign).
holds(s_13286_jpg, tiledroof).
holds(s_13286_jpg, chimney).
holds(s_13286_jpg, car).

sample(s_11524_jpg).
holds(s_11524_jpg, building).
holds(s_11524_jpg, feature).
holds(s_11524_jpg, miscindustrial).
holds(s_11524_jpg, powerplant).
holds(s_11524_jpg, watertreatment).
holds(s_11524_jpg, door).
holds(s_11524_jpg, window).
holds(s_11524_jpg, tiledrooftop).
holds(s_11524_jpg, vendingmachine).
holds(s_11524_jpg, chimney).
holds(s_11524_jpg, machine).

sample(s_4764_jpg).
holds(s_4764_jpg, building).
holds(s_4764_jpg, feature).
holds(s_4764_jpg, cafe).
holds(s_4764_jpg, hotel).
holds(s_4764_jpg, store).
holds(s_4764_jpg, misccommercial).
holds(s_4764_jpg, commercial).
holds(s_4764_jpg, awning).
holds(s_4764_jpg, vendingmachine).
holds(s_4764_jpg, chimney).
holds(s_4764_jpg, car).

sample(s_9499_jpg).
holds(s_9499_jpg, building).
holds(s_9499_jpg, feature).
holds(s_9499_jpg, powerplant).
holds(s_9499_jpg, commercial).
holds(s_9499_jpg, door).
holds(s_9499_jpg, window).
holds(s_9499_jpg, awning).
holds(s_9499_jpg, tiledrooftop).
holds(s_9499_jpg, vendingmachine).
holds(s_9499_jpg, chimney).
holds(s_9499_jpg, machine).

sample(s_7152_jpg).
holds(s_7152_jpg, building).
holds(s_7152_jpg, feature).
holds(s_7152_jpg, cafe).
holds(s_7152_jpg, hotel).
holds(s_7152_jpg, restaurant).
holds(s_7152_jpg, store).
holds(s_7152_jpg, residential).
holds(s_7152_jpg, commercial).
holds(s_7152_jpg, tiledrooftop).
holds(s_7152_jpg, vendingmachine).
holds(s_7152_jpg, chimney).
holds(s_7152_jpg, pipe).
holds(s_7152_jpg, car).

sample(s_426_jpg).
holds(s_426_jpg, building).
holds(s_426_jpg, feature).
holds(s_426_jpg, cafe).
holds(s_426_jpg, hotel).
holds(s_426_jpg, restaurant).
holds(s_426_jpg, misccommercial).
holds(s_426_jpg, residential).
holds(s_426_jpg, commercial).
holds(s_426_jpg, awning).
holds(s_426_jpg, vendingmachine).
holds(s_426_jpg, chimney).
holds(s_426_jpg, car).

sample(s_8045_jpg).
holds(s_8045_jpg, building).
holds(s_8045_jpg, feature).
holds(s_8045_jpg, miscresidential).
holds(s_8045_jpg, countryhouse).
holds(s_8045_jpg, door).
holds(s_8045_jpg, window).
holds(s_8045_jpg, porch).
holds(s_8045_jpg, sign).
holds(s_8045_jpg, tiledroof).
holds(s_8045_jpg, chimney).
holds(s_8045_jpg, car).

sample(s_9615_jpg).
holds(s_9615_jpg, building).
holds(s_9615_jpg, feature).
holds(s_9615_jpg, cafe).
holds(s_9615_jpg, store).
holds(s_9615_jpg, misccommercial).
holds(s_9615_jpg, commercial).
holds(s_9615_jpg, window).
holds(s_9615_jpg, awning).
holds(s_9615_jpg, vendingmachine).
holds(s_9615_jpg, chimney).
holds(s_9615_jpg, car).

sample(s_13682_jpg).
holds(s_13682_jpg, building).
holds(s_13682_jpg, feature).
holds(s_13682_jpg, suburban).
holds(s_13682_jpg, miscresidential).
holds(s_13682_jpg, commercial).
holds(s_13682_jpg, door).
holds(s_13682_jpg, window).
holds(s_13682_jpg, porch).
holds(s_13682_jpg, sign).
holds(s_13682_jpg, tiledroof).
holds(s_13682_jpg, vendingmachine).
holds(s_13682_jpg, car).

sample(s_9534_jpg).
holds(s_9534_jpg, building).
holds(s_9534_jpg, feature).
holds(s_9534_jpg, cafe).
holds(s_9534_jpg, restaurant).
holds(s_9534_jpg, store).
holds(s_9534_jpg, misccommercial).
holds(s_9534_jpg, residential).
holds(s_9534_jpg, commercial).
holds(s_9534_jpg, awning).
holds(s_9534_jpg, vendingmachine).
holds(s_9534_jpg, chimney).
holds(s_9534_jpg, pipe).
holds(s_9534_jpg, car).

sample(s_14010_jpg).
holds(s_14010_jpg, building).
holds(s_14010_jpg, feature).
holds(s_14010_jpg, cafe).
holds(s_14010_jpg, hotel).
holds(s_14010_jpg, misccommercial).
holds(s_14010_jpg, commercial).
holds(s_14010_jpg, awning).
holds(s_14010_jpg, vendingmachine).
holds(s_14010_jpg, chimney).
holds(s_14010_jpg, car).

sample(s_14723_jpg).
holds(s_14723_jpg, building).
holds(s_14723_jpg, feature).
holds(s_14723_jpg, miscresidential).
holds(s_14723_jpg, commercial).
holds(s_14723_jpg, door).
holds(s_14723_jpg, window).
holds(s_14723_jpg, awning).
holds(s_14723_jpg, porch).
holds(s_14723_jpg, sign).
holds(s_14723_jpg, tiledroof).
holds(s_14723_jpg, vendingmachine).
holds(s_14723_jpg, chimney).
holds(s_14723_jpg, car).

sample(s_11501_jpg).
holds(s_11501_jpg, building).
holds(s_11501_jpg, feature).
holds(s_11501_jpg, suburban).
holds(s_11501_jpg, residential).
holds(s_11501_jpg, commercial).
holds(s_11501_jpg, sign).
holds(s_11501_jpg, tiledroof).
holds(s_11501_jpg, tiledrooftop).
holds(s_11501_jpg, vendingmachine).

sample(s_7337_jpg).
holds(s_7337_jpg, building).
holds(s_7337_jpg, feature).
holds(s_7337_jpg, suburban).
holds(s_7337_jpg, miscresidential).
holds(s_7337_jpg, commercial).
holds(s_7337_jpg, door).
holds(s_7337_jpg, window).
holds(s_7337_jpg, porch).
holds(s_7337_jpg, sign).
holds(s_7337_jpg, tiledroof).
holds(s_7337_jpg, vendingmachine).
holds(s_7337_jpg, car).

sample(s_1744_jpg).
holds(s_1744_jpg, building).
holds(s_1744_jpg, feature).
holds(s_1744_jpg, miscindustrial).
holds(s_1744_jpg, powerplant).
holds(s_1744_jpg, watertreatment).
holds(s_1744_jpg, door).
holds(s_1744_jpg, window).
holds(s_1744_jpg, sign).
holds(s_1744_jpg, tiledrooftop).
holds(s_1744_jpg, chimney).
holds(s_1744_jpg, machine).

sample(s_6984_jpg).
holds(s_6984_jpg, building).
holds(s_6984_jpg, feature).
holds(s_6984_jpg, cafe).
holds(s_6984_jpg, hotel).
holds(s_6984_jpg, restaurant).
holds(s_6984_jpg, store).
holds(s_6984_jpg, misccommercial).
holds(s_6984_jpg, residential).
holds(s_6984_jpg, commercial).
holds(s_6984_jpg, awning).
holds(s_6984_jpg, vendingmachine).
holds(s_6984_jpg, chimney).
holds(s_6984_jpg, pipe).
holds(s_6984_jpg, car).

sample(s_9432_jpg).
holds(s_9432_jpg, building).
holds(s_9432_jpg, feature).
holds(s_9432_jpg, cafe).
holds(s_9432_jpg, hotel).
holds(s_9432_jpg, restaurant).
holds(s_9432_jpg, misccommercial).
holds(s_9432_jpg, residential).
holds(s_9432_jpg, commercial).
holds(s_9432_jpg, awning).
holds(s_9432_jpg, vendingmachine).
holds(s_9432_jpg, car).

sample(s_5481_jpg).
holds(s_5481_jpg, building).
holds(s_5481_jpg, feature).
holds(s_5481_jpg, cafe).
holds(s_5481_jpg, hotel).
holds(s_5481_jpg, store).
holds(s_5481_jpg, misccommercial).
holds(s_5481_jpg, commercial).
holds(s_5481_jpg, awning).
holds(s_5481_jpg, vendingmachine).
holds(s_5481_jpg, chimney).
holds(s_5481_jpg, car).

sample(s_14987_jpg).
holds(s_14987_jpg, building).
holds(s_14987_jpg, feature).
holds(s_14987_jpg, miscresidential).
holds(s_14987_jpg, countryhouse).
holds(s_14987_jpg, door).
holds(s_14987_jpg, window).
holds(s_14987_jpg, porch).
holds(s_14987_jpg, sign).
holds(s_14987_jpg, tiledroof).
holds(s_14987_jpg, chimney).
holds(s_14987_jpg, car).

sample(s_8378_jpg).
holds(s_8378_jpg, building).
holds(s_8378_jpg, feature).
holds(s_8378_jpg, suburban).
holds(s_8378_jpg, commercial).
holds(s_8378_jpg, sign).
holds(s_8378_jpg, tiledroof).
holds(s_8378_jpg, tiledrooftop).
holds(s_8378_jpg, vendingmachine).

sample(s_9798_jpg).
holds(s_9798_jpg, building).
holds(s_9798_jpg, feature).
holds(s_9798_jpg, cafe).
holds(s_9798_jpg, restaurant).
holds(s_9798_jpg, misccommercial).
holds(s_9798_jpg, residential).
holds(s_9798_jpg, commercial).
holds(s_9798_jpg, awning).
holds(s_9798_jpg, vendingmachine).
holds(s_9798_jpg, chimney).
holds(s_9798_jpg, car).

sample(s_6642_jpg).
holds(s_6642_jpg, building).
holds(s_6642_jpg, feature).
holds(s_6642_jpg, cafe).
holds(s_6642_jpg, hotel).
holds(s_6642_jpg, restaurant).
holds(s_6642_jpg, store).
holds(s_6642_jpg, misccommercial).
holds(s_6642_jpg, residential).
holds(s_6642_jpg, commercial).
holds(s_6642_jpg, tiledrooftop).
holds(s_6642_jpg, vendingmachine).
holds(s_6642_jpg, chimney).
holds(s_6642_jpg, pipe).
holds(s_6642_jpg, machine).
holds(s_6642_jpg, car).

sample(s_7124_jpg).
holds(s_7124_jpg, building).
holds(s_7124_jpg, feature).
holds(s_7124_jpg, suburban).
holds(s_7124_jpg, miscresidential).
holds(s_7124_jpg, commercial).
holds(s_7124_jpg, door).
holds(s_7124_jpg, window).
holds(s_7124_jpg, porch).
holds(s_7124_jpg, sign).
holds(s_7124_jpg, tiledroof).
holds(s_7124_jpg, vendingmachine).
holds(s_7124_jpg, car).

sample(s_6819_jpg).
holds(s_6819_jpg, building).
holds(s_6819_jpg, feature).
holds(s_6819_jpg, cafe).
holds(s_6819_jpg, hotel).
holds(s_6819_jpg, misccommercial).
holds(s_6819_jpg, commercial).
holds(s_6819_jpg, door).
holds(s_6819_jpg, window).
holds(s_6819_jpg, awning).
holds(s_6819_jpg, tiledrooftop).
holds(s_6819_jpg, vendingmachine).
holds(s_6819_jpg, chimney).
holds(s_6819_jpg, car).

sample(s_14513_jpg).
holds(s_14513_jpg, building).
holds(s_14513_jpg, feature).
holds(s_14513_jpg, suburban).
holds(s_14513_jpg, miscresidential).
holds(s_14513_jpg, commercial).
holds(s_14513_jpg, door).
holds(s_14513_jpg, window).
holds(s_14513_jpg, porch).
holds(s_14513_jpg, sign).
holds(s_14513_jpg, tiledroof).
holds(s_14513_jpg, vendingmachine).
holds(s_14513_jpg, car).

sample(s_14197_jpg).
holds(s_14197_jpg, building).
holds(s_14197_jpg, feature).
holds(s_14197_jpg, miscindustrial).
holds(s_14197_jpg, watertreatment).
holds(s_14197_jpg, door).
holds(s_14197_jpg, window).
holds(s_14197_jpg, sign).
holds(s_14197_jpg, tiledrooftop).
holds(s_14197_jpg, vendingmachine).
holds(s_14197_jpg, machine).

sample(s_15882_jpg).
holds(s_15882_jpg, building).
holds(s_15882_jpg, feature).
holds(s_15882_jpg, cafe).
holds(s_15882_jpg, store).
holds(s_15882_jpg, misccommercial).
holds(s_15882_jpg, commercial).
holds(s_15882_jpg, awning).
holds(s_15882_jpg, vendingmachine).
holds(s_15882_jpg, chimney).
holds(s_15882_jpg, car).

sample(s_12693_jpg).
holds(s_12693_jpg, building).
holds(s_12693_jpg, feature).
holds(s_12693_jpg, cafe).
holds(s_12693_jpg, misccommercial).
holds(s_12693_jpg, commercial).
holds(s_12693_jpg, door).
holds(s_12693_jpg, awning).
holds(s_12693_jpg, tiledrooftop).
holds(s_12693_jpg, vendingmachine).
holds(s_12693_jpg, chimney).
holds(s_12693_jpg, car).

sample(s_12969_jpg).
holds(s_12969_jpg, building).
holds(s_12969_jpg, feature).
holds(s_12969_jpg, cafe).
holds(s_12969_jpg, hotel).
holds(s_12969_jpg, store).
holds(s_12969_jpg, misccommercial).
holds(s_12969_jpg, residential).
holds(s_12969_jpg, commercial).
holds(s_12969_jpg, awning).
holds(s_12969_jpg, vendingmachine).
holds(s_12969_jpg, chimney).
holds(s_12969_jpg, car).

sample(s_9524_jpg).
holds(s_9524_jpg, building).
holds(s_9524_jpg, feature).
holds(s_9524_jpg, miscresidential).
holds(s_9524_jpg, commercial).
holds(s_9524_jpg, door).
holds(s_9524_jpg, window).
holds(s_9524_jpg, awning).
holds(s_9524_jpg, porch).
holds(s_9524_jpg, sign).
holds(s_9524_jpg, tiledroof).
holds(s_9524_jpg, vendingmachine).
holds(s_9524_jpg, chimney).
holds(s_9524_jpg, car).

sample(s_5665_jpg).
holds(s_5665_jpg, building).
holds(s_5665_jpg, feature).
holds(s_5665_jpg, constructionsite).
holds(s_5665_jpg, powerplant).
holds(s_5665_jpg, commercial).
holds(s_5665_jpg, door).
holds(s_5665_jpg, window).
holds(s_5665_jpg, tiledrooftop).
holds(s_5665_jpg, vendingmachine).
holds(s_5665_jpg, chimney).
holds(s_5665_jpg, machine).

sample(s_14892_jpg).
holds(s_14892_jpg, building).
holds(s_14892_jpg, feature).
holds(s_14892_jpg, cafe).
holds(s_14892_jpg, hotel).
holds(s_14892_jpg, store).
holds(s_14892_jpg, misccommercial).
holds(s_14892_jpg, residential).
holds(s_14892_jpg, commercial).
holds(s_14892_jpg, awning).
holds(s_14892_jpg, vendingmachine).
holds(s_14892_jpg, chimney).
holds(s_14892_jpg, car).

sample(s_621_jpg).
holds(s_621_jpg, building).
holds(s_621_jpg, feature).
holds(s_621_jpg, cafe).
holds(s_621_jpg, hotel).
holds(s_621_jpg, store).
holds(s_621_jpg, misccommercial).
holds(s_621_jpg, residential).
holds(s_621_jpg, commercial).
holds(s_621_jpg, awning).
holds(s_621_jpg, vendingmachine).
holds(s_621_jpg, chimney).
holds(s_621_jpg, car).

sample(s_825_jpg).
holds(s_825_jpg, building).
holds(s_825_jpg, feature).
holds(s_825_jpg, cafe).
holds(s_825_jpg, hotel).
holds(s_825_jpg, restaurant).
holds(s_825_jpg, misccommercial).
holds(s_825_jpg, commercial).
holds(s_825_jpg, awning).
holds(s_825_jpg, vendingmachine).
holds(s_825_jpg, chimney).
holds(s_825_jpg, pipe).
holds(s_825_jpg, car).

sample(s_12836_jpg).
holds(s_12836_jpg, building).
holds(s_12836_jpg, feature).
holds(s_12836_jpg, suburban).
holds(s_12836_jpg, miscresidential).
holds(s_12836_jpg, countryhouse).
holds(s_12836_jpg, commercial).
holds(s_12836_jpg, door).
holds(s_12836_jpg, window).
holds(s_12836_jpg, porch).
holds(s_12836_jpg, sign).
holds(s_12836_jpg, tiledroof).
holds(s_12836_jpg, car).

sample(s_9986_jpg).
holds(s_9986_jpg, building).
holds(s_9986_jpg, feature).
holds(s_9986_jpg, suburban).
holds(s_9986_jpg, miscresidential).
holds(s_9986_jpg, commercial).
holds(s_9986_jpg, door).
holds(s_9986_jpg, window).
holds(s_9986_jpg, porch).
holds(s_9986_jpg, sign).
holds(s_9986_jpg, tiledroof).
holds(s_9986_jpg, vendingmachine).
holds(s_9986_jpg, car).

sample(s_5076_jpg).
holds(s_5076_jpg, building).
holds(s_5076_jpg, feature).
holds(s_5076_jpg, cafe).
holds(s_5076_jpg, store).
holds(s_5076_jpg, commercial).
holds(s_5076_jpg, door).
holds(s_5076_jpg, awning).
holds(s_5076_jpg, vendingmachine).
holds(s_5076_jpg, chimney).
holds(s_5076_jpg, car).

sample(s_11618_jpg).
holds(s_11618_jpg, building).
holds(s_11618_jpg, feature).
holds(s_11618_jpg, suburban).
holds(s_11618_jpg, miscresidential).
holds(s_11618_jpg, commercial).
holds(s_11618_jpg, door).
holds(s_11618_jpg, window).
holds(s_11618_jpg, porch).
holds(s_11618_jpg, sign).
holds(s_11618_jpg, tiledroof).
holds(s_11618_jpg, vendingmachine).
holds(s_11618_jpg, car).

sample(s_3862_jpg).
holds(s_3862_jpg, building).
holds(s_3862_jpg, feature).
holds(s_3862_jpg, powerplant).
holds(s_3862_jpg, commercial).
holds(s_3862_jpg, door).
holds(s_3862_jpg, window).
holds(s_3862_jpg, awning).
holds(s_3862_jpg, tiledrooftop).
holds(s_3862_jpg, vendingmachine).
holds(s_3862_jpg, chimney).
holds(s_3862_jpg, machine).

sample(s_269_jpg).
holds(s_269_jpg, building).
holds(s_269_jpg, feature).
holds(s_269_jpg, miscresidential).
holds(s_269_jpg, door).
holds(s_269_jpg, window).
holds(s_269_jpg, porch).
holds(s_269_jpg, sign).
holds(s_269_jpg, tiledroof).
holds(s_269_jpg, vendingmachine).
holds(s_269_jpg, chimney).
holds(s_269_jpg, car).

sample(s_11247_jpg).
holds(s_11247_jpg, building).
holds(s_11247_jpg, feature).
holds(s_11247_jpg, cafe).
holds(s_11247_jpg, hotel).
holds(s_11247_jpg, misccommercial).
holds(s_11247_jpg, residential).
holds(s_11247_jpg, commercial).
holds(s_11247_jpg, door).
holds(s_11247_jpg, awning).
holds(s_11247_jpg, vendingmachine).
holds(s_11247_jpg, chimney).
holds(s_11247_jpg, car).

sample(s_14238_jpg).
holds(s_14238_jpg, building).
holds(s_14238_jpg, feature).
holds(s_14238_jpg, cafe).
holds(s_14238_jpg, hotel).
holds(s_14238_jpg, residential).
holds(s_14238_jpg, commercial).
holds(s_14238_jpg, door).
holds(s_14238_jpg, awning).
holds(s_14238_jpg, vendingmachine).
holds(s_14238_jpg, chimney).
holds(s_14238_jpg, car).

sample(s_8088_jpg).
holds(s_8088_jpg, building).
holds(s_8088_jpg, feature).
holds(s_8088_jpg, cafe).
holds(s_8088_jpg, hotel).
holds(s_8088_jpg, misccommercial).
holds(s_8088_jpg, commercial).
holds(s_8088_jpg, awning).
holds(s_8088_jpg, vendingmachine).
holds(s_8088_jpg, chimney).
holds(s_8088_jpg, car).

sample(s_11545_jpg).
holds(s_11545_jpg, building).
holds(s_11545_jpg, feature).
holds(s_11545_jpg, powerplant).
holds(s_11545_jpg, door).
holds(s_11545_jpg, window).
holds(s_11545_jpg, awning).
holds(s_11545_jpg, sign).
holds(s_11545_jpg, tiledrooftop).
holds(s_11545_jpg, vendingmachine).
holds(s_11545_jpg, chimney).
holds(s_11545_jpg, machine).

sample(s_12987_jpg).
holds(s_12987_jpg, building).
holds(s_12987_jpg, feature).
holds(s_12987_jpg, cafe).
holds(s_12987_jpg, hotel).
holds(s_12987_jpg, restaurant).
holds(s_12987_jpg, misccommercial).
holds(s_12987_jpg, commercial).
holds(s_12987_jpg, awning).
holds(s_12987_jpg, vendingmachine).
holds(s_12987_jpg, chimney).
holds(s_12987_jpg, car).

sample(s_7556_jpg).
holds(s_7556_jpg, building).
holds(s_7556_jpg, feature).
holds(s_7556_jpg, miscresidential).
holds(s_7556_jpg, countryhouse).
holds(s_7556_jpg, door).
holds(s_7556_jpg, window).
holds(s_7556_jpg, porch).
holds(s_7556_jpg, sign).
holds(s_7556_jpg, tiledroof).
holds(s_7556_jpg, chimney).
holds(s_7556_jpg, car).

sample(s_3806_jpg).
holds(s_3806_jpg, building).
holds(s_3806_jpg, feature).
holds(s_3806_jpg, miscresidential).
holds(s_3806_jpg, countryhouse).
holds(s_3806_jpg, door).
holds(s_3806_jpg, window).
holds(s_3806_jpg, porch).
holds(s_3806_jpg, sign).
holds(s_3806_jpg, tiledroof).
holds(s_3806_jpg, chimney).
holds(s_3806_jpg, car).

sample(s_15257_jpg).
holds(s_15257_jpg, building).
holds(s_15257_jpg, feature).
holds(s_15257_jpg, misccommercial).
holds(s_15257_jpg, miscresidential).
holds(s_15257_jpg, commercial).
holds(s_15257_jpg, door).
holds(s_15257_jpg, window).
holds(s_15257_jpg, awning).
holds(s_15257_jpg, porch).
holds(s_15257_jpg, sign).
holds(s_15257_jpg, tiledroof).
holds(s_15257_jpg, vendingmachine).
holds(s_15257_jpg, chimney).
holds(s_15257_jpg, car).

sample(s_7012_jpg).
holds(s_7012_jpg, building).
holds(s_7012_jpg, feature).
holds(s_7012_jpg, constructionsite).
holds(s_7012_jpg, powerplant).
holds(s_7012_jpg, commercial).
holds(s_7012_jpg, door).
holds(s_7012_jpg, awning).
holds(s_7012_jpg, tiledrooftop).
holds(s_7012_jpg, vendingmachine).
holds(s_7012_jpg, chimney).

sample(s_545_jpg).
holds(s_545_jpg, building).
holds(s_545_jpg, feature).
holds(s_545_jpg, suburban).
holds(s_545_jpg, miscresidential).
holds(s_545_jpg, countryhouse).
holds(s_545_jpg, commercial).
holds(s_545_jpg, door).
holds(s_545_jpg, window).
holds(s_545_jpg, porch).
holds(s_545_jpg, sign).
holds(s_545_jpg, tiledroof).
holds(s_545_jpg, vendingmachine).
holds(s_545_jpg, car).

sample(s_2780_jpg).
holds(s_2780_jpg, building).
holds(s_2780_jpg, feature).
holds(s_2780_jpg, suburban).
holds(s_2780_jpg, miscresidential).
holds(s_2780_jpg, commercial).
holds(s_2780_jpg, door).
holds(s_2780_jpg, window).
holds(s_2780_jpg, porch).
holds(s_2780_jpg, sign).
holds(s_2780_jpg, tiledroof).
holds(s_2780_jpg, vendingmachine).
holds(s_2780_jpg, car).

sample(s_11621_jpg).
holds(s_11621_jpg, building).
holds(s_11621_jpg, feature).
holds(s_11621_jpg, suburban).
holds(s_11621_jpg, miscresidential).
holds(s_11621_jpg, commercial).
holds(s_11621_jpg, door).
holds(s_11621_jpg, window).
holds(s_11621_jpg, porch).
holds(s_11621_jpg, sign).
holds(s_11621_jpg, tiledroof).
holds(s_11621_jpg, vendingmachine).
holds(s_11621_jpg, car).

sample(s_9358_jpg).
holds(s_9358_jpg, building).
holds(s_9358_jpg, feature).
holds(s_9358_jpg, constructionsite).
holds(s_9358_jpg, commercial).
holds(s_9358_jpg, door).
holds(s_9358_jpg, awning).
holds(s_9358_jpg, tiledrooftop).
holds(s_9358_jpg, vendingmachine).
holds(s_9358_jpg, chimney).
holds(s_9358_jpg, machine).

sample(s_1929_jpg).
holds(s_1929_jpg, building).
holds(s_1929_jpg, feature).
holds(s_1929_jpg, hotel).
holds(s_1929_jpg, misccommercial).
holds(s_1929_jpg, powerplant).
holds(s_1929_jpg, commercial).
holds(s_1929_jpg, door).
holds(s_1929_jpg, window).
holds(s_1929_jpg, awning).
holds(s_1929_jpg, tiledrooftop).
holds(s_1929_jpg, vendingmachine).
holds(s_1929_jpg, chimney).
holds(s_1929_jpg, machine).
holds(s_1929_jpg, car).

sample(s_15714_jpg).
holds(s_15714_jpg, building).
holds(s_15714_jpg, feature).
holds(s_15714_jpg, cafe).
holds(s_15714_jpg, hotel).
holds(s_15714_jpg, store).
holds(s_15714_jpg, residential).
holds(s_15714_jpg, commercial).
holds(s_15714_jpg, awning).
holds(s_15714_jpg, vendingmachine).
holds(s_15714_jpg, chimney).
holds(s_15714_jpg, car).

sample(s_15916_jpg).
holds(s_15916_jpg, building).
holds(s_15916_jpg, feature).
holds(s_15916_jpg, miscindustrial).
holds(s_15916_jpg, powerplant).
holds(s_15916_jpg, watertreatment).
holds(s_15916_jpg, door).
holds(s_15916_jpg, window).
holds(s_15916_jpg, sign).
holds(s_15916_jpg, tiledrooftop).
holds(s_15916_jpg, vendingmachine).
holds(s_15916_jpg, chimney).
holds(s_15916_jpg, machine).

sample(s_4833_jpg).
holds(s_4833_jpg, building).
holds(s_4833_jpg, feature).
holds(s_4833_jpg, cafe).
holds(s_4833_jpg, hotel).
holds(s_4833_jpg, store).
holds(s_4833_jpg, misccommercial).
holds(s_4833_jpg, commercial).
holds(s_4833_jpg, awning).
holds(s_4833_jpg, vendingmachine).
holds(s_4833_jpg, chimney).
holds(s_4833_jpg, car).

sample(s_14323_jpg).
holds(s_14323_jpg, building).
holds(s_14323_jpg, feature).
holds(s_14323_jpg, miscindustrial).
holds(s_14323_jpg, powerplant).
holds(s_14323_jpg, watertreatment).
holds(s_14323_jpg, door).
holds(s_14323_jpg, window).
holds(s_14323_jpg, sign).
holds(s_14323_jpg, tiledrooftop).
holds(s_14323_jpg, vendingmachine).
holds(s_14323_jpg, chimney).
holds(s_14323_jpg, machine).

sample(s_15819_jpg).
holds(s_15819_jpg, building).
holds(s_15819_jpg, feature).
holds(s_15819_jpg, cafe).
holds(s_15819_jpg, hotel).
holds(s_15819_jpg, misccommercial).
holds(s_15819_jpg, commercial).
holds(s_15819_jpg, door).
holds(s_15819_jpg, window).
holds(s_15819_jpg, awning).
holds(s_15819_jpg, vendingmachine).
holds(s_15819_jpg, chimney).
holds(s_15819_jpg, car).

sample(s_12131_jpg).
holds(s_12131_jpg, building).
holds(s_12131_jpg, feature).
holds(s_12131_jpg, suburban).
holds(s_12131_jpg, commercial).
holds(s_12131_jpg, door).
holds(s_12131_jpg, window).
holds(s_12131_jpg, porch).
holds(s_12131_jpg, sign).
holds(s_12131_jpg, tiledroof).
holds(s_12131_jpg, tiledrooftop).
holds(s_12131_jpg, vendingmachine).

sample(s_13677_jpg).
holds(s_13677_jpg, building).
holds(s_13677_jpg, feature).
holds(s_13677_jpg, cafe).
holds(s_13677_jpg, hotel).
holds(s_13677_jpg, restaurant).
holds(s_13677_jpg, store).
holds(s_13677_jpg, misccommercial).
holds(s_13677_jpg, residential).
holds(s_13677_jpg, commercial).
holds(s_13677_jpg, awning).
holds(s_13677_jpg, vendingmachine).
holds(s_13677_jpg, chimney).
holds(s_13677_jpg, pipe).
holds(s_13677_jpg, car).

sample(s_4813_jpg).
holds(s_4813_jpg, building).
holds(s_4813_jpg, feature).
holds(s_4813_jpg, constructionsite).
holds(s_4813_jpg, powerplant).
holds(s_4813_jpg, commercial).
holds(s_4813_jpg, door).
holds(s_4813_jpg, window).
holds(s_4813_jpg, awning).
holds(s_4813_jpg, tiledrooftop).
holds(s_4813_jpg, vendingmachine).
holds(s_4813_jpg, chimney).
holds(s_4813_jpg, machine).

sample(s_12763_jpg).
holds(s_12763_jpg, building).
holds(s_12763_jpg, feature).
holds(s_12763_jpg, constructionsite).
holds(s_12763_jpg, commercial).
holds(s_12763_jpg, door).
holds(s_12763_jpg, awning).
holds(s_12763_jpg, tiledrooftop).
holds(s_12763_jpg, vendingmachine).
holds(s_12763_jpg, chimney).
holds(s_12763_jpg, machine).

sample(s_8001_jpg).
holds(s_8001_jpg, building).
holds(s_8001_jpg, feature).
holds(s_8001_jpg, cafe).
holds(s_8001_jpg, hotel).
holds(s_8001_jpg, restaurant).
holds(s_8001_jpg, store).
holds(s_8001_jpg, misccommercial).
holds(s_8001_jpg, residential).
holds(s_8001_jpg, commercial).
holds(s_8001_jpg, awning).
holds(s_8001_jpg, vendingmachine).
holds(s_8001_jpg, chimney).
holds(s_8001_jpg, pipe).
holds(s_8001_jpg, car).

sample(s_1865_jpg).
holds(s_1865_jpg, building).
holds(s_1865_jpg, feature).
holds(s_1865_jpg, suburban).
holds(s_1865_jpg, commercial).
holds(s_1865_jpg, door).
holds(s_1865_jpg, window).
holds(s_1865_jpg, porch).
holds(s_1865_jpg, sign).
holds(s_1865_jpg, tiledroof).
holds(s_1865_jpg, tiledrooftop).
holds(s_1865_jpg, vendingmachine).

sample(s_2528_jpg).
holds(s_2528_jpg, building).
holds(s_2528_jpg, feature).
holds(s_2528_jpg, miscresidential).
holds(s_2528_jpg, door).
holds(s_2528_jpg, window).
holds(s_2528_jpg, porch).
holds(s_2528_jpg, sign).
holds(s_2528_jpg, tiledroof).
holds(s_2528_jpg, vendingmachine).
holds(s_2528_jpg, chimney).
holds(s_2528_jpg, car).

sample(s_6982_jpg).
holds(s_6982_jpg, building).
holds(s_6982_jpg, feature).
holds(s_6982_jpg, constructionsite).
holds(s_6982_jpg, powerplant).
holds(s_6982_jpg, commercial).
holds(s_6982_jpg, door).
holds(s_6982_jpg, awning).
holds(s_6982_jpg, tiledrooftop).
holds(s_6982_jpg, vendingmachine).
holds(s_6982_jpg, chimney).
holds(s_6982_jpg, machine).

sample(s_8784_jpg).
holds(s_8784_jpg, building).
holds(s_8784_jpg, feature).
holds(s_8784_jpg, cafe).
holds(s_8784_jpg, hotel).
holds(s_8784_jpg, store).
holds(s_8784_jpg, misccommercial).
holds(s_8784_jpg, commercial).
holds(s_8784_jpg, window).
holds(s_8784_jpg, awning).
holds(s_8784_jpg, vendingmachine).
holds(s_8784_jpg, chimney).
holds(s_8784_jpg, car).

sample(s_1996_jpg).
holds(s_1996_jpg, building).
holds(s_1996_jpg, feature).
holds(s_1996_jpg, powerplant).
holds(s_1996_jpg, door).
holds(s_1996_jpg, window).
holds(s_1996_jpg, awning).
holds(s_1996_jpg, tiledrooftop).
holds(s_1996_jpg, vendingmachine).
holds(s_1996_jpg, chimney).
holds(s_1996_jpg, machine).

sample(s_3869_jpg).
holds(s_3869_jpg, building).
holds(s_3869_jpg, feature).
holds(s_3869_jpg, miscresidential).
holds(s_3869_jpg, countryhouse).
holds(s_3869_jpg, door).
holds(s_3869_jpg, window).
holds(s_3869_jpg, porch).
holds(s_3869_jpg, sign).
holds(s_3869_jpg, tiledroof).
holds(s_3869_jpg, chimney).
holds(s_3869_jpg, car).

sample(s_11515_jpg).
holds(s_11515_jpg, building).
holds(s_11515_jpg, feature).
holds(s_11515_jpg, miscindustrial).
holds(s_11515_jpg, watertreatment).
holds(s_11515_jpg, door).
holds(s_11515_jpg, window).
holds(s_11515_jpg, sign).
holds(s_11515_jpg, tiledrooftop).
holds(s_11515_jpg, vendingmachine).
holds(s_11515_jpg, machine).

sample(s_2487_jpg).
holds(s_2487_jpg, building).
holds(s_2487_jpg, feature).
holds(s_2487_jpg, cafe).
holds(s_2487_jpg, hotel).
holds(s_2487_jpg, restaurant).
holds(s_2487_jpg, constructionsite).
holds(s_2487_jpg, residential).
holds(s_2487_jpg, commercial).
holds(s_2487_jpg, tiledrooftop).
holds(s_2487_jpg, vendingmachine).
holds(s_2487_jpg, chimney).
holds(s_2487_jpg, pipe).
holds(s_2487_jpg, machine).
holds(s_2487_jpg, car).

sample(s_15534_jpg).
holds(s_15534_jpg, building).
holds(s_15534_jpg, feature).
holds(s_15534_jpg, cafe).
holds(s_15534_jpg, hotel).
holds(s_15534_jpg, store).
holds(s_15534_jpg, misccommercial).
holds(s_15534_jpg, commercial).
holds(s_15534_jpg, awning).
holds(s_15534_jpg, vendingmachine).
holds(s_15534_jpg, chimney).
holds(s_15534_jpg, car).

sample(s_15272_jpg).
holds(s_15272_jpg, building).
holds(s_15272_jpg, feature).
holds(s_15272_jpg, suburban).
holds(s_15272_jpg, miscresidential).
holds(s_15272_jpg, commercial).
holds(s_15272_jpg, door).
holds(s_15272_jpg, window).
holds(s_15272_jpg, porch).
holds(s_15272_jpg, sign).
holds(s_15272_jpg, tiledroof).
holds(s_15272_jpg, vendingmachine).
holds(s_15272_jpg, car).

sample(s_10201_jpg).
holds(s_10201_jpg, building).
holds(s_10201_jpg, feature).
holds(s_10201_jpg, constructionsite).
holds(s_10201_jpg, powerplant).
holds(s_10201_jpg, commercial).
holds(s_10201_jpg, door).
holds(s_10201_jpg, awning).
holds(s_10201_jpg, tiledrooftop).
holds(s_10201_jpg, vendingmachine).
holds(s_10201_jpg, chimney).

sample(s_15945_jpg).
holds(s_15945_jpg, building).
holds(s_15945_jpg, feature).
holds(s_15945_jpg, cafe).
holds(s_15945_jpg, hotel).
holds(s_15945_jpg, restaurant).
holds(s_15945_jpg, store).
holds(s_15945_jpg, misccommercial).
holds(s_15945_jpg, residential).
holds(s_15945_jpg, commercial).
holds(s_15945_jpg, awning).
holds(s_15945_jpg, vendingmachine).
holds(s_15945_jpg, chimney).
holds(s_15945_jpg, pipe).
holds(s_15945_jpg, car).

sample(s_5608_jpg).
holds(s_5608_jpg, building).
holds(s_5608_jpg, feature).
holds(s_5608_jpg, powerplant).
holds(s_5608_jpg, door).
holds(s_5608_jpg, window).
holds(s_5608_jpg, awning).
holds(s_5608_jpg, tiledrooftop).
holds(s_5608_jpg, vendingmachine).
holds(s_5608_jpg, chimney).
holds(s_5608_jpg, machine).

sample(s_8363_jpg).
holds(s_8363_jpg, building).
holds(s_8363_jpg, feature).
holds(s_8363_jpg, suburban).
holds(s_8363_jpg, miscresidential).
holds(s_8363_jpg, countryhouse).
holds(s_8363_jpg, door).
holds(s_8363_jpg, window).
holds(s_8363_jpg, porch).
holds(s_8363_jpg, sign).
holds(s_8363_jpg, tiledroof).
holds(s_8363_jpg, car).

sample(s_14432_jpg).
holds(s_14432_jpg, building).
holds(s_14432_jpg, feature).
holds(s_14432_jpg, suburban).
holds(s_14432_jpg, miscresidential).
holds(s_14432_jpg, commercial).
holds(s_14432_jpg, door).
holds(s_14432_jpg, window).
holds(s_14432_jpg, porch).
holds(s_14432_jpg, sign).
holds(s_14432_jpg, tiledroof).
holds(s_14432_jpg, vendingmachine).
holds(s_14432_jpg, car).

sample(s_15893_jpg).
holds(s_15893_jpg, building).
holds(s_15893_jpg, feature).
holds(s_15893_jpg, suburban).
holds(s_15893_jpg, miscresidential).
holds(s_15893_jpg, commercial).
holds(s_15893_jpg, door).
holds(s_15893_jpg, window).
holds(s_15893_jpg, porch).
holds(s_15893_jpg, sign).
holds(s_15893_jpg, tiledroof).
holds(s_15893_jpg, vendingmachine).
holds(s_15893_jpg, car).

sample(s_11952_jpg).
holds(s_11952_jpg, building).
holds(s_11952_jpg, feature).
holds(s_11952_jpg, cafe).
holds(s_11952_jpg, hotel).
holds(s_11952_jpg, restaurant).
holds(s_11952_jpg, misccommercial).
holds(s_11952_jpg, residential).
holds(s_11952_jpg, commercial).
holds(s_11952_jpg, awning).
holds(s_11952_jpg, tiledrooftop).
holds(s_11952_jpg, vendingmachine).
holds(s_11952_jpg, pipe).
holds(s_11952_jpg, car).

sample(s_9701_jpg).
holds(s_9701_jpg, building).
holds(s_9701_jpg, feature).
holds(s_9701_jpg, miscresidential).
holds(s_9701_jpg, countryhouse).
holds(s_9701_jpg, door).
holds(s_9701_jpg, window).
holds(s_9701_jpg, porch).
holds(s_9701_jpg, sign).
holds(s_9701_jpg, tiledroof).
holds(s_9701_jpg, chimney).
holds(s_9701_jpg, car).

sample(s_8762_jpg).
holds(s_8762_jpg, building).
holds(s_8762_jpg, feature).
holds(s_8762_jpg, suburban).
holds(s_8762_jpg, miscresidential).
holds(s_8762_jpg, commercial).
holds(s_8762_jpg, door).
holds(s_8762_jpg, window).
holds(s_8762_jpg, porch).
holds(s_8762_jpg, sign).
holds(s_8762_jpg, tiledroof).
holds(s_8762_jpg, vendingmachine).
holds(s_8762_jpg, car).

sample(s_3485_jpg).
holds(s_3485_jpg, building).
holds(s_3485_jpg, feature).
holds(s_3485_jpg, suburban).
holds(s_3485_jpg, miscresidential).
holds(s_3485_jpg, countryhouse).
holds(s_3485_jpg, commercial).
holds(s_3485_jpg, door).
holds(s_3485_jpg, window).
holds(s_3485_jpg, porch).
holds(s_3485_jpg, sign).
holds(s_3485_jpg, tiledroof).
holds(s_3485_jpg, car).

sample(s_12102_jpg).
holds(s_12102_jpg, building).
holds(s_12102_jpg, feature).
holds(s_12102_jpg, cafe).
holds(s_12102_jpg, hotel).
holds(s_12102_jpg, store).
holds(s_12102_jpg, misccommercial).
holds(s_12102_jpg, residential).
holds(s_12102_jpg, commercial).
holds(s_12102_jpg, awning).
holds(s_12102_jpg, vendingmachine).
holds(s_12102_jpg, chimney).
holds(s_12102_jpg, pipe).
holds(s_12102_jpg, car).

sample(s_8132_jpg).
holds(s_8132_jpg, building).
holds(s_8132_jpg, feature).
holds(s_8132_jpg, suburban).
holds(s_8132_jpg, miscresidential).
holds(s_8132_jpg, commercial).
holds(s_8132_jpg, door).
holds(s_8132_jpg, window).
holds(s_8132_jpg, porch).
holds(s_8132_jpg, sign).
holds(s_8132_jpg, tiledroof).
holds(s_8132_jpg, vendingmachine).
holds(s_8132_jpg, car).

sample(s_2374_jpg).
holds(s_2374_jpg, building).
holds(s_2374_jpg, feature).
holds(s_2374_jpg, miscindustrial).
holds(s_2374_jpg, watertreatment).
holds(s_2374_jpg, door).
holds(s_2374_jpg, window).
holds(s_2374_jpg, sign).
holds(s_2374_jpg, tiledrooftop).
holds(s_2374_jpg, vendingmachine).
holds(s_2374_jpg, chimney).
holds(s_2374_jpg, machine).

sample(s_8742_jpg).
holds(s_8742_jpg, building).
holds(s_8742_jpg, feature).
holds(s_8742_jpg, cafe).
holds(s_8742_jpg, hotel).
holds(s_8742_jpg, misccommercial).
holds(s_8742_jpg, commercial).
holds(s_8742_jpg, window).
holds(s_8742_jpg, awning).
holds(s_8742_jpg, vendingmachine).
holds(s_8742_jpg, chimney).
holds(s_8742_jpg, car).

sample(s_22_jpg).
holds(s_22_jpg, building).
holds(s_22_jpg, feature).
holds(s_22_jpg, miscindustrial).
holds(s_22_jpg, watertreatment).
holds(s_22_jpg, door).
holds(s_22_jpg, window).
holds(s_22_jpg, sign).
holds(s_22_jpg, tiledrooftop).
holds(s_22_jpg, vendingmachine).
holds(s_22_jpg, machine).

sample(s_5013_jpg).
holds(s_5013_jpg, building).
holds(s_5013_jpg, feature).
holds(s_5013_jpg, cafe).
holds(s_5013_jpg, hotel).
holds(s_5013_jpg, restaurant).
holds(s_5013_jpg, store).
holds(s_5013_jpg, residential).
holds(s_5013_jpg, commercial).
holds(s_5013_jpg, tiledrooftop).
holds(s_5013_jpg, vendingmachine).
holds(s_5013_jpg, chimney).
holds(s_5013_jpg, pipe).
holds(s_5013_jpg, car).

sample(s_14703_jpg).
holds(s_14703_jpg, building).
holds(s_14703_jpg, feature).
holds(s_14703_jpg, cafe).
holds(s_14703_jpg, hotel).
holds(s_14703_jpg, store).
holds(s_14703_jpg, misccommercial).
holds(s_14703_jpg, residential).
holds(s_14703_jpg, commercial).
holds(s_14703_jpg, awning).
holds(s_14703_jpg, vendingmachine).
holds(s_14703_jpg, chimney).
holds(s_14703_jpg, car).

sample(s_8724_jpg).
holds(s_8724_jpg, building).
holds(s_8724_jpg, feature).
holds(s_8724_jpg, cafe).
holds(s_8724_jpg, hotel).
holds(s_8724_jpg, misccommercial).
holds(s_8724_jpg, commercial).
holds(s_8724_jpg, door).
holds(s_8724_jpg, awning).
holds(s_8724_jpg, vendingmachine).
holds(s_8724_jpg, chimney).
holds(s_8724_jpg, car).

sample(s_14120_jpg).
holds(s_14120_jpg, building).
holds(s_14120_jpg, feature).
holds(s_14120_jpg, miscresidential).
holds(s_14120_jpg, door).
holds(s_14120_jpg, window).
holds(s_14120_jpg, porch).
holds(s_14120_jpg, sign).
holds(s_14120_jpg, tiledroof).
holds(s_14120_jpg, vendingmachine).
holds(s_14120_jpg, chimney).
holds(s_14120_jpg, car).

sample(s_15267_jpg).
holds(s_15267_jpg, building).
holds(s_15267_jpg, feature).
holds(s_15267_jpg, cafe).
holds(s_15267_jpg, hotel).
holds(s_15267_jpg, store).
holds(s_15267_jpg, misccommercial).
holds(s_15267_jpg, residential).
holds(s_15267_jpg, commercial).
holds(s_15267_jpg, awning).
holds(s_15267_jpg, vendingmachine).
holds(s_15267_jpg, chimney).
holds(s_15267_jpg, car).

sample(s_15184_jpg).
holds(s_15184_jpg, building).
holds(s_15184_jpg, feature).
holds(s_15184_jpg, powerplant).
holds(s_15184_jpg, door).
holds(s_15184_jpg, window).
holds(s_15184_jpg, sign).
holds(s_15184_jpg, tiledrooftop).
holds(s_15184_jpg, chimney).
holds(s_15184_jpg, machine).

sample(s_14498_jpg).
holds(s_14498_jpg, building).
holds(s_14498_jpg, feature).
holds(s_14498_jpg, suburban).
holds(s_14498_jpg, miscresidential).
holds(s_14498_jpg, countryhouse).
holds(s_14498_jpg, commercial).
holds(s_14498_jpg, door).
holds(s_14498_jpg, window).
holds(s_14498_jpg, porch).
holds(s_14498_jpg, sign).
holds(s_14498_jpg, tiledroof).
holds(s_14498_jpg, vendingmachine).
holds(s_14498_jpg, car).

sample(s_8739_jpg).
holds(s_8739_jpg, building).
holds(s_8739_jpg, feature).
holds(s_8739_jpg, cafe).
holds(s_8739_jpg, hotel).
holds(s_8739_jpg, restaurant).
holds(s_8739_jpg, store).
holds(s_8739_jpg, residential).
holds(s_8739_jpg, commercial).
holds(s_8739_jpg, awning).
holds(s_8739_jpg, vendingmachine).
holds(s_8739_jpg, chimney).
holds(s_8739_jpg, pipe).
holds(s_8739_jpg, car).

sample(s_5603_jpg).
holds(s_5603_jpg, building).
holds(s_5603_jpg, feature).
holds(s_5603_jpg, suburban).
holds(s_5603_jpg, commercial).
holds(s_5603_jpg, door).
holds(s_5603_jpg, window).
holds(s_5603_jpg, sign).
holds(s_5603_jpg, tiledroof).
holds(s_5603_jpg, tiledrooftop).
holds(s_5603_jpg, vendingmachine).

sample(s_7442_jpg).
holds(s_7442_jpg, building).
holds(s_7442_jpg, feature).
holds(s_7442_jpg, miscresidential).
holds(s_7442_jpg, countryhouse).
holds(s_7442_jpg, door).
holds(s_7442_jpg, window).
holds(s_7442_jpg, sign).
holds(s_7442_jpg, tiledroof).
holds(s_7442_jpg, chimney).
holds(s_7442_jpg, car).

sample(s_12977_jpg).
holds(s_12977_jpg, building).
holds(s_12977_jpg, feature).
holds(s_12977_jpg, suburban).
holds(s_12977_jpg, miscresidential).
holds(s_12977_jpg, commercial).
holds(s_12977_jpg, door).
holds(s_12977_jpg, window).
holds(s_12977_jpg, porch).
holds(s_12977_jpg, sign).
holds(s_12977_jpg, tiledroof).
holds(s_12977_jpg, vendingmachine).
holds(s_12977_jpg, car).

sample(s_8388_jpg).
holds(s_8388_jpg, building).
holds(s_8388_jpg, feature).
holds(s_8388_jpg, cafe).
holds(s_8388_jpg, restaurant).
holds(s_8388_jpg, store).
holds(s_8388_jpg, misccommercial).
holds(s_8388_jpg, residential).
holds(s_8388_jpg, commercial).
holds(s_8388_jpg, vendingmachine).
holds(s_8388_jpg, chimney).
holds(s_8388_jpg, pipe).
holds(s_8388_jpg, car).

sample(s_2151_jpg).
holds(s_2151_jpg, building).
holds(s_2151_jpg, feature).
holds(s_2151_jpg, cafe).
holds(s_2151_jpg, hotel).
holds(s_2151_jpg, store).
holds(s_2151_jpg, misccommercial).
holds(s_2151_jpg, commercial).
holds(s_2151_jpg, awning).
holds(s_2151_jpg, vendingmachine).
holds(s_2151_jpg, chimney).
holds(s_2151_jpg, car).

sample(s_2068_jpg).
holds(s_2068_jpg, building).
holds(s_2068_jpg, feature).
holds(s_2068_jpg, constructionsite).
holds(s_2068_jpg, commercial).
holds(s_2068_jpg, door).
holds(s_2068_jpg, awning).
holds(s_2068_jpg, tiledrooftop).
holds(s_2068_jpg, vendingmachine).
holds(s_2068_jpg, chimney).
holds(s_2068_jpg, machine).

sample(s_15000_jpg).
holds(s_15000_jpg, building).
holds(s_15000_jpg, feature).
holds(s_15000_jpg, cafe).
holds(s_15000_jpg, hotel).
holds(s_15000_jpg, misccommercial).
holds(s_15000_jpg, commercial).
holds(s_15000_jpg, door).
holds(s_15000_jpg, awning).
holds(s_15000_jpg, vendingmachine).
holds(s_15000_jpg, chimney).
holds(s_15000_jpg, car).

sample(s_11915_jpg).
holds(s_11915_jpg, building).
holds(s_11915_jpg, feature).
holds(s_11915_jpg, miscresidential).
holds(s_11915_jpg, commercial).
holds(s_11915_jpg, door).
holds(s_11915_jpg, window).
holds(s_11915_jpg, awning).
holds(s_11915_jpg, porch).
holds(s_11915_jpg, sign).
holds(s_11915_jpg, tiledroof).
holds(s_11915_jpg, vendingmachine).
holds(s_11915_jpg, chimney).
holds(s_11915_jpg, car).

sample(s_12613_jpg).
holds(s_12613_jpg, building).
holds(s_12613_jpg, feature).
holds(s_12613_jpg, miscindustrial).
holds(s_12613_jpg, watertreatment).
holds(s_12613_jpg, door).
holds(s_12613_jpg, window).
holds(s_12613_jpg, sign).
holds(s_12613_jpg, tiledrooftop).
holds(s_12613_jpg, vendingmachine).
holds(s_12613_jpg, chimney).
holds(s_12613_jpg, machine).

sample(s_2636_jpg).
holds(s_2636_jpg, building).
holds(s_2636_jpg, feature).
holds(s_2636_jpg, suburban).
holds(s_2636_jpg, miscresidential).
holds(s_2636_jpg, commercial).
holds(s_2636_jpg, door).
holds(s_2636_jpg, window).
holds(s_2636_jpg, porch).
holds(s_2636_jpg, sign).
holds(s_2636_jpg, tiledroof).
holds(s_2636_jpg, vendingmachine).
holds(s_2636_jpg, car).

sample(s_14483_jpg).
holds(s_14483_jpg, building).
holds(s_14483_jpg, feature).
holds(s_14483_jpg, suburban).
holds(s_14483_jpg, commercial).
holds(s_14483_jpg, door).
holds(s_14483_jpg, window).
holds(s_14483_jpg, porch).
holds(s_14483_jpg, sign).
holds(s_14483_jpg, tiledroof).
holds(s_14483_jpg, tiledrooftop).
holds(s_14483_jpg, vendingmachine).

sample(s_9296_jpg).
holds(s_9296_jpg, building).
holds(s_9296_jpg, feature).
holds(s_9296_jpg, miscresidential).
holds(s_9296_jpg, commercial).
holds(s_9296_jpg, door).
holds(s_9296_jpg, window).
holds(s_9296_jpg, porch).
holds(s_9296_jpg, sign).
holds(s_9296_jpg, tiledroof).
holds(s_9296_jpg, vendingmachine).
holds(s_9296_jpg, car).

sample(s_56_jpg).
holds(s_56_jpg, building).
holds(s_56_jpg, feature).
holds(s_56_jpg, miscresidential).
holds(s_56_jpg, countryhouse).
holds(s_56_jpg, door).
holds(s_56_jpg, window).
holds(s_56_jpg, porch).
holds(s_56_jpg, sign).
holds(s_56_jpg, tiledroof).
holds(s_56_jpg, chimney).
holds(s_56_jpg, car).

sample(s_9166_jpg).
holds(s_9166_jpg, building).
holds(s_9166_jpg, feature).
holds(s_9166_jpg, miscindustrial).
holds(s_9166_jpg, powerplant).
holds(s_9166_jpg, watertreatment).
holds(s_9166_jpg, door).
holds(s_9166_jpg, window).
holds(s_9166_jpg, sign).
holds(s_9166_jpg, tiledrooftop).
holds(s_9166_jpg, chimney).
holds(s_9166_jpg, machine).

sample(s_13767_jpg).
holds(s_13767_jpg, building).
holds(s_13767_jpg, feature).
holds(s_13767_jpg, cafe).
holds(s_13767_jpg, misccommercial).
holds(s_13767_jpg, commercial).
holds(s_13767_jpg, door).
holds(s_13767_jpg, window).
holds(s_13767_jpg, awning).
holds(s_13767_jpg, tiledroof).
holds(s_13767_jpg, vendingmachine).
holds(s_13767_jpg, chimney).
holds(s_13767_jpg, car).

sample(s_11808_jpg).
holds(s_11808_jpg, building).
holds(s_11808_jpg, feature).
holds(s_11808_jpg, hotel).
holds(s_11808_jpg, restaurant).
holds(s_11808_jpg, store).
holds(s_11808_jpg, residential).
holds(s_11808_jpg, commercial).
holds(s_11808_jpg, vendingmachine).
holds(s_11808_jpg, chimney).
holds(s_11808_jpg, pipe).
holds(s_11808_jpg, car).

sample(s_5453_jpg).
holds(s_5453_jpg, building).
holds(s_5453_jpg, feature).
holds(s_5453_jpg, suburban).
holds(s_5453_jpg, commercial).
holds(s_5453_jpg, door).
holds(s_5453_jpg, window).
holds(s_5453_jpg, porch).
holds(s_5453_jpg, sign).
holds(s_5453_jpg, tiledroof).
holds(s_5453_jpg, tiledrooftop).
holds(s_5453_jpg, vendingmachine).

sample(s_9573_jpg).
holds(s_9573_jpg, building).
holds(s_9573_jpg, feature).
holds(s_9573_jpg, cafe).
holds(s_9573_jpg, restaurant).
holds(s_9573_jpg, store).
holds(s_9573_jpg, misccommercial).
holds(s_9573_jpg, residential).
holds(s_9573_jpg, commercial).
holds(s_9573_jpg, awning).
holds(s_9573_jpg, vendingmachine).
holds(s_9573_jpg, chimney).
holds(s_9573_jpg, pipe).
holds(s_9573_jpg, car).

sample(s_2238_jpg).
holds(s_2238_jpg, building).
holds(s_2238_jpg, feature).
holds(s_2238_jpg, cafe).
holds(s_2238_jpg, hotel).
holds(s_2238_jpg, store).
holds(s_2238_jpg, misccommercial).
holds(s_2238_jpg, commercial).
holds(s_2238_jpg, awning).
holds(s_2238_jpg, vendingmachine).
holds(s_2238_jpg, chimney).
holds(s_2238_jpg, car).

sample(s_7477_jpg).
holds(s_7477_jpg, building).
holds(s_7477_jpg, feature).
holds(s_7477_jpg, miscindustrial).
holds(s_7477_jpg, powerplant).
holds(s_7477_jpg, watertreatment).
holds(s_7477_jpg, door).
holds(s_7477_jpg, window).
holds(s_7477_jpg, awning).
holds(s_7477_jpg, tiledrooftop).
holds(s_7477_jpg, vendingmachine).
holds(s_7477_jpg, chimney).
holds(s_7477_jpg, machine).

sample(s_13862_jpg).
holds(s_13862_jpg, building).
holds(s_13862_jpg, feature).
holds(s_13862_jpg, suburban).
holds(s_13862_jpg, miscresidential).
holds(s_13862_jpg, commercial).
holds(s_13862_jpg, door).
holds(s_13862_jpg, window).
holds(s_13862_jpg, porch).
holds(s_13862_jpg, sign).
holds(s_13862_jpg, tiledroof).
holds(s_13862_jpg, vendingmachine).
holds(s_13862_jpg, car).

sample(s_5773_jpg).
holds(s_5773_jpg, building).
holds(s_5773_jpg, feature).
holds(s_5773_jpg, constructionsite).
holds(s_5773_jpg, commercial).
holds(s_5773_jpg, door).
holds(s_5773_jpg, awning).
holds(s_5773_jpg, tiledrooftop).
holds(s_5773_jpg, vendingmachine).
holds(s_5773_jpg, chimney).
holds(s_5773_jpg, machine).

sample(s_9666_jpg).
holds(s_9666_jpg, building).
holds(s_9666_jpg, feature).
holds(s_9666_jpg, constructionsite).
holds(s_9666_jpg, commercial).
holds(s_9666_jpg, door).
holds(s_9666_jpg, window).
holds(s_9666_jpg, awning).
holds(s_9666_jpg, tiledrooftop).
holds(s_9666_jpg, vendingmachine).
holds(s_9666_jpg, chimney).
holds(s_9666_jpg, machine).
holds(s_9666_jpg, car).

sample(s_5895_jpg).
holds(s_5895_jpg, building).
holds(s_5895_jpg, feature).
holds(s_5895_jpg, cafe).
holds(s_5895_jpg, hotel).
holds(s_5895_jpg, misccommercial).
holds(s_5895_jpg, commercial).
holds(s_5895_jpg, door).
holds(s_5895_jpg, window).
holds(s_5895_jpg, awning).
holds(s_5895_jpg, vendingmachine).
holds(s_5895_jpg, chimney).
holds(s_5895_jpg, car).

sample(s_14607_jpg).
holds(s_14607_jpg, building).
holds(s_14607_jpg, feature).
holds(s_14607_jpg, cafe).
holds(s_14607_jpg, hotel).
holds(s_14607_jpg, store).
holds(s_14607_jpg, misccommercial).
holds(s_14607_jpg, residential).
holds(s_14607_jpg, commercial).
holds(s_14607_jpg, awning).
holds(s_14607_jpg, vendingmachine).
holds(s_14607_jpg, chimney).
holds(s_14607_jpg, pipe).
holds(s_14607_jpg, car).

sample(s_15769_jpg).
holds(s_15769_jpg, building).
holds(s_15769_jpg, feature).
holds(s_15769_jpg, miscindustrial).
holds(s_15769_jpg, watertreatment).
holds(s_15769_jpg, door).
holds(s_15769_jpg, window).
holds(s_15769_jpg, sign).
holds(s_15769_jpg, tiledrooftop).
holds(s_15769_jpg, vendingmachine).
holds(s_15769_jpg, machine).

sample(s_15866_jpg).
holds(s_15866_jpg, building).
holds(s_15866_jpg, feature).
holds(s_15866_jpg, suburban).
holds(s_15866_jpg, miscresidential).
holds(s_15866_jpg, commercial).
holds(s_15866_jpg, door).
holds(s_15866_jpg, window).
holds(s_15866_jpg, porch).
holds(s_15866_jpg, sign).
holds(s_15866_jpg, tiledroof).
holds(s_15866_jpg, vendingmachine).
holds(s_15866_jpg, car).

sample(s_6368_jpg).
holds(s_6368_jpg, building).
holds(s_6368_jpg, feature).
holds(s_6368_jpg, miscresidential).
holds(s_6368_jpg, countryhouse).
holds(s_6368_jpg, door).
holds(s_6368_jpg, window).
holds(s_6368_jpg, porch).
holds(s_6368_jpg, sign).
holds(s_6368_jpg, tiledroof).
holds(s_6368_jpg, chimney).
holds(s_6368_jpg, car).

sample(s_3513_jpg).
holds(s_3513_jpg, building).
holds(s_3513_jpg, feature).
holds(s_3513_jpg, cafe).
holds(s_3513_jpg, hotel).
holds(s_3513_jpg, residential).
holds(s_3513_jpg, commercial).
holds(s_3513_jpg, awning).
holds(s_3513_jpg, vendingmachine).
holds(s_3513_jpg, chimney).
holds(s_3513_jpg, car).

sample(s_5032_jpg).
holds(s_5032_jpg, building).
holds(s_5032_jpg, feature).
holds(s_5032_jpg, miscindustrial).
holds(s_5032_jpg, powerplant).
holds(s_5032_jpg, watertreatment).
holds(s_5032_jpg, door).
holds(s_5032_jpg, window).
holds(s_5032_jpg, sign).
holds(s_5032_jpg, tiledrooftop).
holds(s_5032_jpg, vendingmachine).
holds(s_5032_jpg, chimney).
holds(s_5032_jpg, machine).

sample(s_13153_jpg).
holds(s_13153_jpg, building).
holds(s_13153_jpg, feature).
holds(s_13153_jpg, constructionsite).
holds(s_13153_jpg, commercial).
holds(s_13153_jpg, door).
holds(s_13153_jpg, awning).
holds(s_13153_jpg, tiledrooftop).
holds(s_13153_jpg, vendingmachine).
holds(s_13153_jpg, chimney).
holds(s_13153_jpg, machine).

sample(s_2356_jpg).
holds(s_2356_jpg, building).
holds(s_2356_jpg, feature).
holds(s_2356_jpg, miscindustrial).
holds(s_2356_jpg, powerplant).
holds(s_2356_jpg, watertreatment).
holds(s_2356_jpg, door).
holds(s_2356_jpg, window).
holds(s_2356_jpg, sign).
holds(s_2356_jpg, tiledrooftop).
holds(s_2356_jpg, chimney).
holds(s_2356_jpg, machine).

sample(s_12958_jpg).
holds(s_12958_jpg, building).
holds(s_12958_jpg, feature).
holds(s_12958_jpg, powerplant).
holds(s_12958_jpg, door).
holds(s_12958_jpg, window).
holds(s_12958_jpg, sign).
holds(s_12958_jpg, tiledrooftop).
holds(s_12958_jpg, vendingmachine).
holds(s_12958_jpg, chimney).

sample(s_9257_jpg).
holds(s_9257_jpg, building).
holds(s_9257_jpg, feature).
holds(s_9257_jpg, miscresidential).
holds(s_9257_jpg, countryhouse).
holds(s_9257_jpg, door).
holds(s_9257_jpg, window).
holds(s_9257_jpg, porch).
holds(s_9257_jpg, sign).
holds(s_9257_jpg, tiledroof).
holds(s_9257_jpg, chimney).
holds(s_9257_jpg, car).

sample(s_13508_jpg).
holds(s_13508_jpg, building).
holds(s_13508_jpg, feature).
holds(s_13508_jpg, suburban).
holds(s_13508_jpg, commercial).
holds(s_13508_jpg, door).
holds(s_13508_jpg, window).
holds(s_13508_jpg, sign).
holds(s_13508_jpg, tiledroof).
holds(s_13508_jpg, tiledrooftop).
holds(s_13508_jpg, vendingmachine).

sample(s_218_jpg).
holds(s_218_jpg, building).
holds(s_218_jpg, feature).
holds(s_218_jpg, miscresidential).
holds(s_218_jpg, countryhouse).
holds(s_218_jpg, door).
holds(s_218_jpg, window).
holds(s_218_jpg, porch).
holds(s_218_jpg, sign).
holds(s_218_jpg, tiledroof).
holds(s_218_jpg, chimney).
holds(s_218_jpg, car).

sample(s_4835_jpg).
holds(s_4835_jpg, building).
holds(s_4835_jpg, feature).
holds(s_4835_jpg, suburban).
holds(s_4835_jpg, miscresidential).
holds(s_4835_jpg, commercial).
holds(s_4835_jpg, door).
holds(s_4835_jpg, window).
holds(s_4835_jpg, porch).
holds(s_4835_jpg, sign).
holds(s_4835_jpg, tiledroof).
holds(s_4835_jpg, vendingmachine).
holds(s_4835_jpg, car).

sample(s_5592_jpg).
holds(s_5592_jpg, building).
holds(s_5592_jpg, feature).
holds(s_5592_jpg, cafe).
holds(s_5592_jpg, hotel).
holds(s_5592_jpg, restaurant).
holds(s_5592_jpg, misccommercial).
holds(s_5592_jpg, residential).
holds(s_5592_jpg, commercial).
holds(s_5592_jpg, tiledrooftop).
holds(s_5592_jpg, vendingmachine).
holds(s_5592_jpg, chimney).
holds(s_5592_jpg, pipe).
holds(s_5592_jpg, car).

sample(s_4971_jpg).
holds(s_4971_jpg, building).
holds(s_4971_jpg, feature).
holds(s_4971_jpg, cafe).
holds(s_4971_jpg, hotel).
holds(s_4971_jpg, store).
holds(s_4971_jpg, residential).
holds(s_4971_jpg, commercial).
holds(s_4971_jpg, awning).
holds(s_4971_jpg, vendingmachine).
holds(s_4971_jpg, chimney).
holds(s_4971_jpg, car).

sample(s_5751_jpg).
holds(s_5751_jpg, building).
holds(s_5751_jpg, feature).
holds(s_5751_jpg, cafe).
holds(s_5751_jpg, hotel).
holds(s_5751_jpg, misccommercial).
holds(s_5751_jpg, commercial).
holds(s_5751_jpg, door).
holds(s_5751_jpg, awning).
holds(s_5751_jpg, vendingmachine).
holds(s_5751_jpg, chimney).
holds(s_5751_jpg, car).

sample(s_8930_jpg).
holds(s_8930_jpg, building).
holds(s_8930_jpg, feature).
holds(s_8930_jpg, suburban).
holds(s_8930_jpg, miscresidential).
holds(s_8930_jpg, commercial).
holds(s_8930_jpg, door).
holds(s_8930_jpg, window).
holds(s_8930_jpg, porch).
holds(s_8930_jpg, sign).
holds(s_8930_jpg, tiledroof).
holds(s_8930_jpg, vendingmachine).
holds(s_8930_jpg, car).

sample(s_5053_jpg).
holds(s_5053_jpg, building).
holds(s_5053_jpg, feature).
holds(s_5053_jpg, miscindustrial).
holds(s_5053_jpg, watertreatment).
holds(s_5053_jpg, door).
holds(s_5053_jpg, window).
holds(s_5053_jpg, sign).
holds(s_5053_jpg, tiledrooftop).
holds(s_5053_jpg, vendingmachine).
holds(s_5053_jpg, machine).

sample(s_4709_jpg).
holds(s_4709_jpg, building).
holds(s_4709_jpg, feature).
holds(s_4709_jpg, suburban).
holds(s_4709_jpg, miscresidential).
holds(s_4709_jpg, commercial).
holds(s_4709_jpg, door).
holds(s_4709_jpg, window).
holds(s_4709_jpg, porch).
holds(s_4709_jpg, sign).
holds(s_4709_jpg, tiledroof).
holds(s_4709_jpg, vendingmachine).
holds(s_4709_jpg, car).

sample(s_6495_jpg).
holds(s_6495_jpg, building).
holds(s_6495_jpg, feature).
holds(s_6495_jpg, misccommercial).
holds(s_6495_jpg, commercial).
holds(s_6495_jpg, door).
holds(s_6495_jpg, window).
holds(s_6495_jpg, awning).
holds(s_6495_jpg, tiledrooftop).
holds(s_6495_jpg, vendingmachine).
holds(s_6495_jpg, chimney).
holds(s_6495_jpg, car).

sample(s_4186_jpg).
holds(s_4186_jpg, building).
holds(s_4186_jpg, feature).
holds(s_4186_jpg, miscindustrial).
holds(s_4186_jpg, powerplant).
holds(s_4186_jpg, watertreatment).
holds(s_4186_jpg, door).
holds(s_4186_jpg, window).
holds(s_4186_jpg, sign).
holds(s_4186_jpg, tiledrooftop).
holds(s_4186_jpg, chimney).
holds(s_4186_jpg, machine).

sample(s_6140_jpg).
holds(s_6140_jpg, building).
holds(s_6140_jpg, feature).
holds(s_6140_jpg, miscresidential).
holds(s_6140_jpg, door).
holds(s_6140_jpg, window).
holds(s_6140_jpg, porch).
holds(s_6140_jpg, sign).
holds(s_6140_jpg, tiledroof).
holds(s_6140_jpg, vendingmachine).
holds(s_6140_jpg, chimney).
holds(s_6140_jpg, car).

sample(s_10292_jpg).
holds(s_10292_jpg, building).
holds(s_10292_jpg, feature).
holds(s_10292_jpg, miscresidential).
holds(s_10292_jpg, countryhouse).
holds(s_10292_jpg, door).
holds(s_10292_jpg, window).
holds(s_10292_jpg, porch).
holds(s_10292_jpg, sign).
holds(s_10292_jpg, tiledroof).
holds(s_10292_jpg, chimney).
holds(s_10292_jpg, car).

sample(s_3892_jpg).
holds(s_3892_jpg, building).
holds(s_3892_jpg, feature).
holds(s_3892_jpg, miscindustrial).
holds(s_3892_jpg, powerplant).
holds(s_3892_jpg, watertreatment).
holds(s_3892_jpg, door).
holds(s_3892_jpg, window).
holds(s_3892_jpg, sign).
holds(s_3892_jpg, tiledrooftop).
holds(s_3892_jpg, vendingmachine).
holds(s_3892_jpg, chimney).
holds(s_3892_jpg, machine).

sample(s_6015_jpg).
holds(s_6015_jpg, building).
holds(s_6015_jpg, feature).
holds(s_6015_jpg, cafe).
holds(s_6015_jpg, hotel).
holds(s_6015_jpg, restaurant).
holds(s_6015_jpg, store).
holds(s_6015_jpg, residential).
holds(s_6015_jpg, commercial).
holds(s_6015_jpg, awning).
holds(s_6015_jpg, vendingmachine).
holds(s_6015_jpg, chimney).
holds(s_6015_jpg, pipe).
holds(s_6015_jpg, car).

sample(s_4653_jpg).
holds(s_4653_jpg, building).
holds(s_4653_jpg, feature).
holds(s_4653_jpg, cafe).
holds(s_4653_jpg, hotel).
holds(s_4653_jpg, commercial).
holds(s_4653_jpg, door).
holds(s_4653_jpg, awning).
holds(s_4653_jpg, vendingmachine).
holds(s_4653_jpg, chimney).
holds(s_4653_jpg, car).

sample(s_14434_jpg).
holds(s_14434_jpg, building).
holds(s_14434_jpg, feature).
holds(s_14434_jpg, miscindustrial).
holds(s_14434_jpg, watertreatment).
holds(s_14434_jpg, door).
holds(s_14434_jpg, window).
holds(s_14434_jpg, sign).
holds(s_14434_jpg, tiledrooftop).
holds(s_14434_jpg, vendingmachine).
holds(s_14434_jpg, chimney).
holds(s_14434_jpg, machine).

sample(s_15059_jpg).
holds(s_15059_jpg, building).
holds(s_15059_jpg, feature).
holds(s_15059_jpg, suburban).
holds(s_15059_jpg, miscresidential).
holds(s_15059_jpg, commercial).
holds(s_15059_jpg, door).
holds(s_15059_jpg, window).
holds(s_15059_jpg, porch).
holds(s_15059_jpg, sign).
holds(s_15059_jpg, tiledroof).
holds(s_15059_jpg, vendingmachine).
holds(s_15059_jpg, car).

sample(s_15003_jpg).
holds(s_15003_jpg, building).
holds(s_15003_jpg, feature).
holds(s_15003_jpg, cafe).
holds(s_15003_jpg, hotel).
holds(s_15003_jpg, restaurant).
holds(s_15003_jpg, misccommercial).
holds(s_15003_jpg, residential).
holds(s_15003_jpg, commercial).
holds(s_15003_jpg, awning).
holds(s_15003_jpg, tiledrooftop).
holds(s_15003_jpg, vendingmachine).
holds(s_15003_jpg, pipe).
holds(s_15003_jpg, machine).
holds(s_15003_jpg, car).

sample(s_14254_jpg).
holds(s_14254_jpg, building).
holds(s_14254_jpg, feature).
holds(s_14254_jpg, constructionsite).
holds(s_14254_jpg, powerplant).
holds(s_14254_jpg, commercial).
holds(s_14254_jpg, door).
holds(s_14254_jpg, awning).
holds(s_14254_jpg, tiledrooftop).
holds(s_14254_jpg, vendingmachine).
holds(s_14254_jpg, chimney).
holds(s_14254_jpg, machine).

sample(s_15999_jpg).
holds(s_15999_jpg, building).
holds(s_15999_jpg, feature).
holds(s_15999_jpg, cafe).
holds(s_15999_jpg, hotel).
holds(s_15999_jpg, restaurant).
holds(s_15999_jpg, residential).
holds(s_15999_jpg, commercial).
holds(s_15999_jpg, tiledrooftop).
holds(s_15999_jpg, vendingmachine).
holds(s_15999_jpg, pipe).
holds(s_15999_jpg, machine).
holds(s_15999_jpg, car).

sample(s_12848_jpg).
holds(s_12848_jpg, building).
holds(s_12848_jpg, feature).
holds(s_12848_jpg, suburban).
holds(s_12848_jpg, commercial).
holds(s_12848_jpg, door).
holds(s_12848_jpg, porch).
holds(s_12848_jpg, sign).
holds(s_12848_jpg, tiledroof).
holds(s_12848_jpg, tiledrooftop).
holds(s_12848_jpg, vendingmachine).

sample(s_12010_jpg).
holds(s_12010_jpg, building).
holds(s_12010_jpg, feature).
holds(s_12010_jpg, miscindustrial).
holds(s_12010_jpg, powerplant).
holds(s_12010_jpg, watertreatment).
holds(s_12010_jpg, door).
holds(s_12010_jpg, window).
holds(s_12010_jpg, sign).
holds(s_12010_jpg, tiledrooftop).
holds(s_12010_jpg, chimney).
holds(s_12010_jpg, machine).

sample(s_7573_jpg).
holds(s_7573_jpg, building).
holds(s_7573_jpg, feature).
holds(s_7573_jpg, miscindustrial).
holds(s_7573_jpg, watertreatment).
holds(s_7573_jpg, door).
holds(s_7573_jpg, window).
holds(s_7573_jpg, sign).
holds(s_7573_jpg, tiledrooftop).
holds(s_7573_jpg, vendingmachine).
holds(s_7573_jpg, machine).

sample(s_9487_jpg).
holds(s_9487_jpg, building).
holds(s_9487_jpg, feature).
holds(s_9487_jpg, miscindustrial).
holds(s_9487_jpg, powerplant).
holds(s_9487_jpg, watertreatment).
holds(s_9487_jpg, door).
holds(s_9487_jpg, window).
holds(s_9487_jpg, sign).
holds(s_9487_jpg, tiledrooftop).
holds(s_9487_jpg, vendingmachine).
holds(s_9487_jpg, chimney).
holds(s_9487_jpg, machine).

sample(s_67_jpg).
holds(s_67_jpg, building).
holds(s_67_jpg, feature).
holds(s_67_jpg, miscindustrial).
holds(s_67_jpg, powerplant).
holds(s_67_jpg, watertreatment).
holds(s_67_jpg, door).
holds(s_67_jpg, window).
holds(s_67_jpg, sign).
holds(s_67_jpg, tiledrooftop).
holds(s_67_jpg, vendingmachine).
holds(s_67_jpg, chimney).
holds(s_67_jpg, machine).

sample(s_6896_jpg).
holds(s_6896_jpg, building).
holds(s_6896_jpg, feature).
holds(s_6896_jpg, suburban).
holds(s_6896_jpg, miscresidential).
holds(s_6896_jpg, countryhouse).
holds(s_6896_jpg, door).
holds(s_6896_jpg, window).
holds(s_6896_jpg, porch).
holds(s_6896_jpg, sign).
holds(s_6896_jpg, tiledroof).
holds(s_6896_jpg, car).

sample(s_5534_jpg).
holds(s_5534_jpg, building).
holds(s_5534_jpg, feature).
holds(s_5534_jpg, miscresidential).
holds(s_5534_jpg, countryhouse).
holds(s_5534_jpg, door).
holds(s_5534_jpg, window).
holds(s_5534_jpg, porch).
holds(s_5534_jpg, sign).
holds(s_5534_jpg, tiledroof).
holds(s_5534_jpg, chimney).
holds(s_5534_jpg, car).

sample(s_13001_jpg).
holds(s_13001_jpg, building).
holds(s_13001_jpg, feature).
holds(s_13001_jpg, suburban).
holds(s_13001_jpg, miscresidential).
holds(s_13001_jpg, commercial).
holds(s_13001_jpg, door).
holds(s_13001_jpg, window).
holds(s_13001_jpg, porch).
holds(s_13001_jpg, sign).
holds(s_13001_jpg, tiledroof).
holds(s_13001_jpg, vendingmachine).
holds(s_13001_jpg, car).

sample(s_11338_jpg).
holds(s_11338_jpg, building).
holds(s_11338_jpg, feature).
holds(s_11338_jpg, miscindustrial).
holds(s_11338_jpg, powerplant).
holds(s_11338_jpg, watertreatment).
holds(s_11338_jpg, door).
holds(s_11338_jpg, window).
holds(s_11338_jpg, sign).
holds(s_11338_jpg, tiledrooftop).
holds(s_11338_jpg, chimney).
holds(s_11338_jpg, machine).

sample(s_7252_jpg).
holds(s_7252_jpg, building).
holds(s_7252_jpg, feature).
holds(s_7252_jpg, constructionsite).
holds(s_7252_jpg, powerplant).
holds(s_7252_jpg, commercial).
holds(s_7252_jpg, door).
holds(s_7252_jpg, window).
holds(s_7252_jpg, awning).
holds(s_7252_jpg, tiledrooftop).
holds(s_7252_jpg, vendingmachine).
holds(s_7252_jpg, chimney).

sample(s_12466_jpg).
holds(s_12466_jpg, building).
holds(s_12466_jpg, feature).
holds(s_12466_jpg, constructionsite).
holds(s_12466_jpg, commercial).
holds(s_12466_jpg, door).
holds(s_12466_jpg, awning).
holds(s_12466_jpg, tiledrooftop).
holds(s_12466_jpg, vendingmachine).
holds(s_12466_jpg, chimney).
holds(s_12466_jpg, machine).

sample(s_15342_jpg).
holds(s_15342_jpg, building).
holds(s_15342_jpg, feature).
holds(s_15342_jpg, cafe).
holds(s_15342_jpg, hotel).
holds(s_15342_jpg, restaurant).
holds(s_15342_jpg, misccommercial).
holds(s_15342_jpg, residential).
holds(s_15342_jpg, commercial).
holds(s_15342_jpg, awning).
holds(s_15342_jpg, vendingmachine).
holds(s_15342_jpg, chimney).
holds(s_15342_jpg, car).

sample(s_3337_jpg).
holds(s_3337_jpg, building).
holds(s_3337_jpg, feature).
holds(s_3337_jpg, constructionsite).
holds(s_3337_jpg, powerplant).
holds(s_3337_jpg, commercial).
holds(s_3337_jpg, door).
holds(s_3337_jpg, awning).
holds(s_3337_jpg, tiledrooftop).
holds(s_3337_jpg, vendingmachine).
holds(s_3337_jpg, chimney).

sample(s_5880_jpg).
holds(s_5880_jpg, building).
holds(s_5880_jpg, feature).
holds(s_5880_jpg, cafe).
holds(s_5880_jpg, restaurant).
holds(s_5880_jpg, store).
holds(s_5880_jpg, residential).
holds(s_5880_jpg, commercial).
holds(s_5880_jpg, awning).
holds(s_5880_jpg, vendingmachine).
holds(s_5880_jpg, chimney).
holds(s_5880_jpg, pipe).
holds(s_5880_jpg, car).

sample(s_6266_jpg).
holds(s_6266_jpg, building).
holds(s_6266_jpg, feature).
holds(s_6266_jpg, miscresidential).
holds(s_6266_jpg, countryhouse).
holds(s_6266_jpg, door).
holds(s_6266_jpg, window).
holds(s_6266_jpg, porch).
holds(s_6266_jpg, sign).
holds(s_6266_jpg, tiledroof).
holds(s_6266_jpg, chimney).
holds(s_6266_jpg, car).

sample(s_4619_jpg).
holds(s_4619_jpg, building).
holds(s_4619_jpg, feature).
holds(s_4619_jpg, suburban).
holds(s_4619_jpg, miscresidential).
holds(s_4619_jpg, commercial).
holds(s_4619_jpg, door).
holds(s_4619_jpg, window).
holds(s_4619_jpg, porch).
holds(s_4619_jpg, sign).
holds(s_4619_jpg, tiledroof).
holds(s_4619_jpg, vendingmachine).
holds(s_4619_jpg, car).

sample(s_3388_jpg).
holds(s_3388_jpg, building).
holds(s_3388_jpg, feature).
holds(s_3388_jpg, miscindustrial).
holds(s_3388_jpg, powerplant).
holds(s_3388_jpg, watertreatment).
holds(s_3388_jpg, door).
holds(s_3388_jpg, window).
holds(s_3388_jpg, sign).
holds(s_3388_jpg, tiledrooftop).
holds(s_3388_jpg, chimney).
holds(s_3388_jpg, machine).

sample(s_5172_jpg).
holds(s_5172_jpg, building).
holds(s_5172_jpg, feature).
holds(s_5172_jpg, cafe).
holds(s_5172_jpg, hotel).
holds(s_5172_jpg, restaurant).
holds(s_5172_jpg, store).
holds(s_5172_jpg, misccommercial).
holds(s_5172_jpg, residential).
holds(s_5172_jpg, commercial).
holds(s_5172_jpg, awning).
holds(s_5172_jpg, vendingmachine).
holds(s_5172_jpg, chimney).
holds(s_5172_jpg, pipe).
holds(s_5172_jpg, car).

sample(s_14351_jpg).
holds(s_14351_jpg, building).
holds(s_14351_jpg, feature).
holds(s_14351_jpg, suburban).
holds(s_14351_jpg, commercial).
holds(s_14351_jpg, door).
holds(s_14351_jpg, window).
holds(s_14351_jpg, porch).
holds(s_14351_jpg, sign).
holds(s_14351_jpg, tiledroof).
holds(s_14351_jpg, tiledrooftop).
holds(s_14351_jpg, vendingmachine).

sample(s_767_jpg).
holds(s_767_jpg, building).
holds(s_767_jpg, feature).
holds(s_767_jpg, miscresidential).
holds(s_767_jpg, commercial).
holds(s_767_jpg, door).
holds(s_767_jpg, window).
holds(s_767_jpg, awning).
holds(s_767_jpg, porch).
holds(s_767_jpg, sign).
holds(s_767_jpg, tiledroof).
holds(s_767_jpg, vendingmachine).
holds(s_767_jpg, chimney).
holds(s_767_jpg, car).

sample(s_11968_jpg).
holds(s_11968_jpg, building).
holds(s_11968_jpg, feature).
holds(s_11968_jpg, powerplant).
holds(s_11968_jpg, door).
holds(s_11968_jpg, window).
holds(s_11968_jpg, awning).
holds(s_11968_jpg, sign).
holds(s_11968_jpg, tiledrooftop).
holds(s_11968_jpg, vendingmachine).
holds(s_11968_jpg, chimney).
holds(s_11968_jpg, machine).

sample(s_6714_jpg).
holds(s_6714_jpg, building).
holds(s_6714_jpg, feature).
holds(s_6714_jpg, cafe).
holds(s_6714_jpg, hotel).
holds(s_6714_jpg, store).
holds(s_6714_jpg, residential).
holds(s_6714_jpg, commercial).
holds(s_6714_jpg, awning).
holds(s_6714_jpg, vendingmachine).
holds(s_6714_jpg, chimney).
holds(s_6714_jpg, pipe).
holds(s_6714_jpg, car).

sample(s_13186_jpg).
holds(s_13186_jpg, building).
holds(s_13186_jpg, feature).
holds(s_13186_jpg, miscindustrial).
holds(s_13186_jpg, watertreatment).
holds(s_13186_jpg, door).
holds(s_13186_jpg, window).
holds(s_13186_jpg, awning).
holds(s_13186_jpg, sign).
holds(s_13186_jpg, tiledrooftop).
holds(s_13186_jpg, vendingmachine).
holds(s_13186_jpg, chimney).
holds(s_13186_jpg, machine).

sample(s_14740_jpg).
holds(s_14740_jpg, building).
holds(s_14740_jpg, feature).
holds(s_14740_jpg, constructionsite).
holds(s_14740_jpg, powerplant).
holds(s_14740_jpg, commercial).
holds(s_14740_jpg, door).
holds(s_14740_jpg, awning).
holds(s_14740_jpg, tiledrooftop).
holds(s_14740_jpg, vendingmachine).
holds(s_14740_jpg, chimney).
holds(s_14740_jpg, machine).

sample(s_8900_jpg).
holds(s_8900_jpg, building).
holds(s_8900_jpg, feature).
holds(s_8900_jpg, miscresidential).
holds(s_8900_jpg, door).
holds(s_8900_jpg, window).
holds(s_8900_jpg, porch).
holds(s_8900_jpg, sign).
holds(s_8900_jpg, tiledroof).
holds(s_8900_jpg, vendingmachine).
holds(s_8900_jpg, car).

sample(s_13169_jpg).
holds(s_13169_jpg, building).
holds(s_13169_jpg, feature).
holds(s_13169_jpg, suburban).
holds(s_13169_jpg, miscresidential).
holds(s_13169_jpg, countryhouse).
holds(s_13169_jpg, door).
holds(s_13169_jpg, window).
holds(s_13169_jpg, porch).
holds(s_13169_jpg, sign).
holds(s_13169_jpg, tiledroof).
holds(s_13169_jpg, car).

sample(s_12712_jpg).
holds(s_12712_jpg, building).
holds(s_12712_jpg, feature).
holds(s_12712_jpg, constructionsite).
holds(s_12712_jpg, powerplant).
holds(s_12712_jpg, commercial).
holds(s_12712_jpg, door).
holds(s_12712_jpg, awning).
holds(s_12712_jpg, tiledrooftop).
holds(s_12712_jpg, vendingmachine).
holds(s_12712_jpg, chimney).

sample(s_1571_jpg).
holds(s_1571_jpg, building).
holds(s_1571_jpg, feature).
holds(s_1571_jpg, miscresidential).
holds(s_1571_jpg, commercial).
holds(s_1571_jpg, door).
holds(s_1571_jpg, window).
holds(s_1571_jpg, awning).
holds(s_1571_jpg, porch).
holds(s_1571_jpg, sign).
holds(s_1571_jpg, tiledroof).
holds(s_1571_jpg, vendingmachine).
holds(s_1571_jpg, car).

sample(s_12511_jpg).
holds(s_12511_jpg, building).
holds(s_12511_jpg, feature).
holds(s_12511_jpg, miscindustrial).
holds(s_12511_jpg, powerplant).
holds(s_12511_jpg, watertreatment).
holds(s_12511_jpg, door).
holds(s_12511_jpg, window).
holds(s_12511_jpg, sign).
holds(s_12511_jpg, tiledrooftop).
holds(s_12511_jpg, vendingmachine).
holds(s_12511_jpg, chimney).
holds(s_12511_jpg, machine).

sample(s_4349_jpg).
holds(s_4349_jpg, building).
holds(s_4349_jpg, feature).
holds(s_4349_jpg, suburban).
holds(s_4349_jpg, residential).
holds(s_4349_jpg, commercial).
holds(s_4349_jpg, door).
holds(s_4349_jpg, sign).
holds(s_4349_jpg, tiledroof).
holds(s_4349_jpg, tiledrooftop).
holds(s_4349_jpg, vendingmachine).

sample(s_4199_jpg).
holds(s_4199_jpg, building).
holds(s_4199_jpg, feature).
holds(s_4199_jpg, suburban).
holds(s_4199_jpg, commercial).
holds(s_4199_jpg, door).
holds(s_4199_jpg, window).
holds(s_4199_jpg, porch).
holds(s_4199_jpg, sign).
holds(s_4199_jpg, tiledroof).
holds(s_4199_jpg, tiledrooftop).
holds(s_4199_jpg, vendingmachine).

sample(s_5727_jpg).
holds(s_5727_jpg, building).
holds(s_5727_jpg, feature).
holds(s_5727_jpg, cafe).
holds(s_5727_jpg, misccommercial).
holds(s_5727_jpg, commercial).
holds(s_5727_jpg, door).
holds(s_5727_jpg, awning).
holds(s_5727_jpg, vendingmachine).
holds(s_5727_jpg, chimney).
holds(s_5727_jpg, car).

sample(s_7952_jpg).
holds(s_7952_jpg, building).
holds(s_7952_jpg, feature).
holds(s_7952_jpg, suburban).
holds(s_7952_jpg, commercial).
holds(s_7952_jpg, door).
holds(s_7952_jpg, window).
holds(s_7952_jpg, porch).
holds(s_7952_jpg, sign).
holds(s_7952_jpg, tiledroof).
holds(s_7952_jpg, tiledrooftop).
holds(s_7952_jpg, vendingmachine).

sample(s_4949_jpg).
holds(s_4949_jpg, building).
holds(s_4949_jpg, feature).
holds(s_4949_jpg, miscresidential).
holds(s_4949_jpg, door).
holds(s_4949_jpg, window).
holds(s_4949_jpg, porch).
holds(s_4949_jpg, sign).
holds(s_4949_jpg, tiledroof).
holds(s_4949_jpg, vendingmachine).
holds(s_4949_jpg, chimney).
holds(s_4949_jpg, car).

sample(s_15448_jpg).
holds(s_15448_jpg, building).
holds(s_15448_jpg, feature).
holds(s_15448_jpg, powerplant).
holds(s_15448_jpg, door).
holds(s_15448_jpg, window).
holds(s_15448_jpg, sign).
holds(s_15448_jpg, tiledrooftop).
holds(s_15448_jpg, chimney).
holds(s_15448_jpg, machine).

sample(s_9567_jpg).
holds(s_9567_jpg, building).
holds(s_9567_jpg, feature).
holds(s_9567_jpg, cafe).
holds(s_9567_jpg, hotel).
holds(s_9567_jpg, store).
holds(s_9567_jpg, misccommercial).
holds(s_9567_jpg, residential).
holds(s_9567_jpg, commercial).
holds(s_9567_jpg, awning).
holds(s_9567_jpg, vendingmachine).
holds(s_9567_jpg, chimney).
holds(s_9567_jpg, pipe).
holds(s_9567_jpg, car).

sample(s_9903_jpg).
holds(s_9903_jpg, building).
holds(s_9903_jpg, feature).
holds(s_9903_jpg, cafe).
holds(s_9903_jpg, hotel).
holds(s_9903_jpg, restaurant).
holds(s_9903_jpg, store).
holds(s_9903_jpg, misccommercial).
holds(s_9903_jpg, residential).
holds(s_9903_jpg, commercial).
holds(s_9903_jpg, awning).
holds(s_9903_jpg, vendingmachine).
holds(s_9903_jpg, chimney).
holds(s_9903_jpg, pipe).
holds(s_9903_jpg, car).

sample(s_13129_jpg).
holds(s_13129_jpg, building).
holds(s_13129_jpg, feature).
holds(s_13129_jpg, miscindustrial).
holds(s_13129_jpg, powerplant).
holds(s_13129_jpg, watertreatment).
holds(s_13129_jpg, door).
holds(s_13129_jpg, window).
holds(s_13129_jpg, sign).
holds(s_13129_jpg, tiledrooftop).
holds(s_13129_jpg, vendingmachine).
holds(s_13129_jpg, chimney).
holds(s_13129_jpg, machine).

sample(s_15911_jpg).
holds(s_15911_jpg, building).
holds(s_15911_jpg, feature).
holds(s_15911_jpg, suburban).
holds(s_15911_jpg, commercial).
holds(s_15911_jpg, door).
holds(s_15911_jpg, porch).
holds(s_15911_jpg, sign).
holds(s_15911_jpg, tiledroof).
holds(s_15911_jpg, tiledrooftop).
holds(s_15911_jpg, vendingmachine).

sample(s_2315_jpg).
holds(s_2315_jpg, building).
holds(s_2315_jpg, feature).
holds(s_2315_jpg, suburban).
holds(s_2315_jpg, commercial).
holds(s_2315_jpg, door).
holds(s_2315_jpg, window).
holds(s_2315_jpg, awning).
holds(s_2315_jpg, porch).
holds(s_2315_jpg, sign).
holds(s_2315_jpg, tiledroof).
holds(s_2315_jpg, tiledrooftop).
holds(s_2315_jpg, vendingmachine).
holds(s_2315_jpg, machine).

sample(s_14641_jpg).
holds(s_14641_jpg, building).
holds(s_14641_jpg, feature).
holds(s_14641_jpg, constructionsite).
holds(s_14641_jpg, commercial).
holds(s_14641_jpg, door).
holds(s_14641_jpg, awning).
holds(s_14641_jpg, tiledrooftop).
holds(s_14641_jpg, vendingmachine).
holds(s_14641_jpg, chimney).
holds(s_14641_jpg, machine).

sample(s_2426_jpg).
holds(s_2426_jpg, building).
holds(s_2426_jpg, feature).
holds(s_2426_jpg, suburban).
holds(s_2426_jpg, miscresidential).
holds(s_2426_jpg, commercial).
holds(s_2426_jpg, door).
holds(s_2426_jpg, window).
holds(s_2426_jpg, porch).
holds(s_2426_jpg, sign).
holds(s_2426_jpg, tiledroof).
holds(s_2426_jpg, vendingmachine).
holds(s_2426_jpg, car).

sample(s_6111_jpg).
holds(s_6111_jpg, building).
holds(s_6111_jpg, feature).
holds(s_6111_jpg, cafe).
holds(s_6111_jpg, hotel).
holds(s_6111_jpg, store).
holds(s_6111_jpg, misccommercial).
holds(s_6111_jpg, commercial).
holds(s_6111_jpg, awning).
holds(s_6111_jpg, vendingmachine).
holds(s_6111_jpg, chimney).
holds(s_6111_jpg, car).

sample(s_1058_jpg).
holds(s_1058_jpg, building).
holds(s_1058_jpg, feature).
holds(s_1058_jpg, miscresidential).
holds(s_1058_jpg, countryhouse).
holds(s_1058_jpg, door).
holds(s_1058_jpg, window).
holds(s_1058_jpg, porch).
holds(s_1058_jpg, sign).
holds(s_1058_jpg, tiledroof).
holds(s_1058_jpg, chimney).
holds(s_1058_jpg, car).

sample(s_6688_jpg).
holds(s_6688_jpg, building).
holds(s_6688_jpg, feature).
holds(s_6688_jpg, constructionsite).
holds(s_6688_jpg, powerplant).
holds(s_6688_jpg, commercial).
holds(s_6688_jpg, door).
holds(s_6688_jpg, awning).
holds(s_6688_jpg, tiledrooftop).
holds(s_6688_jpg, vendingmachine).
holds(s_6688_jpg, chimney).
holds(s_6688_jpg, machine).

sample(s_1506_jpg).
holds(s_1506_jpg, building).
holds(s_1506_jpg, feature).
holds(s_1506_jpg, cafe).
holds(s_1506_jpg, hotel).
holds(s_1506_jpg, store).
holds(s_1506_jpg, misccommercial).
holds(s_1506_jpg, commercial).
holds(s_1506_jpg, awning).
holds(s_1506_jpg, vendingmachine).
holds(s_1506_jpg, chimney).
holds(s_1506_jpg, car).

sample(s_10703_jpg).
holds(s_10703_jpg, building).
holds(s_10703_jpg, feature).
holds(s_10703_jpg, suburban).
holds(s_10703_jpg, miscresidential).
holds(s_10703_jpg, countryhouse).
holds(s_10703_jpg, door).
holds(s_10703_jpg, window).
holds(s_10703_jpg, porch).
holds(s_10703_jpg, sign).
holds(s_10703_jpg, tiledroof).
holds(s_10703_jpg, car).

sample(s_12426_jpg).
holds(s_12426_jpg, building).
holds(s_12426_jpg, feature).
holds(s_12426_jpg, cafe).
holds(s_12426_jpg, hotel).
holds(s_12426_jpg, restaurant).
holds(s_12426_jpg, store).
holds(s_12426_jpg, misccommercial).
holds(s_12426_jpg, residential).
holds(s_12426_jpg, commercial).
holds(s_12426_jpg, awning).
holds(s_12426_jpg, vendingmachine).
holds(s_12426_jpg, chimney).
holds(s_12426_jpg, pipe).
holds(s_12426_jpg, car).

sample(s_10517_jpg).
holds(s_10517_jpg, building).
holds(s_10517_jpg, feature).
holds(s_10517_jpg, suburban).
holds(s_10517_jpg, miscresidential).
holds(s_10517_jpg, commercial).
holds(s_10517_jpg, door).
holds(s_10517_jpg, window).
holds(s_10517_jpg, porch).
holds(s_10517_jpg, sign).
holds(s_10517_jpg, tiledroof).
holds(s_10517_jpg, vendingmachine).
holds(s_10517_jpg, car).

sample(s_11437_jpg).
holds(s_11437_jpg, building).
holds(s_11437_jpg, feature).
holds(s_11437_jpg, constructionsite).
holds(s_11437_jpg, powerplant).
holds(s_11437_jpg, commercial).
holds(s_11437_jpg, door).
holds(s_11437_jpg, awning).
holds(s_11437_jpg, tiledrooftop).
holds(s_11437_jpg, vendingmachine).
holds(s_11437_jpg, chimney).

sample(s_14797_jpg).
holds(s_14797_jpg, building).
holds(s_14797_jpg, feature).
holds(s_14797_jpg, miscindustrial).
holds(s_14797_jpg, powerplant).
holds(s_14797_jpg, watertreatment).
holds(s_14797_jpg, door).
holds(s_14797_jpg, window).
holds(s_14797_jpg, sign).
holds(s_14797_jpg, tiledrooftop).
holds(s_14797_jpg, chimney).
holds(s_14797_jpg, machine).

sample(s_7770_jpg).
holds(s_7770_jpg, building).
holds(s_7770_jpg, feature).
holds(s_7770_jpg, cafe).
holds(s_7770_jpg, hotel).
holds(s_7770_jpg, store).
holds(s_7770_jpg, misccommercial).
holds(s_7770_jpg, residential).
holds(s_7770_jpg, commercial).
holds(s_7770_jpg, awning).
holds(s_7770_jpg, vendingmachine).
holds(s_7770_jpg, chimney).
holds(s_7770_jpg, pipe).
holds(s_7770_jpg, car).

sample(s_14492_jpg).
holds(s_14492_jpg, building).
holds(s_14492_jpg, feature).
holds(s_14492_jpg, suburban).
holds(s_14492_jpg, commercial).
holds(s_14492_jpg, door).
holds(s_14492_jpg, window).
holds(s_14492_jpg, porch).
holds(s_14492_jpg, sign).
holds(s_14492_jpg, tiledroof).
holds(s_14492_jpg, tiledrooftop).
holds(s_14492_jpg, vendingmachine).

sample(s_4711_jpg).
holds(s_4711_jpg, building).
holds(s_4711_jpg, feature).
holds(s_4711_jpg, miscindustrial).
holds(s_4711_jpg, powerplant).
holds(s_4711_jpg, watertreatment).
holds(s_4711_jpg, door).
holds(s_4711_jpg, window).
holds(s_4711_jpg, sign).
holds(s_4711_jpg, tiledrooftop).
holds(s_4711_jpg, chimney).
holds(s_4711_jpg, machine).

sample(s_11388_jpg).
holds(s_11388_jpg, building).
holds(s_11388_jpg, feature).
holds(s_11388_jpg, cafe).
holds(s_11388_jpg, hotel).
holds(s_11388_jpg, restaurant).
holds(s_11388_jpg, misccommercial).
holds(s_11388_jpg, residential).
holds(s_11388_jpg, commercial).
holds(s_11388_jpg, awning).
holds(s_11388_jpg, tiledrooftop).
holds(s_11388_jpg, vendingmachine).
holds(s_11388_jpg, chimney).
holds(s_11388_jpg, pipe).
holds(s_11388_jpg, car).

sample(s_10453_jpg).
holds(s_10453_jpg, building).
holds(s_10453_jpg, feature).
holds(s_10453_jpg, constructionsite).
holds(s_10453_jpg, commercial).
holds(s_10453_jpg, door).
holds(s_10453_jpg, awning).
holds(s_10453_jpg, tiledrooftop).
holds(s_10453_jpg, vendingmachine).
holds(s_10453_jpg, chimney).
holds(s_10453_jpg, machine).

sample(s_10786_jpg).
holds(s_10786_jpg, building).
holds(s_10786_jpg, feature).
holds(s_10786_jpg, miscindustrial).
holds(s_10786_jpg, watertreatment).
holds(s_10786_jpg, door).
holds(s_10786_jpg, window).
holds(s_10786_jpg, sign).
holds(s_10786_jpg, tiledrooftop).
holds(s_10786_jpg, vendingmachine).
holds(s_10786_jpg, machine).

sample(s_605_jpg).
holds(s_605_jpg, building).
holds(s_605_jpg, feature).
holds(s_605_jpg, suburban).
holds(s_605_jpg, miscresidential).
holds(s_605_jpg, commercial).
holds(s_605_jpg, door).
holds(s_605_jpg, window).
holds(s_605_jpg, porch).
holds(s_605_jpg, sign).
holds(s_605_jpg, tiledroof).
holds(s_605_jpg, vendingmachine).
holds(s_605_jpg, car).

sample(s_1648_jpg).
holds(s_1648_jpg, building).
holds(s_1648_jpg, feature).
holds(s_1648_jpg, miscindustrial).
holds(s_1648_jpg, powerplant).
holds(s_1648_jpg, watertreatment).
holds(s_1648_jpg, door).
holds(s_1648_jpg, window).
holds(s_1648_jpg, sign).
holds(s_1648_jpg, tiledrooftop).
holds(s_1648_jpg, chimney).
holds(s_1648_jpg, machine).

sample(s_14500_jpg).
holds(s_14500_jpg, building).
holds(s_14500_jpg, feature).
holds(s_14500_jpg, constructionsite).
holds(s_14500_jpg, commercial).
holds(s_14500_jpg, door).
holds(s_14500_jpg, awning).
holds(s_14500_jpg, tiledrooftop).
holds(s_14500_jpg, vendingmachine).
holds(s_14500_jpg, chimney).
holds(s_14500_jpg, machine).

sample(s_3896_jpg).
holds(s_3896_jpg, building).
holds(s_3896_jpg, feature).
holds(s_3896_jpg, suburban).
holds(s_3896_jpg, miscresidential).
holds(s_3896_jpg, commercial).
holds(s_3896_jpg, door).
holds(s_3896_jpg, window).
holds(s_3896_jpg, porch).
holds(s_3896_jpg, sign).
holds(s_3896_jpg, tiledroof).
holds(s_3896_jpg, vendingmachine).
holds(s_3896_jpg, car).

sample(s_8110_jpg).
holds(s_8110_jpg, building).
holds(s_8110_jpg, feature).
holds(s_8110_jpg, miscindustrial).
holds(s_8110_jpg, powerplant).
holds(s_8110_jpg, watertreatment).
holds(s_8110_jpg, door).
holds(s_8110_jpg, window).
holds(s_8110_jpg, awning).
holds(s_8110_jpg, tiledrooftop).
holds(s_8110_jpg, vendingmachine).
holds(s_8110_jpg, chimney).
holds(s_8110_jpg, machine).

sample(s_1288_jpg).
holds(s_1288_jpg, building).
holds(s_1288_jpg, feature).
holds(s_1288_jpg, powerplant).
holds(s_1288_jpg, door).
holds(s_1288_jpg, window).
holds(s_1288_jpg, sign).
holds(s_1288_jpg, tiledrooftop).
holds(s_1288_jpg, chimney).
holds(s_1288_jpg, machine).

sample(s_4374_jpg).
holds(s_4374_jpg, building).
holds(s_4374_jpg, feature).
holds(s_4374_jpg, cafe).
holds(s_4374_jpg, hotel).
holds(s_4374_jpg, store).
holds(s_4374_jpg, misccommercial).
holds(s_4374_jpg, residential).
holds(s_4374_jpg, commercial).
holds(s_4374_jpg, awning).
holds(s_4374_jpg, vendingmachine).
holds(s_4374_jpg, chimney).
holds(s_4374_jpg, pipe).
holds(s_4374_jpg, car).

sample(s_13062_jpg).
holds(s_13062_jpg, building).
holds(s_13062_jpg, feature).
holds(s_13062_jpg, cafe).
holds(s_13062_jpg, hotel).
holds(s_13062_jpg, store).
holds(s_13062_jpg, residential).
holds(s_13062_jpg, commercial).
holds(s_13062_jpg, awning).
holds(s_13062_jpg, vendingmachine).
holds(s_13062_jpg, chimney).
holds(s_13062_jpg, car).

sample(s_2003_jpg).
holds(s_2003_jpg, building).
holds(s_2003_jpg, feature).
holds(s_2003_jpg, miscresidential).
holds(s_2003_jpg, countryhouse).
holds(s_2003_jpg, door).
holds(s_2003_jpg, window).
holds(s_2003_jpg, porch).
holds(s_2003_jpg, sign).
holds(s_2003_jpg, tiledroof).
holds(s_2003_jpg, chimney).
holds(s_2003_jpg, car).

sample(s_761_jpg).
holds(s_761_jpg, building).
holds(s_761_jpg, feature).
holds(s_761_jpg, suburban).
holds(s_761_jpg, miscresidential).
holds(s_761_jpg, countryhouse).
holds(s_761_jpg, door).
holds(s_761_jpg, window).
holds(s_761_jpg, porch).
holds(s_761_jpg, sign).
holds(s_761_jpg, tiledroof).
holds(s_761_jpg, car).

sample(s_1792_jpg).
holds(s_1792_jpg, building).
holds(s_1792_jpg, feature).
holds(s_1792_jpg, miscindustrial).
holds(s_1792_jpg, powerplant).
holds(s_1792_jpg, watertreatment).
holds(s_1792_jpg, door).
holds(s_1792_jpg, window).
holds(s_1792_jpg, sign).
holds(s_1792_jpg, tiledrooftop).
holds(s_1792_jpg, vendingmachine).
holds(s_1792_jpg, chimney).
holds(s_1792_jpg, machine).

sample(s_3108_jpg).
holds(s_3108_jpg, building).
holds(s_3108_jpg, feature).
holds(s_3108_jpg, cafe).
holds(s_3108_jpg, hotel).
holds(s_3108_jpg, restaurant).
holds(s_3108_jpg, store).
holds(s_3108_jpg, misccommercial).
holds(s_3108_jpg, residential).
holds(s_3108_jpg, commercial).
holds(s_3108_jpg, awning).
holds(s_3108_jpg, vendingmachine).
holds(s_3108_jpg, chimney).
holds(s_3108_jpg, pipe).
holds(s_3108_jpg, car).

sample(s_1832_jpg).
holds(s_1832_jpg, building).
holds(s_1832_jpg, feature).
holds(s_1832_jpg, suburban).
holds(s_1832_jpg, miscresidential).
holds(s_1832_jpg, commercial).
holds(s_1832_jpg, door).
holds(s_1832_jpg, window).
holds(s_1832_jpg, porch).
holds(s_1832_jpg, sign).
holds(s_1832_jpg, tiledroof).
holds(s_1832_jpg, vendingmachine).
holds(s_1832_jpg, car).

sample(s_1275_jpg).
holds(s_1275_jpg, building).
holds(s_1275_jpg, feature).
holds(s_1275_jpg, cafe).
holds(s_1275_jpg, store).
holds(s_1275_jpg, commercial).
holds(s_1275_jpg, awning).
holds(s_1275_jpg, vendingmachine).
holds(s_1275_jpg, chimney).
holds(s_1275_jpg, car).

sample(s_5028_jpg).
holds(s_5028_jpg, building).
holds(s_5028_jpg, feature).
holds(s_5028_jpg, restaurant).
holds(s_5028_jpg, store).
holds(s_5028_jpg, misccommercial).
holds(s_5028_jpg, residential).
holds(s_5028_jpg, commercial).
holds(s_5028_jpg, awning).
holds(s_5028_jpg, vendingmachine).
holds(s_5028_jpg, chimney).
holds(s_5028_jpg, pipe).
holds(s_5028_jpg, car).

sample(s_5520_jpg).
holds(s_5520_jpg, building).
holds(s_5520_jpg, feature).
holds(s_5520_jpg, cafe).
holds(s_5520_jpg, hotel).
holds(s_5520_jpg, misccommercial).
holds(s_5520_jpg, commercial).
holds(s_5520_jpg, awning).
holds(s_5520_jpg, vendingmachine).
holds(s_5520_jpg, chimney).
holds(s_5520_jpg, car).

sample(s_1498_jpg).
holds(s_1498_jpg, building).
holds(s_1498_jpg, feature).
holds(s_1498_jpg, constructionsite).
holds(s_1498_jpg, commercial).
holds(s_1498_jpg, door).
holds(s_1498_jpg, awning).
holds(s_1498_jpg, tiledrooftop).
holds(s_1498_jpg, vendingmachine).
holds(s_1498_jpg, chimney).
holds(s_1498_jpg, machine).

sample(s_15253_jpg).
holds(s_15253_jpg, building).
holds(s_15253_jpg, feature).
holds(s_15253_jpg, miscindustrial).
holds(s_15253_jpg, powerplant).
holds(s_15253_jpg, watertreatment).
holds(s_15253_jpg, door).
holds(s_15253_jpg, window).
holds(s_15253_jpg, sign).
holds(s_15253_jpg, tiledrooftop).
holds(s_15253_jpg, vendingmachine).
holds(s_15253_jpg, chimney).
holds(s_15253_jpg, machine).

sample(s_11361_jpg).
holds(s_11361_jpg, building).
holds(s_11361_jpg, feature).
holds(s_11361_jpg, cafe).
holds(s_11361_jpg, hotel).
holds(s_11361_jpg, restaurant).
holds(s_11361_jpg, misccommercial).
holds(s_11361_jpg, commercial).
holds(s_11361_jpg, window).
holds(s_11361_jpg, awning).
holds(s_11361_jpg, tiledrooftop).
holds(s_11361_jpg, vendingmachine).
holds(s_11361_jpg, chimney).
holds(s_11361_jpg, car).

sample(s_4136_jpg).
holds(s_4136_jpg, building).
holds(s_4136_jpg, feature).
holds(s_4136_jpg, suburban).
holds(s_4136_jpg, miscresidential).
holds(s_4136_jpg, commercial).
holds(s_4136_jpg, door).
holds(s_4136_jpg, window).
holds(s_4136_jpg, porch).
holds(s_4136_jpg, sign).
holds(s_4136_jpg, tiledroof).
holds(s_4136_jpg, vendingmachine).
holds(s_4136_jpg, car).

sample(s_13952_jpg).
holds(s_13952_jpg, building).
holds(s_13952_jpg, feature).
holds(s_13952_jpg, miscresidential).
holds(s_13952_jpg, countryhouse).
holds(s_13952_jpg, door).
holds(s_13952_jpg, window).
holds(s_13952_jpg, sign).
holds(s_13952_jpg, tiledroof).
holds(s_13952_jpg, chimney).
holds(s_13952_jpg, car).

sample(s_5978_jpg).
holds(s_5978_jpg, building).
holds(s_5978_jpg, feature).
holds(s_5978_jpg, suburban).
holds(s_5978_jpg, commercial).
holds(s_5978_jpg, door).
holds(s_5978_jpg, porch).
holds(s_5978_jpg, sign).
holds(s_5978_jpg, tiledroof).
holds(s_5978_jpg, tiledrooftop).
holds(s_5978_jpg, vendingmachine).

sample(s_11521_jpg).
holds(s_11521_jpg, building).
holds(s_11521_jpg, feature).
holds(s_11521_jpg, miscindustrial).
holds(s_11521_jpg, powerplant).
holds(s_11521_jpg, watertreatment).
holds(s_11521_jpg, door).
holds(s_11521_jpg, window).
holds(s_11521_jpg, sign).
holds(s_11521_jpg, tiledrooftop).
holds(s_11521_jpg, chimney).
holds(s_11521_jpg, machine).

sample(s_12745_jpg).
holds(s_12745_jpg, building).
holds(s_12745_jpg, feature).
holds(s_12745_jpg, constructionsite).
holds(s_12745_jpg, powerplant).
holds(s_12745_jpg, commercial).
holds(s_12745_jpg, door).
holds(s_12745_jpg, awning).
holds(s_12745_jpg, tiledrooftop).
holds(s_12745_jpg, vendingmachine).
holds(s_12745_jpg, chimney).
holds(s_12745_jpg, machine).

sample(s_2924_jpg).
holds(s_2924_jpg, building).
holds(s_2924_jpg, feature).
holds(s_2924_jpg, suburban).
holds(s_2924_jpg, miscresidential).
holds(s_2924_jpg, commercial).
holds(s_2924_jpg, door).
holds(s_2924_jpg, window).
holds(s_2924_jpg, porch).
holds(s_2924_jpg, sign).
holds(s_2924_jpg, tiledroof).
holds(s_2924_jpg, vendingmachine).
holds(s_2924_jpg, car).

sample(s_4262_jpg).
holds(s_4262_jpg, building).
holds(s_4262_jpg, feature).
holds(s_4262_jpg, suburban).
holds(s_4262_jpg, miscresidential).
holds(s_4262_jpg, commercial).
holds(s_4262_jpg, door).
holds(s_4262_jpg, window).
holds(s_4262_jpg, porch).
holds(s_4262_jpg, sign).
holds(s_4262_jpg, tiledroof).
holds(s_4262_jpg, vendingmachine).
holds(s_4262_jpg, car).

sample(s_8640_jpg).
holds(s_8640_jpg, building).
holds(s_8640_jpg, feature).
holds(s_8640_jpg, cafe).
holds(s_8640_jpg, hotel).
holds(s_8640_jpg, misccommercial).
holds(s_8640_jpg, commercial).
holds(s_8640_jpg, door).
holds(s_8640_jpg, awning).
holds(s_8640_jpg, vendingmachine).
holds(s_8640_jpg, chimney).
holds(s_8640_jpg, car).

sample(s_10962_jpg).
holds(s_10962_jpg, building).
holds(s_10962_jpg, feature).
holds(s_10962_jpg, cafe).
holds(s_10962_jpg, hotel).
holds(s_10962_jpg, store).
holds(s_10962_jpg, misccommercial).
holds(s_10962_jpg, commercial).
holds(s_10962_jpg, awning).
holds(s_10962_jpg, vendingmachine).
holds(s_10962_jpg, chimney).
holds(s_10962_jpg, car).

sample(s_8650_jpg).
holds(s_8650_jpg, building).
holds(s_8650_jpg, feature).
holds(s_8650_jpg, miscindustrial).
holds(s_8650_jpg, watertreatment).
holds(s_8650_jpg, door).
holds(s_8650_jpg, window).
holds(s_8650_jpg, awning).
holds(s_8650_jpg, sign).
holds(s_8650_jpg, tiledrooftop).
holds(s_8650_jpg, vendingmachine).
holds(s_8650_jpg, machine).

sample(s_13275_jpg).
holds(s_13275_jpg, building).
holds(s_13275_jpg, feature).
holds(s_13275_jpg, cafe).
holds(s_13275_jpg, hotel).
holds(s_13275_jpg, residential).
holds(s_13275_jpg, commercial).
holds(s_13275_jpg, awning).
holds(s_13275_jpg, vendingmachine).
holds(s_13275_jpg, chimney).
holds(s_13275_jpg, car).

sample(s_15189_jpg).
holds(s_15189_jpg, building).
holds(s_15189_jpg, feature).
holds(s_15189_jpg, store).
holds(s_15189_jpg, residential).
holds(s_15189_jpg, commercial).
holds(s_15189_jpg, awning).
holds(s_15189_jpg, vendingmachine).
holds(s_15189_jpg, chimney).
holds(s_15189_jpg, pipe).
holds(s_15189_jpg, car).

sample(s_12681_jpg).
holds(s_12681_jpg, building).
holds(s_12681_jpg, feature).
holds(s_12681_jpg, cafe).
holds(s_12681_jpg, hotel).
holds(s_12681_jpg, restaurant).
holds(s_12681_jpg, store).
holds(s_12681_jpg, misccommercial).
holds(s_12681_jpg, residential).
holds(s_12681_jpg, commercial).
holds(s_12681_jpg, awning).
holds(s_12681_jpg, vendingmachine).
holds(s_12681_jpg, chimney).
holds(s_12681_jpg, pipe).
holds(s_12681_jpg, car).

sample(s_5494_jpg).
holds(s_5494_jpg, building).
holds(s_5494_jpg, feature).
holds(s_5494_jpg, constructionsite).
holds(s_5494_jpg, commercial).
holds(s_5494_jpg, door).
holds(s_5494_jpg, awning).
holds(s_5494_jpg, tiledrooftop).
holds(s_5494_jpg, vendingmachine).
holds(s_5494_jpg, chimney).
holds(s_5494_jpg, machine).

sample(s_2451_jpg).
holds(s_2451_jpg, building).
holds(s_2451_jpg, feature).
holds(s_2451_jpg, cafe).
holds(s_2451_jpg, hotel).
holds(s_2451_jpg, restaurant).
holds(s_2451_jpg, store).
holds(s_2451_jpg, misccommercial).
holds(s_2451_jpg, residential).
holds(s_2451_jpg, commercial).
holds(s_2451_jpg, awning).
holds(s_2451_jpg, vendingmachine).
holds(s_2451_jpg, chimney).
holds(s_2451_jpg, pipe).
holds(s_2451_jpg, car).

sample(s_2221_jpg).
holds(s_2221_jpg, building).
holds(s_2221_jpg, feature).
holds(s_2221_jpg, powerplant).
holds(s_2221_jpg, door).
holds(s_2221_jpg, window).
holds(s_2221_jpg, tiledrooftop).
holds(s_2221_jpg, vendingmachine).
holds(s_2221_jpg, chimney).
holds(s_2221_jpg, machine).

sample(s_13519_jpg).
holds(s_13519_jpg, building).
holds(s_13519_jpg, feature).
holds(s_13519_jpg, constructionsite).
holds(s_13519_jpg, powerplant).
holds(s_13519_jpg, commercial).
holds(s_13519_jpg, door).
holds(s_13519_jpg, window).
holds(s_13519_jpg, awning).
holds(s_13519_jpg, tiledrooftop).
holds(s_13519_jpg, vendingmachine).
holds(s_13519_jpg, chimney).
holds(s_13519_jpg, machine).

sample(s_539_jpg).
holds(s_539_jpg, building).
holds(s_539_jpg, feature).
holds(s_539_jpg, miscresidential).
holds(s_539_jpg, countryhouse).
holds(s_539_jpg, door).
holds(s_539_jpg, window).
holds(s_539_jpg, porch).
holds(s_539_jpg, sign).
holds(s_539_jpg, tiledroof).
holds(s_539_jpg, chimney).
holds(s_539_jpg, car).

sample(s_5036_jpg).
holds(s_5036_jpg, building).
holds(s_5036_jpg, feature).
holds(s_5036_jpg, suburban).
holds(s_5036_jpg, commercial).
holds(s_5036_jpg, door).
holds(s_5036_jpg, porch).
holds(s_5036_jpg, sign).
holds(s_5036_jpg, tiledroof).
holds(s_5036_jpg, tiledrooftop).
holds(s_5036_jpg, vendingmachine).

sample(s_12408_jpg).
holds(s_12408_jpg, building).
holds(s_12408_jpg, feature).
holds(s_12408_jpg, hotel).
holds(s_12408_jpg, restaurant).
holds(s_12408_jpg, store).
holds(s_12408_jpg, residential).
holds(s_12408_jpg, commercial).
holds(s_12408_jpg, vendingmachine).
holds(s_12408_jpg, pipe).
holds(s_12408_jpg, car).

sample(s_4979_jpg).
holds(s_4979_jpg, building).
holds(s_4979_jpg, feature).
holds(s_4979_jpg, miscresidential).
holds(s_4979_jpg, countryhouse).
holds(s_4979_jpg, door).
holds(s_4979_jpg, window).
holds(s_4979_jpg, porch).
holds(s_4979_jpg, sign).
holds(s_4979_jpg, tiledroof).
holds(s_4979_jpg, chimney).
holds(s_4979_jpg, car).

sample(s_6201_jpg).
holds(s_6201_jpg, building).
holds(s_6201_jpg, feature).
holds(s_6201_jpg, cafe).
holds(s_6201_jpg, misccommercial).
holds(s_6201_jpg, constructionsite).
holds(s_6201_jpg, commercial).
holds(s_6201_jpg, door).
holds(s_6201_jpg, awning).
holds(s_6201_jpg, tiledrooftop).
holds(s_6201_jpg, vendingmachine).
holds(s_6201_jpg, chimney).
holds(s_6201_jpg, machine).
holds(s_6201_jpg, car).

sample(s_12517_jpg).
holds(s_12517_jpg, building).
holds(s_12517_jpg, feature).
holds(s_12517_jpg, powerplant).
holds(s_12517_jpg, door).
holds(s_12517_jpg, window).
holds(s_12517_jpg, sign).
holds(s_12517_jpg, tiledrooftop).
holds(s_12517_jpg, vendingmachine).
holds(s_12517_jpg, chimney).
holds(s_12517_jpg, machine).

sample(s_14018_jpg).
holds(s_14018_jpg, building).
holds(s_14018_jpg, feature).
holds(s_14018_jpg, suburban).
holds(s_14018_jpg, miscresidential).
holds(s_14018_jpg, countryhouse).
holds(s_14018_jpg, door).
holds(s_14018_jpg, window).
holds(s_14018_jpg, porch).
holds(s_14018_jpg, sign).
holds(s_14018_jpg, tiledroof).
holds(s_14018_jpg, car).

sample(s_3720_jpg).
holds(s_3720_jpg, building).
holds(s_3720_jpg, feature).
holds(s_3720_jpg, cafe).
holds(s_3720_jpg, hotel).
holds(s_3720_jpg, misccommercial).
holds(s_3720_jpg, commercial).
holds(s_3720_jpg, door).
holds(s_3720_jpg, awning).
holds(s_3720_jpg, vendingmachine).
holds(s_3720_jpg, chimney).
holds(s_3720_jpg, car).

sample(s_1594_jpg).
holds(s_1594_jpg, building).
holds(s_1594_jpg, feature).
holds(s_1594_jpg, miscindustrial).
holds(s_1594_jpg, powerplant).
holds(s_1594_jpg, watertreatment).
holds(s_1594_jpg, door).
holds(s_1594_jpg, window).
holds(s_1594_jpg, sign).
holds(s_1594_jpg, tiledrooftop).
holds(s_1594_jpg, vendingmachine).
holds(s_1594_jpg, chimney).
holds(s_1594_jpg, machine).

sample(s_13194_jpg).
holds(s_13194_jpg, building).
holds(s_13194_jpg, feature).
holds(s_13194_jpg, cafe).
holds(s_13194_jpg, hotel).
holds(s_13194_jpg, restaurant).
holds(s_13194_jpg, store).
holds(s_13194_jpg, misccommercial).
holds(s_13194_jpg, residential).
holds(s_13194_jpg, commercial).
holds(s_13194_jpg, awning).
holds(s_13194_jpg, vendingmachine).
holds(s_13194_jpg, chimney).
holds(s_13194_jpg, pipe).
holds(s_13194_jpg, car).

sample(s_14856_jpg).
holds(s_14856_jpg, building).
holds(s_14856_jpg, feature).
holds(s_14856_jpg, cafe).
holds(s_14856_jpg, restaurant).
holds(s_14856_jpg, store).
holds(s_14856_jpg, misccommercial).
holds(s_14856_jpg, residential).
holds(s_14856_jpg, commercial).
holds(s_14856_jpg, awning).
holds(s_14856_jpg, vendingmachine).
holds(s_14856_jpg, chimney).
holds(s_14856_jpg, pipe).
holds(s_14856_jpg, car).

sample(s_10653_jpg).
holds(s_10653_jpg, building).
holds(s_10653_jpg, feature).
holds(s_10653_jpg, cafe).
holds(s_10653_jpg, hotel).
holds(s_10653_jpg, restaurant).
holds(s_10653_jpg, store).
holds(s_10653_jpg, residential).
holds(s_10653_jpg, commercial).
holds(s_10653_jpg, tiledrooftop).
holds(s_10653_jpg, vendingmachine).
holds(s_10653_jpg, pipe).
holds(s_10653_jpg, car).

sample(s_12247_jpg).
holds(s_12247_jpg, building).
holds(s_12247_jpg, feature).
holds(s_12247_jpg, powerplant).
holds(s_12247_jpg, commercial).
holds(s_12247_jpg, door).
holds(s_12247_jpg, window).
holds(s_12247_jpg, tiledrooftop).
holds(s_12247_jpg, vendingmachine).
holds(s_12247_jpg, chimney).
holds(s_12247_jpg, machine).

sample(s_15130_jpg).
holds(s_15130_jpg, building).
holds(s_15130_jpg, feature).
holds(s_15130_jpg, miscindustrial).
holds(s_15130_jpg, powerplant).
holds(s_15130_jpg, watertreatment).
holds(s_15130_jpg, door).
holds(s_15130_jpg, window).
holds(s_15130_jpg, sign).
holds(s_15130_jpg, tiledrooftop).
holds(s_15130_jpg, vendingmachine).
holds(s_15130_jpg, chimney).
holds(s_15130_jpg, machine).

sample(s_2845_jpg).
holds(s_2845_jpg, building).
holds(s_2845_jpg, feature).
holds(s_2845_jpg, powerplant).
holds(s_2845_jpg, commercial).
holds(s_2845_jpg, door).
holds(s_2845_jpg, window).
holds(s_2845_jpg, awning).
holds(s_2845_jpg, tiledrooftop).
holds(s_2845_jpg, vendingmachine).
holds(s_2845_jpg, chimney).

sample(s_14391_jpg).
holds(s_14391_jpg, building).
holds(s_14391_jpg, feature).
holds(s_14391_jpg, cafe).
holds(s_14391_jpg, hotel).
holds(s_14391_jpg, misccommercial).
holds(s_14391_jpg, commercial).
holds(s_14391_jpg, awning).
holds(s_14391_jpg, vendingmachine).
holds(s_14391_jpg, chimney).
holds(s_14391_jpg, car).

sample(s_2303_jpg).
holds(s_2303_jpg, building).
holds(s_2303_jpg, feature).
holds(s_2303_jpg, miscresidential).
holds(s_2303_jpg, countryhouse).
holds(s_2303_jpg, door).
holds(s_2303_jpg, window).
holds(s_2303_jpg, sign).
holds(s_2303_jpg, tiledroof).
holds(s_2303_jpg, chimney).
holds(s_2303_jpg, car).

sample(s_13407_jpg).
holds(s_13407_jpg, building).
holds(s_13407_jpg, feature).
holds(s_13407_jpg, cafe).
holds(s_13407_jpg, restaurant).
holds(s_13407_jpg, store).
holds(s_13407_jpg, misccommercial).
holds(s_13407_jpg, residential).
holds(s_13407_jpg, commercial).
holds(s_13407_jpg, vendingmachine).
holds(s_13407_jpg, chimney).
holds(s_13407_jpg, pipe).
holds(s_13407_jpg, car).

sample(s_15791_jpg).
holds(s_15791_jpg, building).
holds(s_15791_jpg, feature).
holds(s_15791_jpg, miscresidential).
holds(s_15791_jpg, countryhouse).
holds(s_15791_jpg, door).
holds(s_15791_jpg, window).
holds(s_15791_jpg, porch).
holds(s_15791_jpg, sign).
holds(s_15791_jpg, tiledroof).
holds(s_15791_jpg, chimney).
holds(s_15791_jpg, car).

sample(s_13374_jpg).
holds(s_13374_jpg, building).
holds(s_13374_jpg, feature).
holds(s_13374_jpg, cafe).
holds(s_13374_jpg, hotel).
holds(s_13374_jpg, store).
holds(s_13374_jpg, residential).
holds(s_13374_jpg, commercial).
holds(s_13374_jpg, awning).
holds(s_13374_jpg, vendingmachine).
holds(s_13374_jpg, chimney).
holds(s_13374_jpg, pipe).
holds(s_13374_jpg, car).

sample(s_14927_jpg).
holds(s_14927_jpg, building).
holds(s_14927_jpg, feature).
holds(s_14927_jpg, miscresidential).
holds(s_14927_jpg, countryhouse).
holds(s_14927_jpg, door).
holds(s_14927_jpg, window).
holds(s_14927_jpg, porch).
holds(s_14927_jpg, sign).
holds(s_14927_jpg, tiledroof).
holds(s_14927_jpg, chimney).
holds(s_14927_jpg, car).

sample(s_9556_jpg).
holds(s_9556_jpg, building).
holds(s_9556_jpg, feature).
holds(s_9556_jpg, miscindustrial).
holds(s_9556_jpg, powerplant).
holds(s_9556_jpg, watertreatment).
holds(s_9556_jpg, door).
holds(s_9556_jpg, window).
holds(s_9556_jpg, sign).
holds(s_9556_jpg, tiledrooftop).
holds(s_9556_jpg, chimney).
holds(s_9556_jpg, machine).

sample(s_7019_jpg).
holds(s_7019_jpg, building).
holds(s_7019_jpg, feature).
holds(s_7019_jpg, suburban).
holds(s_7019_jpg, commercial).
holds(s_7019_jpg, door).
holds(s_7019_jpg, window).
holds(s_7019_jpg, porch).
holds(s_7019_jpg, sign).
holds(s_7019_jpg, tiledroof).
holds(s_7019_jpg, tiledrooftop).
holds(s_7019_jpg, vendingmachine).

sample(s_9267_jpg).
holds(s_9267_jpg, building).
holds(s_9267_jpg, feature).
holds(s_9267_jpg, hotel).
holds(s_9267_jpg, restaurant).
holds(s_9267_jpg, store).
holds(s_9267_jpg, misccommercial).
holds(s_9267_jpg, residential).
holds(s_9267_jpg, commercial).
holds(s_9267_jpg, awning).
holds(s_9267_jpg, vendingmachine).
holds(s_9267_jpg, pipe).
holds(s_9267_jpg, car).

sample(s_12716_jpg).
holds(s_12716_jpg, building).
holds(s_12716_jpg, feature).
holds(s_12716_jpg, miscresidential).
holds(s_12716_jpg, door).
holds(s_12716_jpg, window).
holds(s_12716_jpg, porch).
holds(s_12716_jpg, sign).
holds(s_12716_jpg, tiledroof).
holds(s_12716_jpg, vendingmachine).
holds(s_12716_jpg, chimney).
holds(s_12716_jpg, car).

sample(s_9191_jpg).
holds(s_9191_jpg, building).
holds(s_9191_jpg, feature).
holds(s_9191_jpg, suburban).
holds(s_9191_jpg, miscresidential).
holds(s_9191_jpg, countryhouse).
holds(s_9191_jpg, door).
holds(s_9191_jpg, window).
holds(s_9191_jpg, porch).
holds(s_9191_jpg, sign).
holds(s_9191_jpg, tiledroof).
holds(s_9191_jpg, vendingmachine).
holds(s_9191_jpg, car).

sample(s_11709_jpg).
holds(s_11709_jpg, building).
holds(s_11709_jpg, feature).
holds(s_11709_jpg, cafe).
holds(s_11709_jpg, hotel).
holds(s_11709_jpg, misccommercial).
holds(s_11709_jpg, residential).
holds(s_11709_jpg, window).
holds(s_11709_jpg, awning).
holds(s_11709_jpg, tiledrooftop).
holds(s_11709_jpg, vendingmachine).
holds(s_11709_jpg, machine).
holds(s_11709_jpg, car).

sample(s_5281_jpg).
holds(s_5281_jpg, building).
holds(s_5281_jpg, feature).
holds(s_5281_jpg, constructionsite).
holds(s_5281_jpg, powerplant).
holds(s_5281_jpg, commercial).
holds(s_5281_jpg, door).
holds(s_5281_jpg, window).
holds(s_5281_jpg, awning).
holds(s_5281_jpg, tiledrooftop).
holds(s_5281_jpg, vendingmachine).
holds(s_5281_jpg, chimney).
holds(s_5281_jpg, machine).

sample(s_15317_jpg).
holds(s_15317_jpg, building).
holds(s_15317_jpg, feature).
holds(s_15317_jpg, miscresidential).
holds(s_15317_jpg, door).
holds(s_15317_jpg, window).
holds(s_15317_jpg, porch).
holds(s_15317_jpg, sign).
holds(s_15317_jpg, tiledroof).
holds(s_15317_jpg, vendingmachine).
holds(s_15317_jpg, chimney).
holds(s_15317_jpg, car).

sample(s_5953_jpg).
holds(s_5953_jpg, building).
holds(s_5953_jpg, feature).
holds(s_5953_jpg, powerplant).
holds(s_5953_jpg, door).
holds(s_5953_jpg, window).
holds(s_5953_jpg, sign).
holds(s_5953_jpg, tiledrooftop).
holds(s_5953_jpg, vendingmachine).
holds(s_5953_jpg, chimney).
holds(s_5953_jpg, machine).

sample(s_2185_jpg).
holds(s_2185_jpg, building).
holds(s_2185_jpg, feature).
holds(s_2185_jpg, miscindustrial).
holds(s_2185_jpg, watertreatment).
holds(s_2185_jpg, door).
holds(s_2185_jpg, window).
holds(s_2185_jpg, sign).
holds(s_2185_jpg, tiledrooftop).
holds(s_2185_jpg, vendingmachine).
holds(s_2185_jpg, machine).

sample(s_7214_jpg).
holds(s_7214_jpg, building).
holds(s_7214_jpg, feature).
holds(s_7214_jpg, miscresidential).
holds(s_7214_jpg, countryhouse).
holds(s_7214_jpg, door).
holds(s_7214_jpg, window).
holds(s_7214_jpg, porch).
holds(s_7214_jpg, sign).
holds(s_7214_jpg, tiledroof).
holds(s_7214_jpg, chimney).
holds(s_7214_jpg, car).

sample(s_12561_jpg).
holds(s_12561_jpg, building).
holds(s_12561_jpg, feature).
holds(s_12561_jpg, cafe).
holds(s_12561_jpg, hotel).
holds(s_12561_jpg, store).
holds(s_12561_jpg, misccommercial).
holds(s_12561_jpg, residential).
holds(s_12561_jpg, commercial).
holds(s_12561_jpg, awning).
holds(s_12561_jpg, vendingmachine).
holds(s_12561_jpg, chimney).
holds(s_12561_jpg, pipe).
holds(s_12561_jpg, car).

sample(s_12895_jpg).
holds(s_12895_jpg, building).
holds(s_12895_jpg, feature).
holds(s_12895_jpg, miscindustrial).
holds(s_12895_jpg, powerplant).
holds(s_12895_jpg, watertreatment).
holds(s_12895_jpg, door).
holds(s_12895_jpg, window).
holds(s_12895_jpg, awning).
holds(s_12895_jpg, sign).
holds(s_12895_jpg, tiledrooftop).
holds(s_12895_jpg, vendingmachine).
holds(s_12895_jpg, chimney).
holds(s_12895_jpg, machine).

sample(s_9844_jpg).
holds(s_9844_jpg, building).
holds(s_9844_jpg, feature).
holds(s_9844_jpg, constructionsite).
holds(s_9844_jpg, powerplant).
holds(s_9844_jpg, commercial).
holds(s_9844_jpg, door).
holds(s_9844_jpg, window).
holds(s_9844_jpg, awning).
holds(s_9844_jpg, tiledrooftop).
holds(s_9844_jpg, vendingmachine).
holds(s_9844_jpg, chimney).
holds(s_9844_jpg, machine).

sample(s_9792_jpg).
holds(s_9792_jpg, building).
holds(s_9792_jpg, feature).
holds(s_9792_jpg, cafe).
holds(s_9792_jpg, hotel).
holds(s_9792_jpg, store).
holds(s_9792_jpg, misccommercial).
holds(s_9792_jpg, commercial).
holds(s_9792_jpg, awning).
holds(s_9792_jpg, vendingmachine).
holds(s_9792_jpg, chimney).
holds(s_9792_jpg, car).

sample(s_3665_jpg).
holds(s_3665_jpg, building).
holds(s_3665_jpg, feature).
holds(s_3665_jpg, suburban).
holds(s_3665_jpg, commercial).
holds(s_3665_jpg, door).
holds(s_3665_jpg, window).
holds(s_3665_jpg, porch).
holds(s_3665_jpg, sign).
holds(s_3665_jpg, tiledroof).
holds(s_3665_jpg, tiledrooftop).
holds(s_3665_jpg, vendingmachine).

sample(s_11774_jpg).
holds(s_11774_jpg, building).
holds(s_11774_jpg, feature).
holds(s_11774_jpg, miscresidential).
holds(s_11774_jpg, countryhouse).
holds(s_11774_jpg, door).
holds(s_11774_jpg, window).
holds(s_11774_jpg, porch).
holds(s_11774_jpg, sign).
holds(s_11774_jpg, tiledroof).
holds(s_11774_jpg, chimney).
holds(s_11774_jpg, car).

sample(s_359_jpg).
holds(s_359_jpg, building).
holds(s_359_jpg, feature).
holds(s_359_jpg, suburban).
holds(s_359_jpg, commercial).
holds(s_359_jpg, door).
holds(s_359_jpg, window).
holds(s_359_jpg, porch).
holds(s_359_jpg, sign).
holds(s_359_jpg, tiledroof).
holds(s_359_jpg, tiledrooftop).
holds(s_359_jpg, vendingmachine).

sample(s_2379_jpg).
holds(s_2379_jpg, building).
holds(s_2379_jpg, feature).
holds(s_2379_jpg, cafe).
holds(s_2379_jpg, hotel).
holds(s_2379_jpg, store).
holds(s_2379_jpg, misccommercial).
holds(s_2379_jpg, residential).
holds(s_2379_jpg, commercial).
holds(s_2379_jpg, awning).
holds(s_2379_jpg, vendingmachine).
holds(s_2379_jpg, chimney).
holds(s_2379_jpg, car).

sample(s_9541_jpg).
holds(s_9541_jpg, building).
holds(s_9541_jpg, feature).
holds(s_9541_jpg, miscindustrial).
holds(s_9541_jpg, watertreatment).
holds(s_9541_jpg, door).
holds(s_9541_jpg, window).
holds(s_9541_jpg, awning).
holds(s_9541_jpg, sign).
holds(s_9541_jpg, tiledrooftop).
holds(s_9541_jpg, vendingmachine).
holds(s_9541_jpg, machine).

sample(s_8030_jpg).
holds(s_8030_jpg, building).
holds(s_8030_jpg, feature).
holds(s_8030_jpg, miscresidential).
holds(s_8030_jpg, countryhouse).
holds(s_8030_jpg, door).
holds(s_8030_jpg, window).
holds(s_8030_jpg, porch).
holds(s_8030_jpg, sign).
holds(s_8030_jpg, tiledroof).
holds(s_8030_jpg, chimney).
holds(s_8030_jpg, car).

sample(s_3926_jpg).
holds(s_3926_jpg, building).
holds(s_3926_jpg, feature).
holds(s_3926_jpg, miscresidential).
holds(s_3926_jpg, commercial).
holds(s_3926_jpg, door).
holds(s_3926_jpg, window).
holds(s_3926_jpg, awning).
holds(s_3926_jpg, porch).
holds(s_3926_jpg, sign).
holds(s_3926_jpg, tiledroof).
holds(s_3926_jpg, vendingmachine).
holds(s_3926_jpg, chimney).
holds(s_3926_jpg, car).

sample(s_8280_jpg).
holds(s_8280_jpg, building).
holds(s_8280_jpg, feature).
holds(s_8280_jpg, cafe).
holds(s_8280_jpg, hotel).
holds(s_8280_jpg, restaurant).
holds(s_8280_jpg, misccommercial).
holds(s_8280_jpg, residential).
holds(s_8280_jpg, commercial).
holds(s_8280_jpg, awning).
holds(s_8280_jpg, tiledrooftop).
holds(s_8280_jpg, vendingmachine).
holds(s_8280_jpg, chimney).
holds(s_8280_jpg, pipe).
holds(s_8280_jpg, machine).
holds(s_8280_jpg, car).

sample(s_9796_jpg).
holds(s_9796_jpg, building).
holds(s_9796_jpg, feature).
holds(s_9796_jpg, constructionsite).
holds(s_9796_jpg, powerplant).
holds(s_9796_jpg, commercial).
holds(s_9796_jpg, door).
holds(s_9796_jpg, awning).
holds(s_9796_jpg, tiledrooftop).
holds(s_9796_jpg, vendingmachine).
holds(s_9796_jpg, chimney).
holds(s_9796_jpg, machine).

sample(s_12489_jpg).
holds(s_12489_jpg, building).
holds(s_12489_jpg, feature).
holds(s_12489_jpg, cafe).
holds(s_12489_jpg, hotel).
holds(s_12489_jpg, store).
holds(s_12489_jpg, residential).
holds(s_12489_jpg, commercial).
holds(s_12489_jpg, awning).
holds(s_12489_jpg, vendingmachine).
holds(s_12489_jpg, chimney).
holds(s_12489_jpg, pipe).
holds(s_12489_jpg, car).

sample(s_7859_jpg).
holds(s_7859_jpg, building).
holds(s_7859_jpg, feature).
holds(s_7859_jpg, suburban).
holds(s_7859_jpg, miscresidential).
holds(s_7859_jpg, commercial).
holds(s_7859_jpg, door).
holds(s_7859_jpg, window).
holds(s_7859_jpg, porch).
holds(s_7859_jpg, sign).
holds(s_7859_jpg, tiledroof).
holds(s_7859_jpg, vendingmachine).
holds(s_7859_jpg, car).

sample(s_13385_jpg).
holds(s_13385_jpg, building).
holds(s_13385_jpg, feature).
holds(s_13385_jpg, suburban).
holds(s_13385_jpg, miscresidential).
holds(s_13385_jpg, countryhouse).
holds(s_13385_jpg, commercial).
holds(s_13385_jpg, door).
holds(s_13385_jpg, window).
holds(s_13385_jpg, porch).
holds(s_13385_jpg, sign).
holds(s_13385_jpg, tiledroof).
holds(s_13385_jpg, vendingmachine).
holds(s_13385_jpg, car).

sample(s_133_jpg).
holds(s_133_jpg, building).
holds(s_133_jpg, feature).
holds(s_133_jpg, powerplant).
holds(s_133_jpg, door).
holds(s_133_jpg, window).
holds(s_133_jpg, awning).
holds(s_133_jpg, sign).
holds(s_133_jpg, tiledrooftop).
holds(s_133_jpg, vendingmachine).
holds(s_133_jpg, chimney).
holds(s_133_jpg, machine).

sample(s_5934_jpg).
holds(s_5934_jpg, building).
holds(s_5934_jpg, feature).
holds(s_5934_jpg, cafe).
holds(s_5934_jpg, hotel).
holds(s_5934_jpg, restaurant).
holds(s_5934_jpg, store).
holds(s_5934_jpg, misccommercial).
holds(s_5934_jpg, residential).
holds(s_5934_jpg, commercial).
holds(s_5934_jpg, awning).
holds(s_5934_jpg, vendingmachine).
holds(s_5934_jpg, chimney).
holds(s_5934_jpg, pipe).
holds(s_5934_jpg, car).

sample(s_5043_jpg).
holds(s_5043_jpg, building).
holds(s_5043_jpg, feature).
holds(s_5043_jpg, cafe).
holds(s_5043_jpg, hotel).
holds(s_5043_jpg, misccommercial).
holds(s_5043_jpg, commercial).
holds(s_5043_jpg, door).
holds(s_5043_jpg, awning).
holds(s_5043_jpg, vendingmachine).
holds(s_5043_jpg, chimney).
holds(s_5043_jpg, car).

sample(s_15554_jpg).
holds(s_15554_jpg, building).
holds(s_15554_jpg, feature).
holds(s_15554_jpg, suburban).
holds(s_15554_jpg, miscresidential).
holds(s_15554_jpg, commercial).
holds(s_15554_jpg, door).
holds(s_15554_jpg, window).
holds(s_15554_jpg, porch).
holds(s_15554_jpg, sign).
holds(s_15554_jpg, tiledroof).
holds(s_15554_jpg, vendingmachine).
holds(s_15554_jpg, car).

sample(s_3321_jpg).
holds(s_3321_jpg, building).
holds(s_3321_jpg, feature).
holds(s_3321_jpg, cafe).
holds(s_3321_jpg, hotel).
holds(s_3321_jpg, store).
holds(s_3321_jpg, misccommercial).
holds(s_3321_jpg, residential).
holds(s_3321_jpg, commercial).
holds(s_3321_jpg, awning).
holds(s_3321_jpg, vendingmachine).
holds(s_3321_jpg, chimney).
holds(s_3321_jpg, pipe).
holds(s_3321_jpg, car).

sample(s_7731_jpg).
holds(s_7731_jpg, building).
holds(s_7731_jpg, feature).
holds(s_7731_jpg, cafe).
holds(s_7731_jpg, hotel).
holds(s_7731_jpg, misccommercial).
holds(s_7731_jpg, commercial).
holds(s_7731_jpg, door).
holds(s_7731_jpg, awning).
holds(s_7731_jpg, vendingmachine).
holds(s_7731_jpg, chimney).
holds(s_7731_jpg, car).

sample(s_5888_jpg).
holds(s_5888_jpg, building).
holds(s_5888_jpg, feature).
holds(s_5888_jpg, suburban).
holds(s_5888_jpg, commercial).
holds(s_5888_jpg, door).
holds(s_5888_jpg, window).
holds(s_5888_jpg, porch).
holds(s_5888_jpg, sign).
holds(s_5888_jpg, tiledroof).
holds(s_5888_jpg, tiledrooftop).
holds(s_5888_jpg, vendingmachine).

sample(s_13248_jpg).
holds(s_13248_jpg, building).
holds(s_13248_jpg, feature).
holds(s_13248_jpg, cafe).
holds(s_13248_jpg, hotel).
holds(s_13248_jpg, store).
holds(s_13248_jpg, residential).
holds(s_13248_jpg, commercial).
holds(s_13248_jpg, awning).
holds(s_13248_jpg, vendingmachine).
holds(s_13248_jpg, chimney).
holds(s_13248_jpg, pipe).
holds(s_13248_jpg, car).

sample(s_12243_jpg).
holds(s_12243_jpg, building).
holds(s_12243_jpg, feature).
holds(s_12243_jpg, cafe).
holds(s_12243_jpg, hotel).
holds(s_12243_jpg, restaurant).
holds(s_12243_jpg, misccommercial).
holds(s_12243_jpg, residential).
holds(s_12243_jpg, commercial).
holds(s_12243_jpg, awning).
holds(s_12243_jpg, vendingmachine).
holds(s_12243_jpg, chimney).
holds(s_12243_jpg, pipe).
holds(s_12243_jpg, car).

sample(s_5297_jpg).
holds(s_5297_jpg, building).
holds(s_5297_jpg, feature).
holds(s_5297_jpg, miscresidential).
holds(s_5297_jpg, countryhouse).
holds(s_5297_jpg, door).
holds(s_5297_jpg, window).
holds(s_5297_jpg, porch).
holds(s_5297_jpg, sign).
holds(s_5297_jpg, tiledroof).
holds(s_5297_jpg, chimney).
holds(s_5297_jpg, car).

sample(s_11966_jpg).
holds(s_11966_jpg, building).
holds(s_11966_jpg, feature).
holds(s_11966_jpg, suburban).
holds(s_11966_jpg, miscresidential).
holds(s_11966_jpg, countryhouse).
holds(s_11966_jpg, commercial).
holds(s_11966_jpg, door).
holds(s_11966_jpg, window).
holds(s_11966_jpg, porch).
holds(s_11966_jpg, sign).
holds(s_11966_jpg, tiledroof).
holds(s_11966_jpg, vendingmachine).
holds(s_11966_jpg, car).

sample(s_14633_jpg).
holds(s_14633_jpg, building).
holds(s_14633_jpg, feature).
holds(s_14633_jpg, suburban).
holds(s_14633_jpg, miscresidential).
holds(s_14633_jpg, countryhouse).
holds(s_14633_jpg, commercial).
holds(s_14633_jpg, door).
holds(s_14633_jpg, window).
holds(s_14633_jpg, porch).
holds(s_14633_jpg, sign).
holds(s_14633_jpg, tiledroof).
holds(s_14633_jpg, vendingmachine).
holds(s_14633_jpg, car).

sample(s_1141_jpg).
holds(s_1141_jpg, building).
holds(s_1141_jpg, feature).
holds(s_1141_jpg, miscindustrial).
holds(s_1141_jpg, watertreatment).
holds(s_1141_jpg, door).
holds(s_1141_jpg, window).
holds(s_1141_jpg, awning).
holds(s_1141_jpg, porch).
holds(s_1141_jpg, sign).
holds(s_1141_jpg, tiledrooftop).
holds(s_1141_jpg, vendingmachine).
holds(s_1141_jpg, machine).

sample(s_8355_jpg).
holds(s_8355_jpg, building).
holds(s_8355_jpg, feature).
holds(s_8355_jpg, cafe).
holds(s_8355_jpg, hotel).
holds(s_8355_jpg, restaurant).
holds(s_8355_jpg, watertreatment).
holds(s_8355_jpg, residential).
holds(s_8355_jpg, commercial).
holds(s_8355_jpg, door).
holds(s_8355_jpg, awning).
holds(s_8355_jpg, sign).
holds(s_8355_jpg, tiledrooftop).
holds(s_8355_jpg, vendingmachine).
holds(s_8355_jpg, machine).

sample(s_8382_jpg).
holds(s_8382_jpg, building).
holds(s_8382_jpg, feature).
holds(s_8382_jpg, cafe).
holds(s_8382_jpg, hotel).
holds(s_8382_jpg, restaurant).
holds(s_8382_jpg, store).
holds(s_8382_jpg, misccommercial).
holds(s_8382_jpg, residential).
holds(s_8382_jpg, commercial).
holds(s_8382_jpg, awning).
holds(s_8382_jpg, vendingmachine).
holds(s_8382_jpg, chimney).
holds(s_8382_jpg, pipe).
holds(s_8382_jpg, car).

sample(s_13993_jpg).
holds(s_13993_jpg, building).
holds(s_13993_jpg, feature).
holds(s_13993_jpg, constructionsite).
holds(s_13993_jpg, commercial).
holds(s_13993_jpg, door).
holds(s_13993_jpg, awning).
holds(s_13993_jpg, tiledrooftop).
holds(s_13993_jpg, vendingmachine).
holds(s_13993_jpg, chimney).

sample(s_8229_jpg).
holds(s_8229_jpg, building).
holds(s_8229_jpg, feature).
holds(s_8229_jpg, cafe).
holds(s_8229_jpg, hotel).
holds(s_8229_jpg, restaurant).
holds(s_8229_jpg, store).
holds(s_8229_jpg, misccommercial).
holds(s_8229_jpg, residential).
holds(s_8229_jpg, commercial).
holds(s_8229_jpg, awning).
holds(s_8229_jpg, vendingmachine).
holds(s_8229_jpg, chimney).
holds(s_8229_jpg, pipe).
holds(s_8229_jpg, car).

sample(s_4372_jpg).
holds(s_4372_jpg, building).
holds(s_4372_jpg, feature).
holds(s_4372_jpg, miscindustrial).
holds(s_4372_jpg, watertreatment).
holds(s_4372_jpg, door).
holds(s_4372_jpg, window).
holds(s_4372_jpg, awning).
holds(s_4372_jpg, porch).
holds(s_4372_jpg, sign).
holds(s_4372_jpg, tiledrooftop).
holds(s_4372_jpg, vendingmachine).
holds(s_4372_jpg, machine).

sample(s_1246_jpg).
holds(s_1246_jpg, building).
holds(s_1246_jpg, feature).
holds(s_1246_jpg, constructionsite).
holds(s_1246_jpg, commercial).
holds(s_1246_jpg, door).
holds(s_1246_jpg, awning).
holds(s_1246_jpg, tiledrooftop).
holds(s_1246_jpg, vendingmachine).
holds(s_1246_jpg, chimney).
holds(s_1246_jpg, machine).

sample(s_14473_jpg).
holds(s_14473_jpg, building).
holds(s_14473_jpg, feature).
holds(s_14473_jpg, miscindustrial).
holds(s_14473_jpg, powerplant).
holds(s_14473_jpg, watertreatment).
holds(s_14473_jpg, door).
holds(s_14473_jpg, window).
holds(s_14473_jpg, sign).
holds(s_14473_jpg, tiledrooftop).
holds(s_14473_jpg, vendingmachine).
holds(s_14473_jpg, chimney).
holds(s_14473_jpg, machine).

sample(s_10185_jpg).
holds(s_10185_jpg, building).
holds(s_10185_jpg, feature).
holds(s_10185_jpg, cafe).
holds(s_10185_jpg, hotel).
holds(s_10185_jpg, misccommercial).
holds(s_10185_jpg, commercial).
holds(s_10185_jpg, awning).
holds(s_10185_jpg, vendingmachine).
holds(s_10185_jpg, chimney).
holds(s_10185_jpg, car).

sample(s_15118_jpg).
holds(s_15118_jpg, building).
holds(s_15118_jpg, feature).
holds(s_15118_jpg, miscindustrial).
holds(s_15118_jpg, powerplant).
holds(s_15118_jpg, watertreatment).
holds(s_15118_jpg, door).
holds(s_15118_jpg, window).
holds(s_15118_jpg, sign).
holds(s_15118_jpg, tiledrooftop).
holds(s_15118_jpg, chimney).
holds(s_15118_jpg, machine).

sample(s_879_jpg).
holds(s_879_jpg, building).
holds(s_879_jpg, feature).
holds(s_879_jpg, cafe).
holds(s_879_jpg, hotel).
holds(s_879_jpg, store).
holds(s_879_jpg, misccommercial).
holds(s_879_jpg, commercial).
holds(s_879_jpg, door).
holds(s_879_jpg, window).
holds(s_879_jpg, awning).
holds(s_879_jpg, vendingmachine).
holds(s_879_jpg, chimney).
holds(s_879_jpg, car).

sample(s_3489_jpg).
holds(s_3489_jpg, building).
holds(s_3489_jpg, feature).
holds(s_3489_jpg, cafe).
holds(s_3489_jpg, hotel).
holds(s_3489_jpg, store).
holds(s_3489_jpg, misccommercial).
holds(s_3489_jpg, residential).
holds(s_3489_jpg, commercial).
holds(s_3489_jpg, awning).
holds(s_3489_jpg, tiledrooftop).
holds(s_3489_jpg, vendingmachine).
holds(s_3489_jpg, chimney).
holds(s_3489_jpg, car).

sample(s_14395_jpg).
holds(s_14395_jpg, building).
holds(s_14395_jpg, feature).
holds(s_14395_jpg, powerplant).
holds(s_14395_jpg, door).
holds(s_14395_jpg, window).
holds(s_14395_jpg, awning).
holds(s_14395_jpg, sign).
holds(s_14395_jpg, tiledrooftop).
holds(s_14395_jpg, vendingmachine).
holds(s_14395_jpg, chimney).
holds(s_14395_jpg, machine).

sample(s_8802_jpg).
holds(s_8802_jpg, building).
holds(s_8802_jpg, feature).
holds(s_8802_jpg, cafe).
holds(s_8802_jpg, hotel).
holds(s_8802_jpg, store).
holds(s_8802_jpg, misccommercial).
holds(s_8802_jpg, commercial).
holds(s_8802_jpg, awning).
holds(s_8802_jpg, vendingmachine).
holds(s_8802_jpg, chimney).
holds(s_8802_jpg, car).

sample(s_4143_jpg).
holds(s_4143_jpg, building).
holds(s_4143_jpg, feature).
holds(s_4143_jpg, cafe).
holds(s_4143_jpg, hotel).
holds(s_4143_jpg, restaurant).
holds(s_4143_jpg, residential).
holds(s_4143_jpg, commercial).
holds(s_4143_jpg, awning).
holds(s_4143_jpg, tiledrooftop).
holds(s_4143_jpg, vendingmachine).
holds(s_4143_jpg, chimney).
holds(s_4143_jpg, pipe).
holds(s_4143_jpg, car).

sample(s_15798_jpg).
holds(s_15798_jpg, building).
holds(s_15798_jpg, feature).
holds(s_15798_jpg, cafe).
holds(s_15798_jpg, hotel).
holds(s_15798_jpg, restaurant).
holds(s_15798_jpg, store).
holds(s_15798_jpg, residential).
holds(s_15798_jpg, commercial).
holds(s_15798_jpg, vendingmachine).
holds(s_15798_jpg, chimney).
holds(s_15798_jpg, pipe).
holds(s_15798_jpg, car).

sample(s_836_jpg).
holds(s_836_jpg, building).
holds(s_836_jpg, feature).
holds(s_836_jpg, suburban).
holds(s_836_jpg, miscresidential).
holds(s_836_jpg, countryhouse).
holds(s_836_jpg, commercial).
holds(s_836_jpg, door).
holds(s_836_jpg, window).
holds(s_836_jpg, porch).
holds(s_836_jpg, sign).
holds(s_836_jpg, tiledroof).
holds(s_836_jpg, vendingmachine).
holds(s_836_jpg, car).

sample(s_15390_jpg).
holds(s_15390_jpg, building).
holds(s_15390_jpg, feature).
holds(s_15390_jpg, cafe).
holds(s_15390_jpg, hotel).
holds(s_15390_jpg, store).
holds(s_15390_jpg, misccommercial).
holds(s_15390_jpg, commercial).
holds(s_15390_jpg, awning).
holds(s_15390_jpg, vendingmachine).
holds(s_15390_jpg, chimney).
holds(s_15390_jpg, pipe).
holds(s_15390_jpg, car).

sample(s_12655_jpg).
holds(s_12655_jpg, building).
holds(s_12655_jpg, feature).
holds(s_12655_jpg, miscindustrial).
holds(s_12655_jpg, powerplant).
holds(s_12655_jpg, watertreatment).
holds(s_12655_jpg, door).
holds(s_12655_jpg, window).
holds(s_12655_jpg, sign).
holds(s_12655_jpg, tiledrooftop).
holds(s_12655_jpg, vendingmachine).
holds(s_12655_jpg, chimney).
holds(s_12655_jpg, machine).

sample(s_9041_jpg).
holds(s_9041_jpg, building).
holds(s_9041_jpg, feature).
holds(s_9041_jpg, miscresidential).
holds(s_9041_jpg, door).
holds(s_9041_jpg, window).
holds(s_9041_jpg, awning).
holds(s_9041_jpg, porch).
holds(s_9041_jpg, sign).
holds(s_9041_jpg, tiledroof).
holds(s_9041_jpg, vendingmachine).
holds(s_9041_jpg, chimney).
holds(s_9041_jpg, car).

sample(s_4408_jpg).
holds(s_4408_jpg, building).
holds(s_4408_jpg, feature).
holds(s_4408_jpg, miscindustrial).
holds(s_4408_jpg, watertreatment).
holds(s_4408_jpg, door).
holds(s_4408_jpg, window).
holds(s_4408_jpg, sign).
holds(s_4408_jpg, tiledrooftop).
holds(s_4408_jpg, vendingmachine).
holds(s_4408_jpg, machine).

sample(s_70_jpg).
holds(s_70_jpg, building).
holds(s_70_jpg, feature).
holds(s_70_jpg, miscindustrial).
holds(s_70_jpg, powerplant).
holds(s_70_jpg, watertreatment).
holds(s_70_jpg, door).
holds(s_70_jpg, window).
holds(s_70_jpg, sign).
holds(s_70_jpg, tiledrooftop).
holds(s_70_jpg, chimney).
holds(s_70_jpg, machine).

sample(s_3743_jpg).
holds(s_3743_jpg, building).
holds(s_3743_jpg, feature).
holds(s_3743_jpg, suburban).
holds(s_3743_jpg, miscresidential).
holds(s_3743_jpg, countryhouse).
holds(s_3743_jpg, commercial).
holds(s_3743_jpg, door).
holds(s_3743_jpg, window).
holds(s_3743_jpg, porch).
holds(s_3743_jpg, sign).
holds(s_3743_jpg, tiledroof).
holds(s_3743_jpg, vendingmachine).
holds(s_3743_jpg, car).

sample(s_7348_jpg).
holds(s_7348_jpg, building).
holds(s_7348_jpg, feature).
holds(s_7348_jpg, miscindustrial).
holds(s_7348_jpg, watertreatment).
holds(s_7348_jpg, door).
holds(s_7348_jpg, window).
holds(s_7348_jpg, sign).
holds(s_7348_jpg, tiledrooftop).
holds(s_7348_jpg, vendingmachine).
holds(s_7348_jpg, chimney).
holds(s_7348_jpg, machine).

sample(s_12527_jpg).
holds(s_12527_jpg, building).
holds(s_12527_jpg, feature).
holds(s_12527_jpg, suburban).
holds(s_12527_jpg, miscresidential).
holds(s_12527_jpg, countryhouse).
holds(s_12527_jpg, door).
holds(s_12527_jpg, window).
holds(s_12527_jpg, porch).
holds(s_12527_jpg, sign).
holds(s_12527_jpg, tiledroof).
holds(s_12527_jpg, chimney).
holds(s_12527_jpg, car).

sample(s_1953_jpg).
holds(s_1953_jpg, building).
holds(s_1953_jpg, feature).
holds(s_1953_jpg, cafe).
holds(s_1953_jpg, hotel).
holds(s_1953_jpg, store).
holds(s_1953_jpg, misccommercial).
holds(s_1953_jpg, commercial).
holds(s_1953_jpg, awning).
holds(s_1953_jpg, vendingmachine).
holds(s_1953_jpg, chimney).
holds(s_1953_jpg, car).

sample(s_1290_jpg).
holds(s_1290_jpg, building).
holds(s_1290_jpg, feature).
holds(s_1290_jpg, cafe).
holds(s_1290_jpg, hotel).
holds(s_1290_jpg, store).
holds(s_1290_jpg, misccommercial).
holds(s_1290_jpg, commercial).
holds(s_1290_jpg, awning).
holds(s_1290_jpg, vendingmachine).
holds(s_1290_jpg, chimney).
holds(s_1290_jpg, car).

sample(s_8796_jpg).
holds(s_8796_jpg, building).
holds(s_8796_jpg, feature).
holds(s_8796_jpg, cafe).
holds(s_8796_jpg, hotel).
holds(s_8796_jpg, store).
holds(s_8796_jpg, misccommercial).
holds(s_8796_jpg, commercial).
holds(s_8796_jpg, awning).
holds(s_8796_jpg, vendingmachine).
holds(s_8796_jpg, chimney).
holds(s_8796_jpg, car).

sample(s_12920_jpg).
holds(s_12920_jpg, building).
holds(s_12920_jpg, feature).
holds(s_12920_jpg, suburban).
holds(s_12920_jpg, miscresidential).
holds(s_12920_jpg, commercial).
holds(s_12920_jpg, door).
holds(s_12920_jpg, window).
holds(s_12920_jpg, porch).
holds(s_12920_jpg, sign).
holds(s_12920_jpg, tiledroof).
holds(s_12920_jpg, vendingmachine).
holds(s_12920_jpg, car).

sample(s_14889_jpg).
holds(s_14889_jpg, building).
holds(s_14889_jpg, feature).
holds(s_14889_jpg, hotel).
holds(s_14889_jpg, misccommercial).
holds(s_14889_jpg, commercial).
holds(s_14889_jpg, door).
holds(s_14889_jpg, awning).
holds(s_14889_jpg, tiledrooftop).
holds(s_14889_jpg, vendingmachine).
holds(s_14889_jpg, chimney).
holds(s_14889_jpg, car).

sample(s_8587_jpg).
holds(s_8587_jpg, building).
holds(s_8587_jpg, feature).
holds(s_8587_jpg, miscindustrial).
holds(s_8587_jpg, watertreatment).
holds(s_8587_jpg, door).
holds(s_8587_jpg, window).
holds(s_8587_jpg, sign).
holds(s_8587_jpg, tiledrooftop).
holds(s_8587_jpg, vendingmachine).
holds(s_8587_jpg, machine).

sample(s_10655_jpg).
holds(s_10655_jpg, building).
holds(s_10655_jpg, feature).
holds(s_10655_jpg, suburban).
holds(s_10655_jpg, commercial).
holds(s_10655_jpg, door).
holds(s_10655_jpg, window).
holds(s_10655_jpg, porch).
holds(s_10655_jpg, sign).
holds(s_10655_jpg, tiledroof).
holds(s_10655_jpg, tiledrooftop).
holds(s_10655_jpg, vendingmachine).

sample(s_8349_jpg).
holds(s_8349_jpg, building).
holds(s_8349_jpg, feature).
holds(s_8349_jpg, cafe).
holds(s_8349_jpg, hotel).
holds(s_8349_jpg, store).
holds(s_8349_jpg, misccommercial).
holds(s_8349_jpg, commercial).
holds(s_8349_jpg, awning).
holds(s_8349_jpg, vendingmachine).
holds(s_8349_jpg, chimney).
holds(s_8349_jpg, car).

sample(s_595_jpg).
holds(s_595_jpg, building).
holds(s_595_jpg, feature).
holds(s_595_jpg, constructionsite).
holds(s_595_jpg, powerplant).
holds(s_595_jpg, commercial).
holds(s_595_jpg, door).
holds(s_595_jpg, awning).
holds(s_595_jpg, tiledrooftop).
holds(s_595_jpg, vendingmachine).
holds(s_595_jpg, chimney).
holds(s_595_jpg, machine).

sample(s_652_jpg).
holds(s_652_jpg, building).
holds(s_652_jpg, feature).
holds(s_652_jpg, miscindustrial).
holds(s_652_jpg, watertreatment).
holds(s_652_jpg, door).
holds(s_652_jpg, window).
holds(s_652_jpg, sign).
holds(s_652_jpg, tiledrooftop).
holds(s_652_jpg, vendingmachine).
holds(s_652_jpg, chimney).
holds(s_652_jpg, machine).

sample(s_6995_jpg).
holds(s_6995_jpg, building).
holds(s_6995_jpg, feature).
holds(s_6995_jpg, miscresidential).
holds(s_6995_jpg, countryhouse).
holds(s_6995_jpg, door).
holds(s_6995_jpg, window).
holds(s_6995_jpg, porch).
holds(s_6995_jpg, sign).
holds(s_6995_jpg, tiledroof).
holds(s_6995_jpg, chimney).
holds(s_6995_jpg, car).

sample(s_11604_jpg).
holds(s_11604_jpg, building).
holds(s_11604_jpg, feature).
holds(s_11604_jpg, cafe).
holds(s_11604_jpg, hotel).
holds(s_11604_jpg, restaurant).
holds(s_11604_jpg, misccommercial).
holds(s_11604_jpg, residential).
holds(s_11604_jpg, commercial).
holds(s_11604_jpg, awning).
holds(s_11604_jpg, tiledrooftop).
holds(s_11604_jpg, vendingmachine).
holds(s_11604_jpg, chimney).
holds(s_11604_jpg, pipe).
holds(s_11604_jpg, car).

sample(s_7598_jpg).
holds(s_7598_jpg, building).
holds(s_7598_jpg, feature).
holds(s_7598_jpg, miscresidential).
holds(s_7598_jpg, door).
holds(s_7598_jpg, window).
holds(s_7598_jpg, awning).
holds(s_7598_jpg, porch).
holds(s_7598_jpg, sign).
holds(s_7598_jpg, tiledroof).
holds(s_7598_jpg, vendingmachine).
holds(s_7598_jpg, chimney).
holds(s_7598_jpg, car).

sample(s_5893_jpg).
holds(s_5893_jpg, building).
holds(s_5893_jpg, feature).
holds(s_5893_jpg, constructionsite).
holds(s_5893_jpg, powerplant).
holds(s_5893_jpg, commercial).
holds(s_5893_jpg, door).
holds(s_5893_jpg, awning).
holds(s_5893_jpg, tiledrooftop).
holds(s_5893_jpg, vendingmachine).
holds(s_5893_jpg, chimney).

sample(s_182_jpg).
holds(s_182_jpg, building).
holds(s_182_jpg, feature).
holds(s_182_jpg, suburban).
holds(s_182_jpg, miscresidential).
holds(s_182_jpg, commercial).
holds(s_182_jpg, door).
holds(s_182_jpg, window).
holds(s_182_jpg, porch).
holds(s_182_jpg, sign).
holds(s_182_jpg, tiledroof).
holds(s_182_jpg, vendingmachine).
holds(s_182_jpg, car).

sample(s_8298_jpg).
holds(s_8298_jpg, building).
holds(s_8298_jpg, feature).
holds(s_8298_jpg, cafe).
holds(s_8298_jpg, hotel).
holds(s_8298_jpg, restaurant).
holds(s_8298_jpg, misccommercial).
holds(s_8298_jpg, residential).
holds(s_8298_jpg, commercial).
holds(s_8298_jpg, awning).
holds(s_8298_jpg, vendingmachine).
holds(s_8298_jpg, chimney).
holds(s_8298_jpg, car).

sample(s_15353_jpg).
holds(s_15353_jpg, building).
holds(s_15353_jpg, feature).
holds(s_15353_jpg, suburban).
holds(s_15353_jpg, miscresidential).
holds(s_15353_jpg, commercial).
holds(s_15353_jpg, door).
holds(s_15353_jpg, window).
holds(s_15353_jpg, porch).
holds(s_15353_jpg, sign).
holds(s_15353_jpg, tiledroof).
holds(s_15353_jpg, vendingmachine).
holds(s_15353_jpg, car).

sample(s_12231_jpg).
holds(s_12231_jpg, building).
holds(s_12231_jpg, feature).
holds(s_12231_jpg, hotel).
holds(s_12231_jpg, restaurant).
holds(s_12231_jpg, store).
holds(s_12231_jpg, residential).
holds(s_12231_jpg, commercial).
holds(s_12231_jpg, tiledrooftop).
holds(s_12231_jpg, vendingmachine).
holds(s_12231_jpg, chimney).
holds(s_12231_jpg, pipe).
holds(s_12231_jpg, car).

sample(s_15173_jpg).
holds(s_15173_jpg, building).
holds(s_15173_jpg, feature).
holds(s_15173_jpg, miscresidential).
holds(s_15173_jpg, countryhouse).
holds(s_15173_jpg, door).
holds(s_15173_jpg, window).
holds(s_15173_jpg, porch).
holds(s_15173_jpg, sign).
holds(s_15173_jpg, tiledroof).
holds(s_15173_jpg, chimney).
holds(s_15173_jpg, car).

sample(s_6619_jpg).
holds(s_6619_jpg, building).
holds(s_6619_jpg, feature).
holds(s_6619_jpg, miscindustrial).
holds(s_6619_jpg, watertreatment).
holds(s_6619_jpg, door).
holds(s_6619_jpg, window).
holds(s_6619_jpg, sign).
holds(s_6619_jpg, tiledrooftop).
holds(s_6619_jpg, vendingmachine).
holds(s_6619_jpg, chimney).
holds(s_6619_jpg, machine).

sample(s_5905_jpg).
holds(s_5905_jpg, building).
holds(s_5905_jpg, feature).
holds(s_5905_jpg, powerplant).
holds(s_5905_jpg, door).
holds(s_5905_jpg, window).
holds(s_5905_jpg, awning).
holds(s_5905_jpg, tiledrooftop).
holds(s_5905_jpg, vendingmachine).
holds(s_5905_jpg, chimney).
holds(s_5905_jpg, machine).

sample(s_5079_jpg).
holds(s_5079_jpg, building).
holds(s_5079_jpg, feature).
holds(s_5079_jpg, cafe).
holds(s_5079_jpg, hotel).
holds(s_5079_jpg, misccommercial).
holds(s_5079_jpg, commercial).
holds(s_5079_jpg, door).
holds(s_5079_jpg, awning).
holds(s_5079_jpg, vendingmachine).
holds(s_5079_jpg, chimney).
holds(s_5079_jpg, car).

sample(s_1827_jpg).
holds(s_1827_jpg, building).
holds(s_1827_jpg, feature).
holds(s_1827_jpg, cafe).
holds(s_1827_jpg, hotel).
holds(s_1827_jpg, store).
holds(s_1827_jpg, misccommercial).
holds(s_1827_jpg, residential).
holds(s_1827_jpg, commercial).
holds(s_1827_jpg, awning).
holds(s_1827_jpg, vendingmachine).
holds(s_1827_jpg, chimney).
holds(s_1827_jpg, pipe).
holds(s_1827_jpg, car).

sample(s_10147_jpg).
holds(s_10147_jpg, building).
holds(s_10147_jpg, feature).
holds(s_10147_jpg, miscindustrial).
holds(s_10147_jpg, powerplant).
holds(s_10147_jpg, watertreatment).
holds(s_10147_jpg, door).
holds(s_10147_jpg, window).
holds(s_10147_jpg, sign).
holds(s_10147_jpg, tiledrooftop).
holds(s_10147_jpg, vendingmachine).
holds(s_10147_jpg, chimney).
holds(s_10147_jpg, machine).

sample(s_15881_jpg).
holds(s_15881_jpg, building).
holds(s_15881_jpg, feature).
holds(s_15881_jpg, miscresidential).
holds(s_15881_jpg, countryhouse).
holds(s_15881_jpg, door).
holds(s_15881_jpg, window).
holds(s_15881_jpg, porch).
holds(s_15881_jpg, sign).
holds(s_15881_jpg, tiledroof).
holds(s_15881_jpg, chimney).
holds(s_15881_jpg, car).

sample(s_8718_jpg).
holds(s_8718_jpg, building).
holds(s_8718_jpg, feature).
holds(s_8718_jpg, cafe).
holds(s_8718_jpg, hotel).
holds(s_8718_jpg, misccommercial).
holds(s_8718_jpg, residential).
holds(s_8718_jpg, commercial).
holds(s_8718_jpg, awning).
holds(s_8718_jpg, tiledrooftop).
holds(s_8718_jpg, vendingmachine).
holds(s_8718_jpg, car).

sample(s_12706_jpg).
holds(s_12706_jpg, building).
holds(s_12706_jpg, feature).
holds(s_12706_jpg, miscindustrial).
holds(s_12706_jpg, watertreatment).
holds(s_12706_jpg, door).
holds(s_12706_jpg, window).
holds(s_12706_jpg, sign).
holds(s_12706_jpg, tiledrooftop).
holds(s_12706_jpg, vendingmachine).
holds(s_12706_jpg, chimney).
holds(s_12706_jpg, machine).

sample(s_10561_jpg).
holds(s_10561_jpg, building).
holds(s_10561_jpg, feature).
holds(s_10561_jpg, miscindustrial).
holds(s_10561_jpg, powerplant).
holds(s_10561_jpg, watertreatment).
holds(s_10561_jpg, door).
holds(s_10561_jpg, window).
holds(s_10561_jpg, sign).
holds(s_10561_jpg, tiledrooftop).
holds(s_10561_jpg, chimney).
holds(s_10561_jpg, machine).

sample(s_2897_jpg).
holds(s_2897_jpg, building).
holds(s_2897_jpg, feature).
holds(s_2897_jpg, suburban).
holds(s_2897_jpg, miscresidential).
holds(s_2897_jpg, countryhouse).
holds(s_2897_jpg, commercial).
holds(s_2897_jpg, door).
holds(s_2897_jpg, window).
holds(s_2897_jpg, porch).
holds(s_2897_jpg, sign).
holds(s_2897_jpg, tiledroof).
holds(s_2897_jpg, vendingmachine).
holds(s_2897_jpg, car).

sample(s_6514_jpg).
holds(s_6514_jpg, building).
holds(s_6514_jpg, feature).
holds(s_6514_jpg, miscindustrial).
holds(s_6514_jpg, watertreatment).
holds(s_6514_jpg, door).
holds(s_6514_jpg, window).
holds(s_6514_jpg, sign).
holds(s_6514_jpg, tiledrooftop).
holds(s_6514_jpg, vendingmachine).
holds(s_6514_jpg, chimney).
holds(s_6514_jpg, machine).

sample(s_11165_jpg).
holds(s_11165_jpg, building).
holds(s_11165_jpg, feature).
holds(s_11165_jpg, suburban).
holds(s_11165_jpg, commercial).
holds(s_11165_jpg, door).
holds(s_11165_jpg, window).
holds(s_11165_jpg, porch).
holds(s_11165_jpg, sign).
holds(s_11165_jpg, tiledroof).
holds(s_11165_jpg, tiledrooftop).
holds(s_11165_jpg, vendingmachine).

sample(s_13280_jpg).
holds(s_13280_jpg, building).
holds(s_13280_jpg, feature).
holds(s_13280_jpg, suburban).
holds(s_13280_jpg, miscresidential).
holds(s_13280_jpg, commercial).
holds(s_13280_jpg, door).
holds(s_13280_jpg, window).
holds(s_13280_jpg, porch).
holds(s_13280_jpg, sign).
holds(s_13280_jpg, tiledroof).
holds(s_13280_jpg, vendingmachine).
holds(s_13280_jpg, car).

sample(s_3009_jpg).
holds(s_3009_jpg, building).
holds(s_3009_jpg, feature).
holds(s_3009_jpg, cafe).
holds(s_3009_jpg, hotel).
holds(s_3009_jpg, restaurant).
holds(s_3009_jpg, store).
holds(s_3009_jpg, residential).
holds(s_3009_jpg, commercial).
holds(s_3009_jpg, vendingmachine).
holds(s_3009_jpg, chimney).
holds(s_3009_jpg, pipe).
holds(s_3009_jpg, car).

sample(s_14487_jpg).
holds(s_14487_jpg, building).
holds(s_14487_jpg, feature).
holds(s_14487_jpg, cafe).
holds(s_14487_jpg, hotel).
holds(s_14487_jpg, restaurant).
holds(s_14487_jpg, store).
holds(s_14487_jpg, misccommercial).
holds(s_14487_jpg, commercial).
holds(s_14487_jpg, awning).
holds(s_14487_jpg, vendingmachine).
holds(s_14487_jpg, chimney).
holds(s_14487_jpg, pipe).
holds(s_14487_jpg, car).

sample(s_9747_jpg).
holds(s_9747_jpg, building).
holds(s_9747_jpg, feature).
holds(s_9747_jpg, cafe).
holds(s_9747_jpg, hotel).
holds(s_9747_jpg, restaurant).
holds(s_9747_jpg, misccommercial).
holds(s_9747_jpg, residential).
holds(s_9747_jpg, commercial).
holds(s_9747_jpg, awning).
holds(s_9747_jpg, tiledrooftop).
holds(s_9747_jpg, vendingmachine).
holds(s_9747_jpg, chimney).
holds(s_9747_jpg, pipe).
holds(s_9747_jpg, car).

sample(s_5082_jpg).
holds(s_5082_jpg, building).
holds(s_5082_jpg, feature).
holds(s_5082_jpg, cafe).
holds(s_5082_jpg, hotel).
holds(s_5082_jpg, restaurant).
holds(s_5082_jpg, store).
holds(s_5082_jpg, misccommercial).
holds(s_5082_jpg, residential).
holds(s_5082_jpg, commercial).
holds(s_5082_jpg, awning).
holds(s_5082_jpg, vendingmachine).
holds(s_5082_jpg, chimney).
holds(s_5082_jpg, pipe).
holds(s_5082_jpg, car).

sample(s_11271_jpg).
holds(s_11271_jpg, building).
holds(s_11271_jpg, feature).
holds(s_11271_jpg, cafe).
holds(s_11271_jpg, hotel).
holds(s_11271_jpg, restaurant).
holds(s_11271_jpg, misccommercial).
holds(s_11271_jpg, residential).
holds(s_11271_jpg, commercial).
holds(s_11271_jpg, vendingmachine).
holds(s_11271_jpg, chimney).
holds(s_11271_jpg, car).

sample(s_13522_jpg).
holds(s_13522_jpg, building).
holds(s_13522_jpg, feature).
holds(s_13522_jpg, miscindustrial).
holds(s_13522_jpg, powerplant).
holds(s_13522_jpg, watertreatment).
holds(s_13522_jpg, door).
holds(s_13522_jpg, window).
holds(s_13522_jpg, sign).
holds(s_13522_jpg, tiledrooftop).
holds(s_13522_jpg, vendingmachine).
holds(s_13522_jpg, chimney).
holds(s_13522_jpg, machine).

sample(s_8585_jpg).
holds(s_8585_jpg, building).
holds(s_8585_jpg, feature).
holds(s_8585_jpg, miscresidential).
holds(s_8585_jpg, countryhouse).
holds(s_8585_jpg, door).
holds(s_8585_jpg, window).
holds(s_8585_jpg, porch).
holds(s_8585_jpg, sign).
holds(s_8585_jpg, tiledroof).
holds(s_8585_jpg, chimney).
holds(s_8585_jpg, car).

sample(s_15636_jpg).
holds(s_15636_jpg, building).
holds(s_15636_jpg, feature).
holds(s_15636_jpg, cafe).
holds(s_15636_jpg, hotel).
holds(s_15636_jpg, store).
holds(s_15636_jpg, misccommercial).
holds(s_15636_jpg, commercial).
holds(s_15636_jpg, awning).
holds(s_15636_jpg, vendingmachine).
holds(s_15636_jpg, chimney).
holds(s_15636_jpg, car).

sample(s_14496_jpg).
holds(s_14496_jpg, building).
holds(s_14496_jpg, feature).
holds(s_14496_jpg, misccommercial).
holds(s_14496_jpg, miscresidential).
holds(s_14496_jpg, commercial).
holds(s_14496_jpg, door).
holds(s_14496_jpg, window).
holds(s_14496_jpg, awning).
holds(s_14496_jpg, porch).
holds(s_14496_jpg, sign).
holds(s_14496_jpg, tiledroof).
holds(s_14496_jpg, vendingmachine).
holds(s_14496_jpg, chimney).
holds(s_14496_jpg, car).

sample(s_431_jpg).
holds(s_431_jpg, building).
holds(s_431_jpg, feature).
holds(s_431_jpg, suburban).
holds(s_431_jpg, miscresidential).
holds(s_431_jpg, commercial).
holds(s_431_jpg, door).
holds(s_431_jpg, window).
holds(s_431_jpg, porch).
holds(s_431_jpg, sign).
holds(s_431_jpg, tiledroof).
holds(s_431_jpg, vendingmachine).
holds(s_431_jpg, car).

sample(s_11623_jpg).
holds(s_11623_jpg, building).
holds(s_11623_jpg, feature).
holds(s_11623_jpg, constructionsite).
holds(s_11623_jpg, commercial).
holds(s_11623_jpg, door).
holds(s_11623_jpg, awning).
holds(s_11623_jpg, tiledrooftop).
holds(s_11623_jpg, vendingmachine).
holds(s_11623_jpg, chimney).
holds(s_11623_jpg, machine).

sample(s_2549_jpg).
holds(s_2549_jpg, building).
holds(s_2549_jpg, feature).
holds(s_2549_jpg, suburban).
holds(s_2549_jpg, commercial).
holds(s_2549_jpg, door).
holds(s_2549_jpg, window).
holds(s_2549_jpg, porch).
holds(s_2549_jpg, sign).
holds(s_2549_jpg, tiledroof).
holds(s_2549_jpg, tiledrooftop).
holds(s_2549_jpg, vendingmachine).

sample(s_7353_jpg).
holds(s_7353_jpg, building).
holds(s_7353_jpg, feature).
holds(s_7353_jpg, cafe).
holds(s_7353_jpg, hotel).
holds(s_7353_jpg, store).
holds(s_7353_jpg, misccommercial).
holds(s_7353_jpg, commercial).
holds(s_7353_jpg, awning).
holds(s_7353_jpg, vendingmachine).
holds(s_7353_jpg, chimney).
holds(s_7353_jpg, car).

sample(s_7849_jpg).
holds(s_7849_jpg, building).
holds(s_7849_jpg, feature).
holds(s_7849_jpg, powerplant).
holds(s_7849_jpg, door).
holds(s_7849_jpg, window).
holds(s_7849_jpg, awning).
holds(s_7849_jpg, sign).
holds(s_7849_jpg, tiledrooftop).
holds(s_7849_jpg, vendingmachine).
holds(s_7849_jpg, chimney).
holds(s_7849_jpg, machine).

sample(s_9350_jpg).
holds(s_9350_jpg, building).
holds(s_9350_jpg, feature).
holds(s_9350_jpg, suburban).
holds(s_9350_jpg, miscresidential).
holds(s_9350_jpg, commercial).
holds(s_9350_jpg, door).
holds(s_9350_jpg, window).
holds(s_9350_jpg, porch).
holds(s_9350_jpg, sign).
holds(s_9350_jpg, tiledroof).
holds(s_9350_jpg, vendingmachine).
holds(s_9350_jpg, car).

sample(s_6912_jpg).
holds(s_6912_jpg, building).
holds(s_6912_jpg, feature).
holds(s_6912_jpg, cafe).
holds(s_6912_jpg, hotel).
holds(s_6912_jpg, store).
holds(s_6912_jpg, residential).
holds(s_6912_jpg, commercial).
holds(s_6912_jpg, awning).
holds(s_6912_jpg, vendingmachine).
holds(s_6912_jpg, chimney).
holds(s_6912_jpg, pipe).
holds(s_6912_jpg, car).

sample(s_7917_jpg).
holds(s_7917_jpg, building).
holds(s_7917_jpg, feature).
holds(s_7917_jpg, cafe).
holds(s_7917_jpg, hotel).
holds(s_7917_jpg, store).
holds(s_7917_jpg, misccommercial).
holds(s_7917_jpg, residential).
holds(s_7917_jpg, commercial).
holds(s_7917_jpg, awning).
holds(s_7917_jpg, vendingmachine).
holds(s_7917_jpg, chimney).
holds(s_7917_jpg, car).

sample(s_255_jpg).
holds(s_255_jpg, building).
holds(s_255_jpg, feature).
holds(s_255_jpg, cafe).
holds(s_255_jpg, hotel).
holds(s_255_jpg, store).
holds(s_255_jpg, residential).
holds(s_255_jpg, commercial).
holds(s_255_jpg, window).
holds(s_255_jpg, awning).
holds(s_255_jpg, vendingmachine).
holds(s_255_jpg, chimney).
holds(s_255_jpg, car).

sample(s_714_jpg).
holds(s_714_jpg, building).
holds(s_714_jpg, feature).
holds(s_714_jpg, cafe).
holds(s_714_jpg, hotel).
holds(s_714_jpg, restaurant).
holds(s_714_jpg, store).
holds(s_714_jpg, misccommercial).
holds(s_714_jpg, residential).
holds(s_714_jpg, commercial).
holds(s_714_jpg, awning).
holds(s_714_jpg, vendingmachine).
holds(s_714_jpg, chimney).
holds(s_714_jpg, pipe).
holds(s_714_jpg, car).

sample(s_9029_jpg).
holds(s_9029_jpg, building).
holds(s_9029_jpg, feature).
holds(s_9029_jpg, suburban).
holds(s_9029_jpg, miscresidential).
holds(s_9029_jpg, countryhouse).
holds(s_9029_jpg, door).
holds(s_9029_jpg, window).
holds(s_9029_jpg, porch).
holds(s_9029_jpg, sign).
holds(s_9029_jpg, tiledroof).
holds(s_9029_jpg, car).

sample(s_6573_jpg).
holds(s_6573_jpg, building).
holds(s_6573_jpg, feature).
holds(s_6573_jpg, hotel).
holds(s_6573_jpg, restaurant).
holds(s_6573_jpg, misccommercial).
holds(s_6573_jpg, residential).
holds(s_6573_jpg, commercial).
holds(s_6573_jpg, awning).
holds(s_6573_jpg, vendingmachine).
holds(s_6573_jpg, pipe).
holds(s_6573_jpg, car).

sample(s_14840_jpg).
holds(s_14840_jpg, building).
holds(s_14840_jpg, feature).
holds(s_14840_jpg, miscresidential).
holds(s_14840_jpg, countryhouse).
holds(s_14840_jpg, door).
holds(s_14840_jpg, window).
holds(s_14840_jpg, porch).
holds(s_14840_jpg, sign).
holds(s_14840_jpg, tiledroof).
holds(s_14840_jpg, chimney).
holds(s_14840_jpg, car).

sample(s_3272_jpg).
holds(s_3272_jpg, building).
holds(s_3272_jpg, feature).
holds(s_3272_jpg, suburban).
holds(s_3272_jpg, miscresidential).
holds(s_3272_jpg, commercial).
holds(s_3272_jpg, door).
holds(s_3272_jpg, window).
holds(s_3272_jpg, porch).
holds(s_3272_jpg, sign).
holds(s_3272_jpg, tiledroof).
holds(s_3272_jpg, vendingmachine).
holds(s_3272_jpg, car).

sample(s_14629_jpg).
holds(s_14629_jpg, building).
holds(s_14629_jpg, feature).
holds(s_14629_jpg, powerplant).
holds(s_14629_jpg, commercial).
holds(s_14629_jpg, door).
holds(s_14629_jpg, window).
holds(s_14629_jpg, awning).
holds(s_14629_jpg, tiledrooftop).
holds(s_14629_jpg, vendingmachine).
holds(s_14629_jpg, chimney).

sample(s_13340_jpg).
holds(s_13340_jpg, building).
holds(s_13340_jpg, feature).
holds(s_13340_jpg, miscresidential).
holds(s_13340_jpg, commercial).
holds(s_13340_jpg, door).
holds(s_13340_jpg, window).
holds(s_13340_jpg, awning).
holds(s_13340_jpg, porch).
holds(s_13340_jpg, sign).
holds(s_13340_jpg, tiledroof).
holds(s_13340_jpg, vendingmachine).
holds(s_13340_jpg, chimney).
holds(s_13340_jpg, car).

sample(s_7053_jpg).
holds(s_7053_jpg, building).
holds(s_7053_jpg, feature).
holds(s_7053_jpg, cafe).
holds(s_7053_jpg, hotel).
holds(s_7053_jpg, store).
holds(s_7053_jpg, misccommercial).
holds(s_7053_jpg, commercial).
holds(s_7053_jpg, door).
holds(s_7053_jpg, awning).
holds(s_7053_jpg, vendingmachine).
holds(s_7053_jpg, chimney).
holds(s_7053_jpg, car).

sample(s_10705_jpg).
holds(s_10705_jpg, building).
holds(s_10705_jpg, feature).
holds(s_10705_jpg, miscindustrial).
holds(s_10705_jpg, powerplant).
holds(s_10705_jpg, watertreatment).
holds(s_10705_jpg, door).
holds(s_10705_jpg, window).
holds(s_10705_jpg, sign).
holds(s_10705_jpg, tiledrooftop).
holds(s_10705_jpg, vendingmachine).
holds(s_10705_jpg, chimney).
holds(s_10705_jpg, machine).

sample(s_10837_jpg).
holds(s_10837_jpg, building).
holds(s_10837_jpg, feature).
holds(s_10837_jpg, constructionsite).
holds(s_10837_jpg, commercial).
holds(s_10837_jpg, door).
holds(s_10837_jpg, awning).
holds(s_10837_jpg, tiledrooftop).
holds(s_10837_jpg, vendingmachine).
holds(s_10837_jpg, chimney).

sample(s_1910_jpg).
holds(s_1910_jpg, building).
holds(s_1910_jpg, feature).
holds(s_1910_jpg, suburban).
holds(s_1910_jpg, miscresidential).
holds(s_1910_jpg, countryhouse).
holds(s_1910_jpg, commercial).
holds(s_1910_jpg, door).
holds(s_1910_jpg, window).
holds(s_1910_jpg, porch).
holds(s_1910_jpg, sign).
holds(s_1910_jpg, tiledroof).
holds(s_1910_jpg, vendingmachine).
holds(s_1910_jpg, car).

sample(s_9374_jpg).
holds(s_9374_jpg, building).
holds(s_9374_jpg, feature).
holds(s_9374_jpg, suburban).
holds(s_9374_jpg, miscresidential).
holds(s_9374_jpg, commercial).
holds(s_9374_jpg, door).
holds(s_9374_jpg, window).
holds(s_9374_jpg, porch).
holds(s_9374_jpg, sign).
holds(s_9374_jpg, tiledroof).
holds(s_9374_jpg, vendingmachine).
holds(s_9374_jpg, car).

sample(s_10829_jpg).
holds(s_10829_jpg, building).
holds(s_10829_jpg, feature).
holds(s_10829_jpg, suburban).
holds(s_10829_jpg, commercial).
holds(s_10829_jpg, door).
holds(s_10829_jpg, window).
holds(s_10829_jpg, porch).
holds(s_10829_jpg, sign).
holds(s_10829_jpg, tiledroof).
holds(s_10829_jpg, tiledrooftop).
holds(s_10829_jpg, vendingmachine).

sample(s_1077_jpg).
holds(s_1077_jpg, building).
holds(s_1077_jpg, feature).
holds(s_1077_jpg, cafe).
holds(s_1077_jpg, hotel).
holds(s_1077_jpg, restaurant).
holds(s_1077_jpg, misccommercial).
holds(s_1077_jpg, residential).
holds(s_1077_jpg, commercial).
holds(s_1077_jpg, awning).
holds(s_1077_jpg, tiledrooftop).
holds(s_1077_jpg, vendingmachine).
holds(s_1077_jpg, chimney).
holds(s_1077_jpg, pipe).
holds(s_1077_jpg, car).

sample(s_12630_jpg).
holds(s_12630_jpg, building).
holds(s_12630_jpg, feature).
holds(s_12630_jpg, cafe).
holds(s_12630_jpg, hotel).
holds(s_12630_jpg, store).
holds(s_12630_jpg, commercial).
holds(s_12630_jpg, awning).
holds(s_12630_jpg, vendingmachine).
holds(s_12630_jpg, chimney).
holds(s_12630_jpg, car).

sample(s_7764_jpg).
holds(s_7764_jpg, building).
holds(s_7764_jpg, feature).
holds(s_7764_jpg, cafe).
holds(s_7764_jpg, store).
holds(s_7764_jpg, misccommercial).
holds(s_7764_jpg, residential).
holds(s_7764_jpg, commercial).
holds(s_7764_jpg, awning).
holds(s_7764_jpg, vendingmachine).
holds(s_7764_jpg, chimney).
holds(s_7764_jpg, car).

sample(s_15259_jpg).
holds(s_15259_jpg, building).
holds(s_15259_jpg, feature).
holds(s_15259_jpg, powerplant).
holds(s_15259_jpg, door).
holds(s_15259_jpg, window).
holds(s_15259_jpg, sign).
holds(s_15259_jpg, tiledrooftop).
holds(s_15259_jpg, vendingmachine).
holds(s_15259_jpg, chimney).
holds(s_15259_jpg, machine).

sample(s_7043_jpg).
holds(s_7043_jpg, building).
holds(s_7043_jpg, feature).
holds(s_7043_jpg, suburban).
holds(s_7043_jpg, commercial).
holds(s_7043_jpg, door).
holds(s_7043_jpg, window).
holds(s_7043_jpg, sign).
holds(s_7043_jpg, tiledroof).
holds(s_7043_jpg, tiledrooftop).
holds(s_7043_jpg, vendingmachine).

sample(s_15185_jpg).
holds(s_15185_jpg, building).
holds(s_15185_jpg, feature).
holds(s_15185_jpg, miscresidential).
holds(s_15185_jpg, countryhouse).
holds(s_15185_jpg, door).
holds(s_15185_jpg, window).
holds(s_15185_jpg, sign).
holds(s_15185_jpg, tiledroof).
holds(s_15185_jpg, chimney).
holds(s_15185_jpg, car).

sample(s_13448_jpg).
holds(s_13448_jpg, building).
holds(s_13448_jpg, feature).
holds(s_13448_jpg, miscresidential).
holds(s_13448_jpg, countryhouse).
holds(s_13448_jpg, door).
holds(s_13448_jpg, window).
holds(s_13448_jpg, porch).
holds(s_13448_jpg, sign).
holds(s_13448_jpg, tiledroof).
holds(s_13448_jpg, chimney).
holds(s_13448_jpg, car).

sample(s_3570_jpg).
holds(s_3570_jpg, building).
holds(s_3570_jpg, feature).
holds(s_3570_jpg, cafe).
holds(s_3570_jpg, hotel).
holds(s_3570_jpg, store).
holds(s_3570_jpg, misccommercial).
holds(s_3570_jpg, commercial).
holds(s_3570_jpg, awning).
holds(s_3570_jpg, vendingmachine).
holds(s_3570_jpg, chimney).
holds(s_3570_jpg, pipe).
holds(s_3570_jpg, car).

sample(s_10494_jpg).
holds(s_10494_jpg, building).
holds(s_10494_jpg, feature).
holds(s_10494_jpg, cafe).
holds(s_10494_jpg, hotel).
holds(s_10494_jpg, misccommercial).
holds(s_10494_jpg, residential).
holds(s_10494_jpg, commercial).
holds(s_10494_jpg, awning).
holds(s_10494_jpg, tiledrooftop).
holds(s_10494_jpg, vendingmachine).
holds(s_10494_jpg, chimney).
holds(s_10494_jpg, car).

sample(s_12071_jpg).
holds(s_12071_jpg, building).
holds(s_12071_jpg, feature).
holds(s_12071_jpg, suburban).
holds(s_12071_jpg, miscresidential).
holds(s_12071_jpg, commercial).
holds(s_12071_jpg, door).
holds(s_12071_jpg, window).
holds(s_12071_jpg, porch).
holds(s_12071_jpg, sign).
holds(s_12071_jpg, tiledroof).
holds(s_12071_jpg, vendingmachine).
holds(s_12071_jpg, car).

sample(s_11248_jpg).
holds(s_11248_jpg, building).
holds(s_11248_jpg, feature).
holds(s_11248_jpg, miscindustrial).
holds(s_11248_jpg, watertreatment).
holds(s_11248_jpg, door).
holds(s_11248_jpg, window).
holds(s_11248_jpg, sign).
holds(s_11248_jpg, tiledrooftop).
holds(s_11248_jpg, vendingmachine).
holds(s_11248_jpg, chimney).
holds(s_11248_jpg, machine).

sample(s_82_jpg).
holds(s_82_jpg, building).
holds(s_82_jpg, feature).
holds(s_82_jpg, miscindustrial).
holds(s_82_jpg, watertreatment).
holds(s_82_jpg, door).
holds(s_82_jpg, window).
holds(s_82_jpg, awning).
holds(s_82_jpg, sign).
holds(s_82_jpg, tiledrooftop).
holds(s_82_jpg, vendingmachine).
holds(s_82_jpg, chimney).
holds(s_82_jpg, machine).

sample(s_8526_jpg).
holds(s_8526_jpg, building).
holds(s_8526_jpg, feature).
holds(s_8526_jpg, cafe).
holds(s_8526_jpg, hotel).
holds(s_8526_jpg, restaurant).
holds(s_8526_jpg, store).
holds(s_8526_jpg, misccommercial).
holds(s_8526_jpg, residential).
holds(s_8526_jpg, commercial).
holds(s_8526_jpg, awning).
holds(s_8526_jpg, vendingmachine).
holds(s_8526_jpg, chimney).
holds(s_8526_jpg, pipe).
holds(s_8526_jpg, car).

sample(s_14001_jpg).
holds(s_14001_jpg, building).
holds(s_14001_jpg, feature).
holds(s_14001_jpg, cafe).
holds(s_14001_jpg, hotel).
holds(s_14001_jpg, store).
holds(s_14001_jpg, misccommercial).
holds(s_14001_jpg, commercial).
holds(s_14001_jpg, awning).
holds(s_14001_jpg, vendingmachine).
holds(s_14001_jpg, chimney).
holds(s_14001_jpg, car).

sample(s_6244_jpg).
holds(s_6244_jpg, building).
holds(s_6244_jpg, feature).
holds(s_6244_jpg, constructionsite).
holds(s_6244_jpg, powerplant).
holds(s_6244_jpg, commercial).
holds(s_6244_jpg, door).
holds(s_6244_jpg, awning).
holds(s_6244_jpg, tiledrooftop).
holds(s_6244_jpg, vendingmachine).
holds(s_6244_jpg, chimney).
holds(s_6244_jpg, machine).

sample(s_9113_jpg).
holds(s_9113_jpg, building).
holds(s_9113_jpg, feature).
holds(s_9113_jpg, suburban).
holds(s_9113_jpg, miscresidential).
holds(s_9113_jpg, commercial).
holds(s_9113_jpg, door).
holds(s_9113_jpg, window).
holds(s_9113_jpg, porch).
holds(s_9113_jpg, sign).
holds(s_9113_jpg, tiledroof).
holds(s_9113_jpg, vendingmachine).
holds(s_9113_jpg, car).

sample(s_14722_jpg).
holds(s_14722_jpg, building).
holds(s_14722_jpg, feature).
holds(s_14722_jpg, miscindustrial).
holds(s_14722_jpg, watertreatment).
holds(s_14722_jpg, door).
holds(s_14722_jpg, window).
holds(s_14722_jpg, sign).
holds(s_14722_jpg, tiledrooftop).
holds(s_14722_jpg, vendingmachine).
holds(s_14722_jpg, chimney).
holds(s_14722_jpg, machine).

sample(s_775_jpg).
holds(s_775_jpg, building).
holds(s_775_jpg, feature).
holds(s_775_jpg, constructionsite).
holds(s_775_jpg, commercial).
holds(s_775_jpg, door).
holds(s_775_jpg, awning).
holds(s_775_jpg, tiledrooftop).
holds(s_775_jpg, vendingmachine).
holds(s_775_jpg, chimney).
holds(s_775_jpg, machine).

sample(s_12615_jpg).
holds(s_12615_jpg, building).
holds(s_12615_jpg, feature).
holds(s_12615_jpg, cafe).
holds(s_12615_jpg, hotel).
holds(s_12615_jpg, misccommercial).
holds(s_12615_jpg, commercial).
holds(s_12615_jpg, door).
holds(s_12615_jpg, awning).
holds(s_12615_jpg, vendingmachine).
holds(s_12615_jpg, chimney).
holds(s_12615_jpg, car).

sample(s_8715_jpg).
holds(s_8715_jpg, building).
holds(s_8715_jpg, feature).
holds(s_8715_jpg, cafe).
holds(s_8715_jpg, hotel).
holds(s_8715_jpg, restaurant).
holds(s_8715_jpg, store).
holds(s_8715_jpg, misccommercial).
holds(s_8715_jpg, residential).
holds(s_8715_jpg, commercial).
holds(s_8715_jpg, awning).
holds(s_8715_jpg, vendingmachine).
holds(s_8715_jpg, chimney).
holds(s_8715_jpg, pipe).
holds(s_8715_jpg, car).

sample(s_5685_jpg).
holds(s_5685_jpg, building).
holds(s_5685_jpg, feature).
holds(s_5685_jpg, cafe).
holds(s_5685_jpg, store).
holds(s_5685_jpg, residential).
holds(s_5685_jpg, commercial).
holds(s_5685_jpg, door).
holds(s_5685_jpg, awning).
holds(s_5685_jpg, vendingmachine).
holds(s_5685_jpg, chimney).
holds(s_5685_jpg, car).

sample(s_15255_jpg).
holds(s_15255_jpg, building).
holds(s_15255_jpg, feature).
holds(s_15255_jpg, cafe).
holds(s_15255_jpg, hotel).
holds(s_15255_jpg, store).
holds(s_15255_jpg, misccommercial).
holds(s_15255_jpg, residential).
holds(s_15255_jpg, commercial).
holds(s_15255_jpg, awning).
holds(s_15255_jpg, vendingmachine).
holds(s_15255_jpg, chimney).
holds(s_15255_jpg, pipe).
holds(s_15255_jpg, car).

sample(s_10520_jpg).
holds(s_10520_jpg, building).
holds(s_10520_jpg, feature).
holds(s_10520_jpg, suburban).
holds(s_10520_jpg, miscresidential).
holds(s_10520_jpg, commercial).
holds(s_10520_jpg, door).
holds(s_10520_jpg, window).
holds(s_10520_jpg, porch).
holds(s_10520_jpg, sign).
holds(s_10520_jpg, tiledroof).
holds(s_10520_jpg, vendingmachine).
holds(s_10520_jpg, car).

sample(s_7045_jpg).
holds(s_7045_jpg, building).
holds(s_7045_jpg, feature).
holds(s_7045_jpg, constructionsite).
holds(s_7045_jpg, powerplant).
holds(s_7045_jpg, commercial).
holds(s_7045_jpg, door).
holds(s_7045_jpg, awning).
holds(s_7045_jpg, tiledrooftop).
holds(s_7045_jpg, vendingmachine).
holds(s_7045_jpg, chimney).
holds(s_7045_jpg, machine).

sample(s_10053_jpg).
holds(s_10053_jpg, building).
holds(s_10053_jpg, feature).
holds(s_10053_jpg, cafe).
holds(s_10053_jpg, hotel).
holds(s_10053_jpg, restaurant).
holds(s_10053_jpg, misccommercial).
holds(s_10053_jpg, residential).
holds(s_10053_jpg, commercial).
holds(s_10053_jpg, awning).
holds(s_10053_jpg, tiledrooftop).
holds(s_10053_jpg, vendingmachine).
holds(s_10053_jpg, pipe).
holds(s_10053_jpg, machine).
holds(s_10053_jpg, car).

sample(s_8377_jpg).
holds(s_8377_jpg, building).
holds(s_8377_jpg, feature).
holds(s_8377_jpg, miscindustrial).
holds(s_8377_jpg, powerplant).
holds(s_8377_jpg, watertreatment).
holds(s_8377_jpg, door).
holds(s_8377_jpg, window).
holds(s_8377_jpg, sign).
holds(s_8377_jpg, tiledrooftop).
holds(s_8377_jpg, vendingmachine).
holds(s_8377_jpg, chimney).
holds(s_8377_jpg, machine).

sample(s_4036_jpg).
holds(s_4036_jpg, building).
holds(s_4036_jpg, feature).
holds(s_4036_jpg, miscindustrial).
holds(s_4036_jpg, watertreatment).
holds(s_4036_jpg, door).
holds(s_4036_jpg, window).
holds(s_4036_jpg, sign).
holds(s_4036_jpg, tiledrooftop).
holds(s_4036_jpg, vendingmachine).
holds(s_4036_jpg, chimney).
holds(s_4036_jpg, machine).

sample(s_10841_jpg).
holds(s_10841_jpg, building).
holds(s_10841_jpg, feature).
holds(s_10841_jpg, miscresidential).
holds(s_10841_jpg, countryhouse).
holds(s_10841_jpg, door).
holds(s_10841_jpg, window).
holds(s_10841_jpg, porch).
holds(s_10841_jpg, sign).
holds(s_10841_jpg, tiledroof).
holds(s_10841_jpg, chimney).
holds(s_10841_jpg, car).

sample(s_2047_jpg).
holds(s_2047_jpg, building).
holds(s_2047_jpg, feature).
holds(s_2047_jpg, miscindustrial).
holds(s_2047_jpg, powerplant).
holds(s_2047_jpg, watertreatment).
holds(s_2047_jpg, door).
holds(s_2047_jpg, window).
holds(s_2047_jpg, sign).
holds(s_2047_jpg, tiledrooftop).
holds(s_2047_jpg, chimney).
holds(s_2047_jpg, machine).

sample(s_3587_jpg).
holds(s_3587_jpg, building).
holds(s_3587_jpg, feature).
holds(s_3587_jpg, miscresidential).
holds(s_3587_jpg, door).
holds(s_3587_jpg, window).
holds(s_3587_jpg, porch).
holds(s_3587_jpg, sign).
holds(s_3587_jpg, tiledroof).
holds(s_3587_jpg, vendingmachine).
holds(s_3587_jpg, car).

sample(s_8942_jpg).
holds(s_8942_jpg, building).
holds(s_8942_jpg, feature).
holds(s_8942_jpg, suburban).
holds(s_8942_jpg, miscresidential).
holds(s_8942_jpg, countryhouse).
holds(s_8942_jpg, commercial).
holds(s_8942_jpg, door).
holds(s_8942_jpg, window).
holds(s_8942_jpg, porch).
holds(s_8942_jpg, sign).
holds(s_8942_jpg, tiledroof).
holds(s_8942_jpg, vendingmachine).
holds(s_8942_jpg, car).

sample(s_2725_jpg).
holds(s_2725_jpg, building).
holds(s_2725_jpg, feature).
holds(s_2725_jpg, constructionsite).
holds(s_2725_jpg, commercial).
holds(s_2725_jpg, door).
holds(s_2725_jpg, awning).
holds(s_2725_jpg, tiledrooftop).
holds(s_2725_jpg, vendingmachine).
holds(s_2725_jpg, chimney).
holds(s_2725_jpg, machine).

sample(s_5643_jpg).
holds(s_5643_jpg, building).
holds(s_5643_jpg, feature).
holds(s_5643_jpg, cafe).
holds(s_5643_jpg, hotel).
holds(s_5643_jpg, restaurant).
holds(s_5643_jpg, store).
holds(s_5643_jpg, misccommercial).
holds(s_5643_jpg, residential).
holds(s_5643_jpg, commercial).
holds(s_5643_jpg, awning).
holds(s_5643_jpg, vendingmachine).
holds(s_5643_jpg, chimney).
holds(s_5643_jpg, pipe).
holds(s_5643_jpg, car).

sample(s_15369_jpg).
holds(s_15369_jpg, building).
holds(s_15369_jpg, feature).
holds(s_15369_jpg, cafe).
holds(s_15369_jpg, restaurant).
holds(s_15369_jpg, misccommercial).
holds(s_15369_jpg, residential).
holds(s_15369_jpg, commercial).
holds(s_15369_jpg, awning).
holds(s_15369_jpg, vendingmachine).
holds(s_15369_jpg, chimney).
holds(s_15369_jpg, pipe).
holds(s_15369_jpg, car).

sample(s_6433_jpg).
holds(s_6433_jpg, building).
holds(s_6433_jpg, feature).
holds(s_6433_jpg, miscindustrial).
holds(s_6433_jpg, powerplant).
holds(s_6433_jpg, watertreatment).
holds(s_6433_jpg, door).
holds(s_6433_jpg, window).
holds(s_6433_jpg, sign).
holds(s_6433_jpg, tiledrooftop).
holds(s_6433_jpg, vendingmachine).
holds(s_6433_jpg, chimney).
holds(s_6433_jpg, machine).

sample(s_9828_jpg).
holds(s_9828_jpg, building).
holds(s_9828_jpg, feature).
holds(s_9828_jpg, cafe).
holds(s_9828_jpg, hotel).
holds(s_9828_jpg, misccommercial).
holds(s_9828_jpg, commercial).
holds(s_9828_jpg, door).
holds(s_9828_jpg, awning).
holds(s_9828_jpg, vendingmachine).
holds(s_9828_jpg, chimney).
holds(s_9828_jpg, car).

sample(s_4121_jpg).
holds(s_4121_jpg, building).
holds(s_4121_jpg, feature).
holds(s_4121_jpg, miscresidential).
holds(s_4121_jpg, door).
holds(s_4121_jpg, window).
holds(s_4121_jpg, porch).
holds(s_4121_jpg, sign).
holds(s_4121_jpg, tiledroof).
holds(s_4121_jpg, vendingmachine).
holds(s_4121_jpg, chimney).
holds(s_4121_jpg, car).

sample(s_13424_jpg).
holds(s_13424_jpg, building).
holds(s_13424_jpg, feature).
holds(s_13424_jpg, suburban).
holds(s_13424_jpg, miscresidential).
holds(s_13424_jpg, countryhouse).
holds(s_13424_jpg, commercial).
holds(s_13424_jpg, door).
holds(s_13424_jpg, window).
holds(s_13424_jpg, porch).
holds(s_13424_jpg, sign).
holds(s_13424_jpg, tiledroof).
holds(s_13424_jpg, vendingmachine).
holds(s_13424_jpg, car).

sample(s_6139_jpg).
holds(s_6139_jpg, building).
holds(s_6139_jpg, feature).
holds(s_6139_jpg, miscindustrial).
holds(s_6139_jpg, powerplant).
holds(s_6139_jpg, watertreatment).
holds(s_6139_jpg, door).
holds(s_6139_jpg, window).
holds(s_6139_jpg, sign).
holds(s_6139_jpg, tiledrooftop).
holds(s_6139_jpg, chimney).
holds(s_6139_jpg, machine).

sample(s_7476_jpg).
holds(s_7476_jpg, building).
holds(s_7476_jpg, feature).
holds(s_7476_jpg, cafe).
holds(s_7476_jpg, hotel).
holds(s_7476_jpg, misccommercial).
holds(s_7476_jpg, commercial).
holds(s_7476_jpg, window).
holds(s_7476_jpg, awning).
holds(s_7476_jpg, tiledrooftop).
holds(s_7476_jpg, vendingmachine).
holds(s_7476_jpg, chimney).
holds(s_7476_jpg, car).

sample(s_8249_jpg).
holds(s_8249_jpg, building).
holds(s_8249_jpg, feature).
holds(s_8249_jpg, suburban).
holds(s_8249_jpg, miscresidential).
holds(s_8249_jpg, countryhouse).
holds(s_8249_jpg, door).
holds(s_8249_jpg, window).
holds(s_8249_jpg, porch).
holds(s_8249_jpg, sign).
holds(s_8249_jpg, tiledroof).
holds(s_8249_jpg, car).

sample(s_14608_jpg).
holds(s_14608_jpg, building).
holds(s_14608_jpg, feature).
holds(s_14608_jpg, miscindustrial).
holds(s_14608_jpg, watertreatment).
holds(s_14608_jpg, door).
holds(s_14608_jpg, window).
holds(s_14608_jpg, sign).
holds(s_14608_jpg, tiledrooftop).
holds(s_14608_jpg, vendingmachine).
holds(s_14608_jpg, machine).

sample(s_13013_jpg).
holds(s_13013_jpg, building).
holds(s_13013_jpg, feature).
holds(s_13013_jpg, suburban).
holds(s_13013_jpg, miscresidential).
holds(s_13013_jpg, commercial).
holds(s_13013_jpg, door).
holds(s_13013_jpg, window).
holds(s_13013_jpg, porch).
holds(s_13013_jpg, sign).
holds(s_13013_jpg, tiledroof).
holds(s_13013_jpg, vendingmachine).
holds(s_13013_jpg, car).

sample(s_6827_jpg).
holds(s_6827_jpg, building).
holds(s_6827_jpg, feature).
holds(s_6827_jpg, suburban).
holds(s_6827_jpg, commercial).
holds(s_6827_jpg, door).
holds(s_6827_jpg, porch).
holds(s_6827_jpg, sign).
holds(s_6827_jpg, tiledroof).
holds(s_6827_jpg, tiledrooftop).
holds(s_6827_jpg, vendingmachine).

sample(s_7330_jpg).
holds(s_7330_jpg, building).
holds(s_7330_jpg, feature).
holds(s_7330_jpg, miscindustrial).
holds(s_7330_jpg, powerplant).
holds(s_7330_jpg, watertreatment).
holds(s_7330_jpg, door).
holds(s_7330_jpg, window).
holds(s_7330_jpg, sign).
holds(s_7330_jpg, tiledrooftop).
holds(s_7330_jpg, vendingmachine).
holds(s_7330_jpg, chimney).
holds(s_7330_jpg, machine).

sample(s_15995_jpg).
holds(s_15995_jpg, building).
holds(s_15995_jpg, feature).
holds(s_15995_jpg, miscresidential).
holds(s_15995_jpg, commercial).
holds(s_15995_jpg, door).
holds(s_15995_jpg, window).
holds(s_15995_jpg, awning).
holds(s_15995_jpg, porch).
holds(s_15995_jpg, sign).
holds(s_15995_jpg, tiledroof).
holds(s_15995_jpg, vendingmachine).
holds(s_15995_jpg, chimney).
holds(s_15995_jpg, car).

sample(s_5007_jpg).
holds(s_5007_jpg, building).
holds(s_5007_jpg, feature).
holds(s_5007_jpg, cafe).
holds(s_5007_jpg, hotel).
holds(s_5007_jpg, store).
holds(s_5007_jpg, misccommercial).
holds(s_5007_jpg, commercial).
holds(s_5007_jpg, awning).
holds(s_5007_jpg, vendingmachine).
holds(s_5007_jpg, chimney).
holds(s_5007_jpg, car).

sample(s_2389_jpg).
holds(s_2389_jpg, building).
holds(s_2389_jpg, feature).
holds(s_2389_jpg, miscindustrial).
holds(s_2389_jpg, watertreatment).
holds(s_2389_jpg, door).
holds(s_2389_jpg, window).
holds(s_2389_jpg, awning).
holds(s_2389_jpg, sign).
holds(s_2389_jpg, tiledrooftop).
holds(s_2389_jpg, vendingmachine).
holds(s_2389_jpg, chimney).
holds(s_2389_jpg, machine).

sample(s_10224_jpg).
holds(s_10224_jpg, building).
holds(s_10224_jpg, feature).
holds(s_10224_jpg, cafe).
holds(s_10224_jpg, hotel).
holds(s_10224_jpg, store).
holds(s_10224_jpg, residential).
holds(s_10224_jpg, window).
holds(s_10224_jpg, awning).
holds(s_10224_jpg, vendingmachine).
holds(s_10224_jpg, chimney).
holds(s_10224_jpg, car).

sample(s_7275_jpg).
holds(s_7275_jpg, building).
holds(s_7275_jpg, feature).
holds(s_7275_jpg, cafe).
holds(s_7275_jpg, hotel).
holds(s_7275_jpg, restaurant).
holds(s_7275_jpg, store).
holds(s_7275_jpg, misccommercial).
holds(s_7275_jpg, residential).
holds(s_7275_jpg, commercial).
holds(s_7275_jpg, awning).
holds(s_7275_jpg, vendingmachine).
holds(s_7275_jpg, pipe).
holds(s_7275_jpg, car).

sample(s_108_jpg).
holds(s_108_jpg, building).
holds(s_108_jpg, feature).
holds(s_108_jpg, cafe).
holds(s_108_jpg, hotel).
holds(s_108_jpg, restaurant).
holds(s_108_jpg, store).
holds(s_108_jpg, misccommercial).
holds(s_108_jpg, residential).
holds(s_108_jpg, commercial).
holds(s_108_jpg, awning).
holds(s_108_jpg, vendingmachine).
holds(s_108_jpg, chimney).
holds(s_108_jpg, pipe).
holds(s_108_jpg, car).

sample(s_10667_jpg).
holds(s_10667_jpg, building).
holds(s_10667_jpg, feature).
holds(s_10667_jpg, miscresidential).
holds(s_10667_jpg, door).
holds(s_10667_jpg, window).
holds(s_10667_jpg, porch).
holds(s_10667_jpg, sign).
holds(s_10667_jpg, tiledroof).
holds(s_10667_jpg, vendingmachine).
holds(s_10667_jpg, car).

sample(s_14168_jpg).
holds(s_14168_jpg, building).
holds(s_14168_jpg, feature).
holds(s_14168_jpg, miscresidential).
holds(s_14168_jpg, countryhouse).
holds(s_14168_jpg, door).
holds(s_14168_jpg, window).
holds(s_14168_jpg, porch).
holds(s_14168_jpg, sign).
holds(s_14168_jpg, tiledroof).
holds(s_14168_jpg, chimney).
holds(s_14168_jpg, car).

sample(s_9878_jpg).
holds(s_9878_jpg, building).
holds(s_9878_jpg, feature).
holds(s_9878_jpg, miscresidential).
holds(s_9878_jpg, door).
holds(s_9878_jpg, window).
holds(s_9878_jpg, porch).
holds(s_9878_jpg, sign).
holds(s_9878_jpg, tiledroof).
holds(s_9878_jpg, vendingmachine).
holds(s_9878_jpg, chimney).
holds(s_9878_jpg, car).

sample(s_13305_jpg).
holds(s_13305_jpg, building).
holds(s_13305_jpg, feature).
holds(s_13305_jpg, hotel).
holds(s_13305_jpg, misccommercial).
holds(s_13305_jpg, commercial).
holds(s_13305_jpg, door).
holds(s_13305_jpg, awning).
holds(s_13305_jpg, tiledrooftop).
holds(s_13305_jpg, vendingmachine).
holds(s_13305_jpg, chimney).
holds(s_13305_jpg, car).

sample(s_4662_jpg).
holds(s_4662_jpg, building).
holds(s_4662_jpg, feature).
holds(s_4662_jpg, cafe).
holds(s_4662_jpg, hotel).
holds(s_4662_jpg, restaurant).
holds(s_4662_jpg, misccommercial).
holds(s_4662_jpg, commercial).
holds(s_4662_jpg, door).
holds(s_4662_jpg, awning).
holds(s_4662_jpg, tiledrooftop).
holds(s_4662_jpg, vendingmachine).
holds(s_4662_jpg, chimney).
holds(s_4662_jpg, car).

sample(s_718_jpg).
holds(s_718_jpg, building).
holds(s_718_jpg, feature).
holds(s_718_jpg, constructionsite).
holds(s_718_jpg, powerplant).
holds(s_718_jpg, commercial).
holds(s_718_jpg, door).
holds(s_718_jpg, window).
holds(s_718_jpg, awning).
holds(s_718_jpg, tiledrooftop).
holds(s_718_jpg, vendingmachine).
holds(s_718_jpg, chimney).
holds(s_718_jpg, machine).

sample(s_9016_jpg).
holds(s_9016_jpg, building).
holds(s_9016_jpg, feature).
holds(s_9016_jpg, miscindustrial).
holds(s_9016_jpg, powerplant).
holds(s_9016_jpg, watertreatment).
holds(s_9016_jpg, door).
holds(s_9016_jpg, window).
holds(s_9016_jpg, sign).
holds(s_9016_jpg, tiledrooftop).
holds(s_9016_jpg, chimney).
holds(s_9016_jpg, machine).

sample(s_11462_jpg).
holds(s_11462_jpg, building).
holds(s_11462_jpg, feature).
holds(s_11462_jpg, suburban).
holds(s_11462_jpg, commercial).
holds(s_11462_jpg, door).
holds(s_11462_jpg, porch).
holds(s_11462_jpg, sign).
holds(s_11462_jpg, tiledroof).
holds(s_11462_jpg, tiledrooftop).
holds(s_11462_jpg, vendingmachine).

sample(s_10499_jpg).
holds(s_10499_jpg, building).
holds(s_10499_jpg, feature).
holds(s_10499_jpg, suburban).
holds(s_10499_jpg, miscresidential).
holds(s_10499_jpg, commercial).
holds(s_10499_jpg, door).
holds(s_10499_jpg, window).
holds(s_10499_jpg, porch).
holds(s_10499_jpg, sign).
holds(s_10499_jpg, tiledroof).
holds(s_10499_jpg, vendingmachine).
holds(s_10499_jpg, car).

sample(s_10040_jpg).
holds(s_10040_jpg, building).
holds(s_10040_jpg, feature).
holds(s_10040_jpg, miscresidential).
holds(s_10040_jpg, countryhouse).
holds(s_10040_jpg, door).
holds(s_10040_jpg, window).
holds(s_10040_jpg, porch).
holds(s_10040_jpg, sign).
holds(s_10040_jpg, tiledroof).
holds(s_10040_jpg, tiledrooftop).
holds(s_10040_jpg, chimney).
holds(s_10040_jpg, car).

sample(s_14122_jpg).
holds(s_14122_jpg, building).
holds(s_14122_jpg, feature).
holds(s_14122_jpg, miscindustrial).
holds(s_14122_jpg, powerplant).
holds(s_14122_jpg, watertreatment).
holds(s_14122_jpg, door).
holds(s_14122_jpg, window).
holds(s_14122_jpg, sign).
holds(s_14122_jpg, tiledrooftop).
holds(s_14122_jpg, chimney).
holds(s_14122_jpg, machine).

sample(s_3919_jpg).
holds(s_3919_jpg, building).
holds(s_3919_jpg, feature).
holds(s_3919_jpg, powerplant).
holds(s_3919_jpg, door).
holds(s_3919_jpg, window).
holds(s_3919_jpg, tiledrooftop).
holds(s_3919_jpg, vendingmachine).
holds(s_3919_jpg, chimney).
holds(s_3919_jpg, machine).

sample(s_11828_jpg).
holds(s_11828_jpg, building).
holds(s_11828_jpg, feature).
holds(s_11828_jpg, miscresidential).
holds(s_11828_jpg, countryhouse).
holds(s_11828_jpg, door).
holds(s_11828_jpg, window).
holds(s_11828_jpg, porch).
holds(s_11828_jpg, sign).
holds(s_11828_jpg, tiledroof).
holds(s_11828_jpg, chimney).
holds(s_11828_jpg, car).

sample(s_7026_jpg).
holds(s_7026_jpg, building).
holds(s_7026_jpg, feature).
holds(s_7026_jpg, cafe).
holds(s_7026_jpg, hotel).
holds(s_7026_jpg, restaurant).
holds(s_7026_jpg, store).
holds(s_7026_jpg, residential).
holds(s_7026_jpg, commercial).
holds(s_7026_jpg, vendingmachine).
holds(s_7026_jpg, chimney).
holds(s_7026_jpg, pipe).
holds(s_7026_jpg, car).

sample(s_11279_jpg).
holds(s_11279_jpg, building).
holds(s_11279_jpg, feature).
holds(s_11279_jpg, miscresidential).
holds(s_11279_jpg, countryhouse).
holds(s_11279_jpg, door).
holds(s_11279_jpg, window).
holds(s_11279_jpg, porch).
holds(s_11279_jpg, sign).
holds(s_11279_jpg, tiledroof).
holds(s_11279_jpg, chimney).
holds(s_11279_jpg, car).

sample(s_11374_jpg).
holds(s_11374_jpg, building).
holds(s_11374_jpg, feature).
holds(s_11374_jpg, miscindustrial).
holds(s_11374_jpg, powerplant).
holds(s_11374_jpg, watertreatment).
holds(s_11374_jpg, door).
holds(s_11374_jpg, window).
holds(s_11374_jpg, sign).
holds(s_11374_jpg, tiledrooftop).
holds(s_11374_jpg, chimney).
holds(s_11374_jpg, machine).

sample(s_7668_jpg).
holds(s_7668_jpg, building).
holds(s_7668_jpg, feature).
holds(s_7668_jpg, cafe).
holds(s_7668_jpg, hotel).
holds(s_7668_jpg, misccommercial).
holds(s_7668_jpg, commercial).
holds(s_7668_jpg, window).
holds(s_7668_jpg, awning).
holds(s_7668_jpg, vendingmachine).
holds(s_7668_jpg, chimney).
holds(s_7668_jpg, car).

sample(s_9018_jpg).
holds(s_9018_jpg, building).
holds(s_9018_jpg, feature).
holds(s_9018_jpg, cafe).
holds(s_9018_jpg, hotel).
holds(s_9018_jpg, misccommercial).
holds(s_9018_jpg, residential).
holds(s_9018_jpg, commercial).
holds(s_9018_jpg, awning).
holds(s_9018_jpg, vendingmachine).
holds(s_9018_jpg, chimney).
holds(s_9018_jpg, car).

sample(s_6349_jpg).
holds(s_6349_jpg, building).
holds(s_6349_jpg, feature).
holds(s_6349_jpg, miscindustrial).
holds(s_6349_jpg, powerplant).
holds(s_6349_jpg, watertreatment).
holds(s_6349_jpg, door).
holds(s_6349_jpg, window).
holds(s_6349_jpg, sign).
holds(s_6349_jpg, tiledrooftop).
holds(s_6349_jpg, vendingmachine).
holds(s_6349_jpg, chimney).
holds(s_6349_jpg, machine).

sample(s_11888_jpg).
holds(s_11888_jpg, building).
holds(s_11888_jpg, feature).
holds(s_11888_jpg, miscresidential).
holds(s_11888_jpg, countryhouse).
holds(s_11888_jpg, door).
holds(s_11888_jpg, window).
holds(s_11888_jpg, porch).
holds(s_11888_jpg, sign).
holds(s_11888_jpg, tiledroof).
holds(s_11888_jpg, tiledrooftop).
holds(s_11888_jpg, car).

sample(s_12863_jpg).
holds(s_12863_jpg, building).
holds(s_12863_jpg, feature).
holds(s_12863_jpg, miscresidential).
holds(s_12863_jpg, countryhouse).
holds(s_12863_jpg, door).
holds(s_12863_jpg, window).
holds(s_12863_jpg, porch).
holds(s_12863_jpg, sign).
holds(s_12863_jpg, tiledroof).
holds(s_12863_jpg, chimney).
holds(s_12863_jpg, car).

sample(s_5514_jpg).
holds(s_5514_jpg, building).
holds(s_5514_jpg, feature).
holds(s_5514_jpg, cafe).
holds(s_5514_jpg, hotel).
holds(s_5514_jpg, restaurant).
holds(s_5514_jpg, store).
holds(s_5514_jpg, misccommercial).
holds(s_5514_jpg, residential).
holds(s_5514_jpg, commercial).
holds(s_5514_jpg, awning).
holds(s_5514_jpg, vendingmachine).
holds(s_5514_jpg, chimney).
holds(s_5514_jpg, pipe).
holds(s_5514_jpg, car).

sample(s_14688_jpg).
holds(s_14688_jpg, building).
holds(s_14688_jpg, feature).
holds(s_14688_jpg, cafe).
holds(s_14688_jpg, hotel).
holds(s_14688_jpg, restaurant).
holds(s_14688_jpg, store).
holds(s_14688_jpg, misccommercial).
holds(s_14688_jpg, residential).
holds(s_14688_jpg, commercial).
holds(s_14688_jpg, awning).
holds(s_14688_jpg, vendingmachine).
holds(s_14688_jpg, chimney).
holds(s_14688_jpg, pipe).
holds(s_14688_jpg, car).

sample(s_1606_jpg).
holds(s_1606_jpg, building).
holds(s_1606_jpg, feature).
holds(s_1606_jpg, miscindustrial).
holds(s_1606_jpg, powerplant).
holds(s_1606_jpg, watertreatment).
holds(s_1606_jpg, door).
holds(s_1606_jpg, window).
holds(s_1606_jpg, sign).
holds(s_1606_jpg, tiledrooftop).
holds(s_1606_jpg, chimney).
holds(s_1606_jpg, machine).

sample(s_10724_jpg).
holds(s_10724_jpg, building).
holds(s_10724_jpg, feature).
holds(s_10724_jpg, suburban).
holds(s_10724_jpg, miscresidential).
holds(s_10724_jpg, countryhouse).
holds(s_10724_jpg, commercial).
holds(s_10724_jpg, door).
holds(s_10724_jpg, window).
holds(s_10724_jpg, porch).
holds(s_10724_jpg, sign).
holds(s_10724_jpg, tiledroof).
holds(s_10724_jpg, vendingmachine).
holds(s_10724_jpg, car).

sample(s_10269_jpg).
holds(s_10269_jpg, building).
holds(s_10269_jpg, feature).
holds(s_10269_jpg, cafe).
holds(s_10269_jpg, restaurant).
holds(s_10269_jpg, misccommercial).
holds(s_10269_jpg, residential).
holds(s_10269_jpg, commercial).
holds(s_10269_jpg, awning).
holds(s_10269_jpg, vendingmachine).
holds(s_10269_jpg, chimney).
holds(s_10269_jpg, pipe).
holds(s_10269_jpg, car).

sample(s_15461_jpg).
holds(s_15461_jpg, building).
holds(s_15461_jpg, feature).
holds(s_15461_jpg, suburban).
holds(s_15461_jpg, commercial).
holds(s_15461_jpg, door).
holds(s_15461_jpg, window).
holds(s_15461_jpg, porch).
holds(s_15461_jpg, sign).
holds(s_15461_jpg, tiledroof).
holds(s_15461_jpg, tiledrooftop).
holds(s_15461_jpg, vendingmachine).

sample(s_444_jpg).
holds(s_444_jpg, building).
holds(s_444_jpg, feature).
holds(s_444_jpg, cafe).
holds(s_444_jpg, hotel).
holds(s_444_jpg, misccommercial).
holds(s_444_jpg, commercial).
holds(s_444_jpg, door).
holds(s_444_jpg, awning).
holds(s_444_jpg, tiledrooftop).
holds(s_444_jpg, vendingmachine).
holds(s_444_jpg, chimney).
holds(s_444_jpg, car).

sample(s_1686_jpg).
holds(s_1686_jpg, building).
holds(s_1686_jpg, feature).
holds(s_1686_jpg, cafe).
holds(s_1686_jpg, hotel).
holds(s_1686_jpg, restaurant).
holds(s_1686_jpg, store).
holds(s_1686_jpg, residential).
holds(s_1686_jpg, commercial).
holds(s_1686_jpg, awning).
holds(s_1686_jpg, vendingmachine).
holds(s_1686_jpg, chimney).
holds(s_1686_jpg, pipe).
holds(s_1686_jpg, car).

sample(s_9461_jpg).
holds(s_9461_jpg, building).
holds(s_9461_jpg, feature).
holds(s_9461_jpg, suburban).
holds(s_9461_jpg, miscresidential).
holds(s_9461_jpg, commercial).
holds(s_9461_jpg, door).
holds(s_9461_jpg, window).
holds(s_9461_jpg, porch).
holds(s_9461_jpg, sign).
holds(s_9461_jpg, tiledroof).
holds(s_9461_jpg, vendingmachine).
holds(s_9461_jpg, chimney).
holds(s_9461_jpg, car).

sample(s_10879_jpg).
holds(s_10879_jpg, building).
holds(s_10879_jpg, feature).
holds(s_10879_jpg, powerplant).
holds(s_10879_jpg, door).
holds(s_10879_jpg, window).
holds(s_10879_jpg, awning).
holds(s_10879_jpg, tiledrooftop).
holds(s_10879_jpg, vendingmachine).
holds(s_10879_jpg, chimney).
holds(s_10879_jpg, machine).

sample(s_8331_jpg).
holds(s_8331_jpg, building).
holds(s_8331_jpg, feature).
holds(s_8331_jpg, cafe).
holds(s_8331_jpg, hotel).
holds(s_8331_jpg, store).
holds(s_8331_jpg, misccommercial).
holds(s_8331_jpg, residential).
holds(s_8331_jpg, commercial).
holds(s_8331_jpg, awning).
holds(s_8331_jpg, vendingmachine).
holds(s_8331_jpg, chimney).
holds(s_8331_jpg, car).

sample(s_15389_jpg).
holds(s_15389_jpg, building).
holds(s_15389_jpg, feature).
holds(s_15389_jpg, suburban).
holds(s_15389_jpg, miscresidential).
holds(s_15389_jpg, commercial).
holds(s_15389_jpg, door).
holds(s_15389_jpg, window).
holds(s_15389_jpg, porch).
holds(s_15389_jpg, sign).
holds(s_15389_jpg, tiledroof).
holds(s_15389_jpg, vendingmachine).
holds(s_15389_jpg, chimney).
holds(s_15389_jpg, car).

sample(s_291_jpg).
holds(s_291_jpg, building).
holds(s_291_jpg, feature).
holds(s_291_jpg, cafe).
holds(s_291_jpg, hotel).
holds(s_291_jpg, restaurant).
holds(s_291_jpg, misccommercial).
holds(s_291_jpg, residential).
holds(s_291_jpg, commercial).
holds(s_291_jpg, awning).
holds(s_291_jpg, tiledrooftop).
holds(s_291_jpg, vendingmachine).
holds(s_291_jpg, chimney).
holds(s_291_jpg, pipe).
holds(s_291_jpg, car).

sample(s_10974_jpg).
holds(s_10974_jpg, building).
holds(s_10974_jpg, feature).
holds(s_10974_jpg, cafe).
holds(s_10974_jpg, hotel).
holds(s_10974_jpg, restaurant).
holds(s_10974_jpg, misccommercial).
holds(s_10974_jpg, commercial).
holds(s_10974_jpg, awning).
holds(s_10974_jpg, vendingmachine).
holds(s_10974_jpg, pipe).
holds(s_10974_jpg, car).

sample(s_4380_jpg).
holds(s_4380_jpg, building).
holds(s_4380_jpg, feature).
holds(s_4380_jpg, cafe).
holds(s_4380_jpg, hotel).
holds(s_4380_jpg, store).
holds(s_4380_jpg, misccommercial).
holds(s_4380_jpg, commercial).
holds(s_4380_jpg, awning).
holds(s_4380_jpg, vendingmachine).
holds(s_4380_jpg, chimney).
holds(s_4380_jpg, car).

sample(s_15446_jpg).
holds(s_15446_jpg, building).
holds(s_15446_jpg, feature).
holds(s_15446_jpg, suburban).
holds(s_15446_jpg, miscresidential).
holds(s_15446_jpg, countryhouse).
holds(s_15446_jpg, commercial).
holds(s_15446_jpg, door).
holds(s_15446_jpg, window).
holds(s_15446_jpg, porch).
holds(s_15446_jpg, sign).
holds(s_15446_jpg, tiledroof).
holds(s_15446_jpg, vendingmachine).
holds(s_15446_jpg, car).

sample(s_13041_jpg).
holds(s_13041_jpg, building).
holds(s_13041_jpg, feature).
holds(s_13041_jpg, cafe).
holds(s_13041_jpg, hotel).
holds(s_13041_jpg, misccommercial).
holds(s_13041_jpg, commercial).
holds(s_13041_jpg, door).
holds(s_13041_jpg, awning).
holds(s_13041_jpg, vendingmachine).
holds(s_13041_jpg, chimney).
holds(s_13041_jpg, car).

sample(s_6749_jpg).
holds(s_6749_jpg, building).
holds(s_6749_jpg, feature).
holds(s_6749_jpg, cafe).
holds(s_6749_jpg, misccommercial).
holds(s_6749_jpg, miscresidential).
holds(s_6749_jpg, commercial).
holds(s_6749_jpg, door).
holds(s_6749_jpg, window).
holds(s_6749_jpg, awning).
holds(s_6749_jpg, porch).
holds(s_6749_jpg, sign).
holds(s_6749_jpg, tiledroof).
holds(s_6749_jpg, vendingmachine).
holds(s_6749_jpg, chimney).
holds(s_6749_jpg, car).

sample(s_15081_jpg).
holds(s_15081_jpg, building).
holds(s_15081_jpg, feature).
holds(s_15081_jpg, cafe).
holds(s_15081_jpg, restaurant).
holds(s_15081_jpg, store).
holds(s_15081_jpg, misccommercial).
holds(s_15081_jpg, residential).
holds(s_15081_jpg, commercial).
holds(s_15081_jpg, awning).
holds(s_15081_jpg, vendingmachine).
holds(s_15081_jpg, chimney).
holds(s_15081_jpg, pipe).
holds(s_15081_jpg, car).

sample(s_3022_jpg).
holds(s_3022_jpg, building).
holds(s_3022_jpg, feature).
holds(s_3022_jpg, miscindustrial).
holds(s_3022_jpg, watertreatment).
holds(s_3022_jpg, door).
holds(s_3022_jpg, window).
holds(s_3022_jpg, awning).
holds(s_3022_jpg, sign).
holds(s_3022_jpg, tiledrooftop).
holds(s_3022_jpg, vendingmachine).
holds(s_3022_jpg, machine).

sample(s_6990_jpg).
holds(s_6990_jpg, building).
holds(s_6990_jpg, feature).
holds(s_6990_jpg, cafe).
holds(s_6990_jpg, hotel).
holds(s_6990_jpg, restaurant).
holds(s_6990_jpg, store).
holds(s_6990_jpg, residential).
holds(s_6990_jpg, commercial).
holds(s_6990_jpg, vendingmachine).
holds(s_6990_jpg, chimney).
holds(s_6990_jpg, pipe).
holds(s_6990_jpg, car).

sample(s_5126_jpg).
holds(s_5126_jpg, building).
holds(s_5126_jpg, feature).
holds(s_5126_jpg, suburban).
holds(s_5126_jpg, miscresidential).
holds(s_5126_jpg, countryhouse).
holds(s_5126_jpg, door).
holds(s_5126_jpg, window).
holds(s_5126_jpg, porch).
holds(s_5126_jpg, sign).
holds(s_5126_jpg, tiledroof).
holds(s_5126_jpg, car).

sample(s_7208_jpg).
holds(s_7208_jpg, building).
holds(s_7208_jpg, feature).
holds(s_7208_jpg, miscresidential).
holds(s_7208_jpg, commercial).
holds(s_7208_jpg, door).
holds(s_7208_jpg, window).
holds(s_7208_jpg, awning).
holds(s_7208_jpg, porch).
holds(s_7208_jpg, sign).
holds(s_7208_jpg, tiledroof).
holds(s_7208_jpg, vendingmachine).
holds(s_7208_jpg, chimney).
holds(s_7208_jpg, car).

sample(s_5437_jpg).
holds(s_5437_jpg, building).
holds(s_5437_jpg, feature).
holds(s_5437_jpg, miscindustrial).
holds(s_5437_jpg, watertreatment).
holds(s_5437_jpg, door).
holds(s_5437_jpg, window).
holds(s_5437_jpg, sign).
holds(s_5437_jpg, tiledrooftop).
holds(s_5437_jpg, vendingmachine).
holds(s_5437_jpg, machine).

sample(s_15828_jpg).
holds(s_15828_jpg, building).
holds(s_15828_jpg, feature).
holds(s_15828_jpg, cafe).
holds(s_15828_jpg, hotel).
holds(s_15828_jpg, restaurant).
holds(s_15828_jpg, misccommercial).
holds(s_15828_jpg, residential).
holds(s_15828_jpg, commercial).
holds(s_15828_jpg, tiledrooftop).
holds(s_15828_jpg, vendingmachine).
holds(s_15828_jpg, pipe).
holds(s_15828_jpg, machine).
holds(s_15828_jpg, car).

sample(s_12270_jpg).
holds(s_12270_jpg, building).
holds(s_12270_jpg, feature).
holds(s_12270_jpg, cafe).
holds(s_12270_jpg, hotel).
holds(s_12270_jpg, store).
holds(s_12270_jpg, misccommercial).
holds(s_12270_jpg, residential).
holds(s_12270_jpg, commercial).
holds(s_12270_jpg, awning).
holds(s_12270_jpg, vendingmachine).
holds(s_12270_jpg, chimney).
holds(s_12270_jpg, pipe).
holds(s_12270_jpg, car).

sample(s_4400_jpg).
holds(s_4400_jpg, building).
holds(s_4400_jpg, feature).
holds(s_4400_jpg, suburban).
holds(s_4400_jpg, commercial).
holds(s_4400_jpg, door).
holds(s_4400_jpg, window).
holds(s_4400_jpg, porch).
holds(s_4400_jpg, sign).
holds(s_4400_jpg, tiledroof).
holds(s_4400_jpg, tiledrooftop).
holds(s_4400_jpg, vendingmachine).

sample(s_4430_jpg).
holds(s_4430_jpg, building).
holds(s_4430_jpg, feature).
holds(s_4430_jpg, miscresidential).
holds(s_4430_jpg, countryhouse).
holds(s_4430_jpg, door).
holds(s_4430_jpg, window).
holds(s_4430_jpg, porch).
holds(s_4430_jpg, sign).
holds(s_4430_jpg, tiledroof).
holds(s_4430_jpg, chimney).
holds(s_4430_jpg, car).

sample(s_11573_jpg).
holds(s_11573_jpg, building).
holds(s_11573_jpg, feature).
holds(s_11573_jpg, miscresidential).
holds(s_11573_jpg, commercial).
holds(s_11573_jpg, door).
holds(s_11573_jpg, window).
holds(s_11573_jpg, porch).
holds(s_11573_jpg, sign).
holds(s_11573_jpg, tiledroof).
holds(s_11573_jpg, vendingmachine).
holds(s_11573_jpg, chimney).
holds(s_11573_jpg, car).

sample(s_3633_jpg).
holds(s_3633_jpg, building).
holds(s_3633_jpg, feature).
holds(s_3633_jpg, cafe).
holds(s_3633_jpg, restaurant).
holds(s_3633_jpg, store).
holds(s_3633_jpg, misccommercial).
holds(s_3633_jpg, residential).
holds(s_3633_jpg, commercial).
holds(s_3633_jpg, awning).
holds(s_3633_jpg, vendingmachine).
holds(s_3633_jpg, chimney).
holds(s_3633_jpg, pipe).
holds(s_3633_jpg, car).

sample(s_3910_jpg).
holds(s_3910_jpg, building).
holds(s_3910_jpg, feature).
holds(s_3910_jpg, miscindustrial).
holds(s_3910_jpg, watertreatment).
holds(s_3910_jpg, door).
holds(s_3910_jpg, window).
holds(s_3910_jpg, sign).
holds(s_3910_jpg, tiledrooftop).
holds(s_3910_jpg, vendingmachine).
holds(s_3910_jpg, chimney).
holds(s_3910_jpg, machine).

sample(s_1378_jpg).
holds(s_1378_jpg, building).
holds(s_1378_jpg, feature).
holds(s_1378_jpg, miscindustrial).
holds(s_1378_jpg, powerplant).
holds(s_1378_jpg, watertreatment).
holds(s_1378_jpg, door).
holds(s_1378_jpg, window).
holds(s_1378_jpg, sign).
holds(s_1378_jpg, tiledrooftop).
holds(s_1378_jpg, vendingmachine).
holds(s_1378_jpg, chimney).
holds(s_1378_jpg, machine).

sample(s_12650_jpg).
holds(s_12650_jpg, building).
holds(s_12650_jpg, feature).
holds(s_12650_jpg, suburban).
holds(s_12650_jpg, miscresidential).
holds(s_12650_jpg, countryhouse).
holds(s_12650_jpg, commercial).
holds(s_12650_jpg, door).
holds(s_12650_jpg, window).
holds(s_12650_jpg, porch).
holds(s_12650_jpg, sign).
holds(s_12650_jpg, tiledroof).
holds(s_12650_jpg, vendingmachine).
holds(s_12650_jpg, car).

sample(s_11945_jpg).
holds(s_11945_jpg, building).
holds(s_11945_jpg, feature).
holds(s_11945_jpg, suburban).
holds(s_11945_jpg, commercial).
holds(s_11945_jpg, door).
holds(s_11945_jpg, window).
holds(s_11945_jpg, porch).
holds(s_11945_jpg, sign).
holds(s_11945_jpg, tiledroof).
holds(s_11945_jpg, tiledrooftop).
holds(s_11945_jpg, vendingmachine).

sample(s_234_jpg).
holds(s_234_jpg, building).
holds(s_234_jpg, feature).
holds(s_234_jpg, cafe).
holds(s_234_jpg, hotel).
holds(s_234_jpg, restaurant).
holds(s_234_jpg, store).
holds(s_234_jpg, residential).
holds(s_234_jpg, commercial).
holds(s_234_jpg, awning).
holds(s_234_jpg, vendingmachine).
holds(s_234_jpg, chimney).
holds(s_234_jpg, pipe).
holds(s_234_jpg, car).

sample(s_10847_jpg).
holds(s_10847_jpg, building).
holds(s_10847_jpg, feature).
holds(s_10847_jpg, miscresidential).
holds(s_10847_jpg, countryhouse).
holds(s_10847_jpg, door).
holds(s_10847_jpg, window).
holds(s_10847_jpg, porch).
holds(s_10847_jpg, sign).
holds(s_10847_jpg, tiledroof).
holds(s_10847_jpg, chimney).
holds(s_10847_jpg, car).

sample(s_14489_jpg).
holds(s_14489_jpg, building).
holds(s_14489_jpg, feature).
holds(s_14489_jpg, suburban).
holds(s_14489_jpg, miscresidential).
holds(s_14489_jpg, countryhouse).
holds(s_14489_jpg, commercial).
holds(s_14489_jpg, door).
holds(s_14489_jpg, window).
holds(s_14489_jpg, porch).
holds(s_14489_jpg, sign).
holds(s_14489_jpg, tiledroof).
holds(s_14489_jpg, vendingmachine).
holds(s_14489_jpg, car).

sample(s_9891_jpg).
holds(s_9891_jpg, building).
holds(s_9891_jpg, feature).
holds(s_9891_jpg, cafe).
holds(s_9891_jpg, hotel).
holds(s_9891_jpg, restaurant).
holds(s_9891_jpg, misccommercial).
holds(s_9891_jpg, residential).
holds(s_9891_jpg, commercial).
holds(s_9891_jpg, vendingmachine).
holds(s_9891_jpg, chimney).
holds(s_9891_jpg, car).

sample(s_15884_jpg).
holds(s_15884_jpg, building).
holds(s_15884_jpg, feature).
holds(s_15884_jpg, suburban).
holds(s_15884_jpg, commercial).
holds(s_15884_jpg, door).
holds(s_15884_jpg, window).
holds(s_15884_jpg, porch).
holds(s_15884_jpg, sign).
holds(s_15884_jpg, tiledroof).
holds(s_15884_jpg, tiledrooftop).
holds(s_15884_jpg, vendingmachine).

sample(s_12842_jpg).
holds(s_12842_jpg, building).
holds(s_12842_jpg, feature).
holds(s_12842_jpg, miscresidential).
holds(s_12842_jpg, countryhouse).
holds(s_12842_jpg, door).
holds(s_12842_jpg, window).
holds(s_12842_jpg, porch).
holds(s_12842_jpg, sign).
holds(s_12842_jpg, tiledroof).
holds(s_12842_jpg, chimney).
holds(s_12842_jpg, car).

sample(s_6839_jpg).
holds(s_6839_jpg, building).
holds(s_6839_jpg, feature).
holds(s_6839_jpg, miscresidential).
holds(s_6839_jpg, countryhouse).
holds(s_6839_jpg, door).
holds(s_6839_jpg, window).
holds(s_6839_jpg, sign).
holds(s_6839_jpg, tiledroof).
holds(s_6839_jpg, chimney).
holds(s_6839_jpg, car).

sample(s_4544_jpg).
holds(s_4544_jpg, building).
holds(s_4544_jpg, feature).
holds(s_4544_jpg, miscresidential).
holds(s_4544_jpg, commercial).
holds(s_4544_jpg, door).
holds(s_4544_jpg, window).
holds(s_4544_jpg, awning).
holds(s_4544_jpg, porch).
holds(s_4544_jpg, sign).
holds(s_4544_jpg, tiledroof).
holds(s_4544_jpg, vendingmachine).
holds(s_4544_jpg, chimney).
holds(s_4544_jpg, car).

sample(s_3615_jpg).
holds(s_3615_jpg, building).
holds(s_3615_jpg, feature).
holds(s_3615_jpg, cafe).
holds(s_3615_jpg, hotel).
holds(s_3615_jpg, restaurant).
holds(s_3615_jpg, store).
holds(s_3615_jpg, misccommercial).
holds(s_3615_jpg, residential).
holds(s_3615_jpg, commercial).
holds(s_3615_jpg, awning).
holds(s_3615_jpg, vendingmachine).
holds(s_3615_jpg, chimney).
holds(s_3615_jpg, pipe).
holds(s_3615_jpg, car).

sample(s_10436_jpg).
holds(s_10436_jpg, building).
holds(s_10436_jpg, feature).
holds(s_10436_jpg, suburban).
holds(s_10436_jpg, commercial).
holds(s_10436_jpg, porch).
holds(s_10436_jpg, sign).
holds(s_10436_jpg, tiledroof).
holds(s_10436_jpg, tiledrooftop).
holds(s_10436_jpg, vendingmachine).

sample(s_14524_jpg).
holds(s_14524_jpg, building).
holds(s_14524_jpg, feature).
holds(s_14524_jpg, miscindustrial).
holds(s_14524_jpg, watertreatment).
holds(s_14524_jpg, door).
holds(s_14524_jpg, window).
holds(s_14524_jpg, sign).
holds(s_14524_jpg, tiledrooftop).
holds(s_14524_jpg, vendingmachine).
holds(s_14524_jpg, chimney).
holds(s_14524_jpg, machine).

sample(s_9470_jpg).
holds(s_9470_jpg, building).
holds(s_9470_jpg, feature).
holds(s_9470_jpg, suburban).
holds(s_9470_jpg, miscresidential).
holds(s_9470_jpg, countryhouse).
holds(s_9470_jpg, door).
holds(s_9470_jpg, window).
holds(s_9470_jpg, porch).
holds(s_9470_jpg, sign).
holds(s_9470_jpg, tiledroof).
holds(s_9470_jpg, car).

sample(s_10052_jpg).
holds(s_10052_jpg, building).
holds(s_10052_jpg, feature).
holds(s_10052_jpg, miscresidential).
holds(s_10052_jpg, commercial).
holds(s_10052_jpg, door).
holds(s_10052_jpg, window).
holds(s_10052_jpg, awning).
holds(s_10052_jpg, porch).
holds(s_10052_jpg, sign).
holds(s_10052_jpg, tiledroof).
holds(s_10052_jpg, vendingmachine).
holds(s_10052_jpg, chimney).
holds(s_10052_jpg, car).

sample(s_12079_jpg).
holds(s_12079_jpg, building).
holds(s_12079_jpg, feature).
holds(s_12079_jpg, constructionsite).
holds(s_12079_jpg, powerplant).
holds(s_12079_jpg, commercial).
holds(s_12079_jpg, door).
holds(s_12079_jpg, window).
holds(s_12079_jpg, awning).
holds(s_12079_jpg, tiledrooftop).
holds(s_12079_jpg, vendingmachine).
holds(s_12079_jpg, chimney).
holds(s_12079_jpg, machine).

sample(s_4210_jpg).
holds(s_4210_jpg, building).
holds(s_4210_jpg, feature).
holds(s_4210_jpg, miscindustrial).
holds(s_4210_jpg, powerplant).
holds(s_4210_jpg, watertreatment).
holds(s_4210_jpg, door).
holds(s_4210_jpg, window).
holds(s_4210_jpg, sign).
holds(s_4210_jpg, tiledrooftop).
holds(s_4210_jpg, vendingmachine).
holds(s_4210_jpg, chimney).
holds(s_4210_jpg, machine).

sample(s_11837_jpg).
holds(s_11837_jpg, building).
holds(s_11837_jpg, feature).
holds(s_11837_jpg, miscresidential).
holds(s_11837_jpg, countryhouse).
holds(s_11837_jpg, door).
holds(s_11837_jpg, window).
holds(s_11837_jpg, porch).
holds(s_11837_jpg, sign).
holds(s_11837_jpg, tiledroof).
holds(s_11837_jpg, chimney).
holds(s_11837_jpg, car).

sample(s_6748_jpg).
holds(s_6748_jpg, building).
holds(s_6748_jpg, feature).
holds(s_6748_jpg, powerplant).
holds(s_6748_jpg, commercial).
holds(s_6748_jpg, door).
holds(s_6748_jpg, window).
holds(s_6748_jpg, awning).
holds(s_6748_jpg, tiledrooftop).
holds(s_6748_jpg, vendingmachine).
holds(s_6748_jpg, chimney).
holds(s_6748_jpg, machine).

sample(s_5233_jpg).
holds(s_5233_jpg, building).
holds(s_5233_jpg, feature).
holds(s_5233_jpg, constructionsite).
holds(s_5233_jpg, powerplant).
holds(s_5233_jpg, commercial).
holds(s_5233_jpg, door).
holds(s_5233_jpg, awning).
holds(s_5233_jpg, tiledrooftop).
holds(s_5233_jpg, vendingmachine).
holds(s_5233_jpg, chimney).

sample(s_14288_jpg).
holds(s_14288_jpg, building).
holds(s_14288_jpg, feature).
holds(s_14288_jpg, miscresidential).
holds(s_14288_jpg, commercial).
holds(s_14288_jpg, door).
holds(s_14288_jpg, window).
holds(s_14288_jpg, porch).
holds(s_14288_jpg, sign).
holds(s_14288_jpg, tiledroof).
holds(s_14288_jpg, vendingmachine).
holds(s_14288_jpg, chimney).
holds(s_14288_jpg, car).

sample(s_13724_jpg).
holds(s_13724_jpg, building).
holds(s_13724_jpg, feature).
holds(s_13724_jpg, suburban).
holds(s_13724_jpg, miscresidential).
holds(s_13724_jpg, commercial).
holds(s_13724_jpg, door).
holds(s_13724_jpg, window).
holds(s_13724_jpg, porch).
holds(s_13724_jpg, sign).
holds(s_13724_jpg, tiledroof).
holds(s_13724_jpg, vendingmachine).
holds(s_13724_jpg, car).

sample(s_1985_jpg).
holds(s_1985_jpg, building).
holds(s_1985_jpg, feature).
holds(s_1985_jpg, suburban).
holds(s_1985_jpg, miscresidential).
holds(s_1985_jpg, countryhouse).
holds(s_1985_jpg, door).
holds(s_1985_jpg, window).
holds(s_1985_jpg, porch).
holds(s_1985_jpg, sign).
holds(s_1985_jpg, tiledroof).
holds(s_1985_jpg, chimney).
holds(s_1985_jpg, car).

sample(s_2574_jpg).
holds(s_2574_jpg, building).
holds(s_2574_jpg, feature).
holds(s_2574_jpg, cafe).
holds(s_2574_jpg, hotel).
holds(s_2574_jpg, store).
holds(s_2574_jpg, residential).
holds(s_2574_jpg, commercial).
holds(s_2574_jpg, window).
holds(s_2574_jpg, vendingmachine).
holds(s_2574_jpg, chimney).
holds(s_2574_jpg, car).

sample(s_1455_jpg).
holds(s_1455_jpg, building).
holds(s_1455_jpg, feature).
holds(s_1455_jpg, cafe).
holds(s_1455_jpg, hotel).
holds(s_1455_jpg, misccommercial).
holds(s_1455_jpg, commercial).
holds(s_1455_jpg, door).
holds(s_1455_jpg, awning).
holds(s_1455_jpg, vendingmachine).
holds(s_1455_jpg, chimney).
holds(s_1455_jpg, car).

sample(s_11109_jpg).
holds(s_11109_jpg, building).
holds(s_11109_jpg, feature).
holds(s_11109_jpg, cafe).
holds(s_11109_jpg, store).
holds(s_11109_jpg, misccommercial).
holds(s_11109_jpg, commercial).
holds(s_11109_jpg, awning).
holds(s_11109_jpg, vendingmachine).
holds(s_11109_jpg, chimney).
holds(s_11109_jpg, car).

sample(s_1680_jpg).
holds(s_1680_jpg, building).
holds(s_1680_jpg, feature).
holds(s_1680_jpg, cafe).
holds(s_1680_jpg, hotel).
holds(s_1680_jpg, restaurant).
holds(s_1680_jpg, store).
holds(s_1680_jpg, misccommercial).
holds(s_1680_jpg, residential).
holds(s_1680_jpg, commercial).
holds(s_1680_jpg, awning).
holds(s_1680_jpg, vendingmachine).
holds(s_1680_jpg, chimney).
holds(s_1680_jpg, pipe).
holds(s_1680_jpg, car).

sample(s_6286_jpg).
holds(s_6286_jpg, building).
holds(s_6286_jpg, feature).
holds(s_6286_jpg, miscindustrial).
holds(s_6286_jpg, watertreatment).
holds(s_6286_jpg, door).
holds(s_6286_jpg, window).
holds(s_6286_jpg, sign).
holds(s_6286_jpg, tiledrooftop).
holds(s_6286_jpg, vendingmachine).
holds(s_6286_jpg, chimney).
holds(s_6286_jpg, machine).

sample(s_8597_jpg).
holds(s_8597_jpg, building).
holds(s_8597_jpg, feature).
holds(s_8597_jpg, suburban).
holds(s_8597_jpg, miscresidential).
holds(s_8597_jpg, commercial).
holds(s_8597_jpg, door).
holds(s_8597_jpg, window).
holds(s_8597_jpg, porch).
holds(s_8597_jpg, sign).
holds(s_8597_jpg, tiledroof).
holds(s_8597_jpg, vendingmachine).
holds(s_8597_jpg, chimney).
holds(s_8597_jpg, car).

sample(s_878_jpg).
holds(s_878_jpg, building).
holds(s_878_jpg, feature).
holds(s_878_jpg, miscresidential).
holds(s_878_jpg, countryhouse).
holds(s_878_jpg, door).
holds(s_878_jpg, window).
holds(s_878_jpg, porch).
holds(s_878_jpg, sign).
holds(s_878_jpg, tiledroof).
holds(s_878_jpg, chimney).
holds(s_878_jpg, car).

sample(s_11643_jpg).
holds(s_11643_jpg, building).
holds(s_11643_jpg, feature).
holds(s_11643_jpg, cafe).
holds(s_11643_jpg, hotel).
holds(s_11643_jpg, store).
holds(s_11643_jpg, misccommercial).
holds(s_11643_jpg, commercial).
holds(s_11643_jpg, awning).
holds(s_11643_jpg, vendingmachine).
holds(s_11643_jpg, chimney).
holds(s_11643_jpg, car).

sample(s_659_jpg).
holds(s_659_jpg, building).
holds(s_659_jpg, feature).
holds(s_659_jpg, suburban).
holds(s_659_jpg, miscresidential).
holds(s_659_jpg, commercial).
holds(s_659_jpg, door).
holds(s_659_jpg, window).
holds(s_659_jpg, porch).
holds(s_659_jpg, sign).
holds(s_659_jpg, tiledroof).
holds(s_659_jpg, vendingmachine).
holds(s_659_jpg, car).

sample(s_13036_jpg).
holds(s_13036_jpg, building).
holds(s_13036_jpg, feature).
holds(s_13036_jpg, miscindustrial).
holds(s_13036_jpg, powerplant).
holds(s_13036_jpg, watertreatment).
holds(s_13036_jpg, door).
holds(s_13036_jpg, window).
holds(s_13036_jpg, sign).
holds(s_13036_jpg, tiledrooftop).
holds(s_13036_jpg, chimney).
holds(s_13036_jpg, machine).

sample(s_7908_jpg).
holds(s_7908_jpg, building).
holds(s_7908_jpg, feature).
holds(s_7908_jpg, cafe).
holds(s_7908_jpg, hotel).
holds(s_7908_jpg, store).
holds(s_7908_jpg, misccommercial).
holds(s_7908_jpg, commercial).
holds(s_7908_jpg, awning).
holds(s_7908_jpg, vendingmachine).
holds(s_7908_jpg, chimney).
holds(s_7908_jpg, car).

sample(s_3870_jpg).
holds(s_3870_jpg, building).
holds(s_3870_jpg, feature).
holds(s_3870_jpg, cafe).
holds(s_3870_jpg, hotel).
holds(s_3870_jpg, misccommercial).
holds(s_3870_jpg, residential).
holds(s_3870_jpg, commercial).
holds(s_3870_jpg, awning).
holds(s_3870_jpg, tiledrooftop).
holds(s_3870_jpg, vendingmachine).
holds(s_3870_jpg, chimney).
holds(s_3870_jpg, car).

sample(s_355_jpg).
holds(s_355_jpg, building).
holds(s_355_jpg, feature).
holds(s_355_jpg, miscindustrial).
holds(s_355_jpg, powerplant).
holds(s_355_jpg, watertreatment).
holds(s_355_jpg, door).
holds(s_355_jpg, window).
holds(s_355_jpg, sign).
holds(s_355_jpg, tiledrooftop).
holds(s_355_jpg, vendingmachine).
holds(s_355_jpg, chimney).
holds(s_355_jpg, machine).

sample(s_6985_jpg).
holds(s_6985_jpg, building).
holds(s_6985_jpg, feature).
holds(s_6985_jpg, miscindustrial).
holds(s_6985_jpg, powerplant).
holds(s_6985_jpg, watertreatment).
holds(s_6985_jpg, door).
holds(s_6985_jpg, window).
holds(s_6985_jpg, sign).
holds(s_6985_jpg, tiledrooftop).
holds(s_6985_jpg, vendingmachine).
holds(s_6985_jpg, chimney).
holds(s_6985_jpg, machine).

sample(s_2991_jpg).
holds(s_2991_jpg, building).
holds(s_2991_jpg, feature).
holds(s_2991_jpg, cafe).
holds(s_2991_jpg, hotel).
holds(s_2991_jpg, store).
holds(s_2991_jpg, misccommercial).
holds(s_2991_jpg, commercial).
holds(s_2991_jpg, awning).
holds(s_2991_jpg, vendingmachine).
holds(s_2991_jpg, chimney).
holds(s_2991_jpg, car).

sample(s_856_jpg).
holds(s_856_jpg, building).
holds(s_856_jpg, feature).
holds(s_856_jpg, miscindustrial).
holds(s_856_jpg, watertreatment).
holds(s_856_jpg, door).
holds(s_856_jpg, window).
holds(s_856_jpg, sign).
holds(s_856_jpg, tiledrooftop).
holds(s_856_jpg, vendingmachine).
holds(s_856_jpg, machine).

sample(s_12545_jpg).
holds(s_12545_jpg, building).
holds(s_12545_jpg, feature).
holds(s_12545_jpg, suburban).
holds(s_12545_jpg, commercial).
holds(s_12545_jpg, door).
holds(s_12545_jpg, porch).
holds(s_12545_jpg, sign).
holds(s_12545_jpg, tiledroof).
holds(s_12545_jpg, tiledrooftop).
holds(s_12545_jpg, vendingmachine).

sample(s_8262_jpg).
holds(s_8262_jpg, building).
holds(s_8262_jpg, feature).
holds(s_8262_jpg, cafe).
holds(s_8262_jpg, hotel).
holds(s_8262_jpg, store).
holds(s_8262_jpg, misccommercial).
holds(s_8262_jpg, residential).
holds(s_8262_jpg, commercial).
holds(s_8262_jpg, awning).
holds(s_8262_jpg, vendingmachine).
holds(s_8262_jpg, chimney).
holds(s_8262_jpg, pipe).
holds(s_8262_jpg, car).

sample(s_7886_jpg).
holds(s_7886_jpg, building).
holds(s_7886_jpg, feature).
holds(s_7886_jpg, suburban).
holds(s_7886_jpg, miscresidential).
holds(s_7886_jpg, commercial).
holds(s_7886_jpg, door).
holds(s_7886_jpg, window).
holds(s_7886_jpg, porch).
holds(s_7886_jpg, sign).
holds(s_7886_jpg, tiledroof).
holds(s_7886_jpg, vendingmachine).
holds(s_7886_jpg, car).

sample(s_3295_jpg).
holds(s_3295_jpg, building).
holds(s_3295_jpg, feature).
holds(s_3295_jpg, miscindustrial).
holds(s_3295_jpg, powerplant).
holds(s_3295_jpg, watertreatment).
holds(s_3295_jpg, door).
holds(s_3295_jpg, window).
holds(s_3295_jpg, sign).
holds(s_3295_jpg, tiledrooftop).
holds(s_3295_jpg, vendingmachine).
holds(s_3295_jpg, chimney).
holds(s_3295_jpg, machine).

sample(s_8282_jpg).
holds(s_8282_jpg, building).
holds(s_8282_jpg, feature).
holds(s_8282_jpg, suburban).
holds(s_8282_jpg, miscresidential).
holds(s_8282_jpg, countryhouse).
holds(s_8282_jpg, door).
holds(s_8282_jpg, window).
holds(s_8282_jpg, porch).
holds(s_8282_jpg, sign).
holds(s_8282_jpg, tiledroof).
holds(s_8282_jpg, car).

sample(s_3390_jpg).
holds(s_3390_jpg, building).
holds(s_3390_jpg, feature).
holds(s_3390_jpg, cafe).
holds(s_3390_jpg, hotel).
holds(s_3390_jpg, store).
holds(s_3390_jpg, misccommercial).
holds(s_3390_jpg, commercial).
holds(s_3390_jpg, awning).
holds(s_3390_jpg, vendingmachine).
holds(s_3390_jpg, chimney).
holds(s_3390_jpg, car).

sample(s_2064_jpg).
holds(s_2064_jpg, building).
holds(s_2064_jpg, feature).
holds(s_2064_jpg, cafe).
holds(s_2064_jpg, hotel).
holds(s_2064_jpg, store).
holds(s_2064_jpg, misccommercial).
holds(s_2064_jpg, commercial).
holds(s_2064_jpg, awning).
holds(s_2064_jpg, vendingmachine).
holds(s_2064_jpg, chimney).
holds(s_2064_jpg, car).

sample(s_9208_jpg).
holds(s_9208_jpg, building).
holds(s_9208_jpg, feature).
holds(s_9208_jpg, constructionsite).
holds(s_9208_jpg, commercial).
holds(s_9208_jpg, door).
holds(s_9208_jpg, awning).
holds(s_9208_jpg, tiledrooftop).
holds(s_9208_jpg, vendingmachine).
holds(s_9208_jpg, chimney).
holds(s_9208_jpg, machine).

sample(s_12865_jpg).
holds(s_12865_jpg, building).
holds(s_12865_jpg, feature).
holds(s_12865_jpg, constructionsite).
holds(s_12865_jpg, powerplant).
holds(s_12865_jpg, commercial).
holds(s_12865_jpg, door).
holds(s_12865_jpg, awning).
holds(s_12865_jpg, tiledrooftop).
holds(s_12865_jpg, vendingmachine).
holds(s_12865_jpg, chimney).

sample(s_9339_jpg).
holds(s_9339_jpg, building).
holds(s_9339_jpg, feature).
holds(s_9339_jpg, cafe).
holds(s_9339_jpg, hotel).
holds(s_9339_jpg, miscindustrial).
holds(s_9339_jpg, watertreatment).
holds(s_9339_jpg, residential).
holds(s_9339_jpg, door).
holds(s_9339_jpg, awning).
holds(s_9339_jpg, sign).
holds(s_9339_jpg, tiledrooftop).
holds(s_9339_jpg, vendingmachine).
holds(s_9339_jpg, machine).
holds(s_9339_jpg, car).

sample(s_1374_jpg).
holds(s_1374_jpg, building).
holds(s_1374_jpg, feature).
holds(s_1374_jpg, cafe).
holds(s_1374_jpg, hotel).
holds(s_1374_jpg, restaurant).
holds(s_1374_jpg, store).
holds(s_1374_jpg, misccommercial).
holds(s_1374_jpg, residential).
holds(s_1374_jpg, commercial).
holds(s_1374_jpg, awning).
holds(s_1374_jpg, vendingmachine).
holds(s_1374_jpg, chimney).
holds(s_1374_jpg, pipe).
holds(s_1374_jpg, car).

sample(s_13066_jpg).
holds(s_13066_jpg, building).
holds(s_13066_jpg, feature).
holds(s_13066_jpg, powerplant).
holds(s_13066_jpg, commercial).
holds(s_13066_jpg, door).
holds(s_13066_jpg, window).
holds(s_13066_jpg, awning).
holds(s_13066_jpg, tiledrooftop).
holds(s_13066_jpg, vendingmachine).
holds(s_13066_jpg, chimney).
holds(s_13066_jpg, machine).

sample(s_3376_jpg).
holds(s_3376_jpg, building).
holds(s_3376_jpg, feature).
holds(s_3376_jpg, constructionsite).
holds(s_3376_jpg, powerplant).
holds(s_3376_jpg, commercial).
holds(s_3376_jpg, door).
holds(s_3376_jpg, window).
holds(s_3376_jpg, awning).
holds(s_3376_jpg, tiledrooftop).
holds(s_3376_jpg, vendingmachine).
holds(s_3376_jpg, chimney).
holds(s_3376_jpg, machine).

sample(s_7232_jpg).
holds(s_7232_jpg, building).
holds(s_7232_jpg, feature).
holds(s_7232_jpg, suburban).
holds(s_7232_jpg, miscresidential).
holds(s_7232_jpg, commercial).
holds(s_7232_jpg, door).
holds(s_7232_jpg, window).
holds(s_7232_jpg, porch).
holds(s_7232_jpg, sign).
holds(s_7232_jpg, tiledroof).
holds(s_7232_jpg, vendingmachine).
holds(s_7232_jpg, car).

sample(s_8217_jpg).
holds(s_8217_jpg, building).
holds(s_8217_jpg, feature).
holds(s_8217_jpg, cafe).
holds(s_8217_jpg, hotel).
holds(s_8217_jpg, restaurant).
holds(s_8217_jpg, store).
holds(s_8217_jpg, misccommercial).
holds(s_8217_jpg, residential).
holds(s_8217_jpg, commercial).
holds(s_8217_jpg, awning).
holds(s_8217_jpg, vendingmachine).
holds(s_8217_jpg, pipe).
holds(s_8217_jpg, car).

sample(s_10928_jpg).
holds(s_10928_jpg, building).
holds(s_10928_jpg, feature).
holds(s_10928_jpg, suburban).
holds(s_10928_jpg, miscresidential).
holds(s_10928_jpg, countryhouse).
holds(s_10928_jpg, door).
holds(s_10928_jpg, window).
holds(s_10928_jpg, porch).
holds(s_10928_jpg, sign).
holds(s_10928_jpg, tiledroof).
holds(s_10928_jpg, vendingmachine).
holds(s_10928_jpg, car).

sample(s_383_jpg).
holds(s_383_jpg, building).
holds(s_383_jpg, feature).
holds(s_383_jpg, suburban).
holds(s_383_jpg, miscresidential).
holds(s_383_jpg, countryhouse).
holds(s_383_jpg, door).
holds(s_383_jpg, window).
holds(s_383_jpg, porch).
holds(s_383_jpg, sign).
holds(s_383_jpg, tiledroof).
holds(s_383_jpg, chimney).
holds(s_383_jpg, car).

sample(s_8340_jpg).
holds(s_8340_jpg, building).
holds(s_8340_jpg, feature).
holds(s_8340_jpg, cafe).
holds(s_8340_jpg, hotel).
holds(s_8340_jpg, restaurant).
holds(s_8340_jpg, store).
holds(s_8340_jpg, misccommercial).
holds(s_8340_jpg, residential).
holds(s_8340_jpg, commercial).
holds(s_8340_jpg, window).
holds(s_8340_jpg, awning).
holds(s_8340_jpg, vendingmachine).
holds(s_8340_jpg, pipe).
holds(s_8340_jpg, car).

sample(s_9065_jpg).
holds(s_9065_jpg, building).
holds(s_9065_jpg, feature).
holds(s_9065_jpg, suburban).
holds(s_9065_jpg, miscresidential).
holds(s_9065_jpg, commercial).
holds(s_9065_jpg, door).
holds(s_9065_jpg, window).
holds(s_9065_jpg, porch).
holds(s_9065_jpg, sign).
holds(s_9065_jpg, tiledroof).
holds(s_9065_jpg, vendingmachine).
holds(s_9065_jpg, car).

sample(s_6916_jpg).
holds(s_6916_jpg, building).
holds(s_6916_jpg, feature).
holds(s_6916_jpg, miscindustrial).
holds(s_6916_jpg, watertreatment).
holds(s_6916_jpg, door).
holds(s_6916_jpg, window).
holds(s_6916_jpg, awning).
holds(s_6916_jpg, sign).
holds(s_6916_jpg, tiledrooftop).
holds(s_6916_jpg, vendingmachine).
holds(s_6916_jpg, machine).

sample(s_5229_jpg).
holds(s_5229_jpg, building).
holds(s_5229_jpg, feature).
holds(s_5229_jpg, cafe).
holds(s_5229_jpg, hotel).
holds(s_5229_jpg, misccommercial).
holds(s_5229_jpg, commercial).
holds(s_5229_jpg, door).
holds(s_5229_jpg, awning).
holds(s_5229_jpg, vendingmachine).
holds(s_5229_jpg, chimney).
holds(s_5229_jpg, car).

sample(s_13867_jpg).
holds(s_13867_jpg, building).
holds(s_13867_jpg, feature).
holds(s_13867_jpg, constructionsite).
holds(s_13867_jpg, commercial).
holds(s_13867_jpg, door).
holds(s_13867_jpg, awning).
holds(s_13867_jpg, tiledrooftop).
holds(s_13867_jpg, vendingmachine).
holds(s_13867_jpg, chimney).
holds(s_13867_jpg, machine).

sample(s_14726_jpg).
holds(s_14726_jpg, building).
holds(s_14726_jpg, feature).
holds(s_14726_jpg, suburban).
holds(s_14726_jpg, miscresidential).
holds(s_14726_jpg, countryhouse).
holds(s_14726_jpg, door).
holds(s_14726_jpg, window).
holds(s_14726_jpg, porch).
holds(s_14726_jpg, sign).
holds(s_14726_jpg, tiledroof).
holds(s_14726_jpg, car).

sample(s_8941_jpg).
holds(s_8941_jpg, building).
holds(s_8941_jpg, feature).
holds(s_8941_jpg, miscindustrial).
holds(s_8941_jpg, watertreatment).
holds(s_8941_jpg, door).
holds(s_8941_jpg, window).
holds(s_8941_jpg, sign).
holds(s_8941_jpg, tiledrooftop).
holds(s_8941_jpg, vendingmachine).
holds(s_8941_jpg, machine).

sample(s_1854_jpg).
holds(s_1854_jpg, building).
holds(s_1854_jpg, feature).
holds(s_1854_jpg, cafe).
holds(s_1854_jpg, hotel).
holds(s_1854_jpg, misccommercial).
holds(s_1854_jpg, residential).
holds(s_1854_jpg, commercial).
holds(s_1854_jpg, window).
holds(s_1854_jpg, awning).
holds(s_1854_jpg, tiledrooftop).
holds(s_1854_jpg, vendingmachine).
holds(s_1854_jpg, car).

sample(s_15669_jpg).
holds(s_15669_jpg, building).
holds(s_15669_jpg, feature).
holds(s_15669_jpg, cafe).
holds(s_15669_jpg, hotel).
holds(s_15669_jpg, restaurant).
holds(s_15669_jpg, misccommercial).
holds(s_15669_jpg, residential).
holds(s_15669_jpg, commercial).
holds(s_15669_jpg, tiledrooftop).
holds(s_15669_jpg, vendingmachine).
holds(s_15669_jpg, chimney).
holds(s_15669_jpg, pipe).
holds(s_15669_jpg, car).

sample(s_11407_jpg).
holds(s_11407_jpg, building).
holds(s_11407_jpg, feature).
holds(s_11407_jpg, miscindustrial).
holds(s_11407_jpg, powerplant).
holds(s_11407_jpg, watertreatment).
holds(s_11407_jpg, door).
holds(s_11407_jpg, window).
holds(s_11407_jpg, sign).
holds(s_11407_jpg, tiledrooftop).
holds(s_11407_jpg, chimney).
holds(s_11407_jpg, machine).

sample(s_2815_jpg).
holds(s_2815_jpg, building).
holds(s_2815_jpg, feature).
holds(s_2815_jpg, miscindustrial).
holds(s_2815_jpg, powerplant).
holds(s_2815_jpg, watertreatment).
holds(s_2815_jpg, door).
holds(s_2815_jpg, window).
holds(s_2815_jpg, sign).
holds(s_2815_jpg, tiledrooftop).
holds(s_2815_jpg, vendingmachine).
holds(s_2815_jpg, chimney).
holds(s_2815_jpg, machine).

sample(s_2591_jpg).
holds(s_2591_jpg, building).
holds(s_2591_jpg, feature).
holds(s_2591_jpg, suburban).
holds(s_2591_jpg, miscresidential).
holds(s_2591_jpg, countryhouse).
holds(s_2591_jpg, commercial).
holds(s_2591_jpg, door).
holds(s_2591_jpg, window).
holds(s_2591_jpg, porch).
holds(s_2591_jpg, sign).
holds(s_2591_jpg, tiledroof).
holds(s_2591_jpg, vendingmachine).
holds(s_2591_jpg, car).

sample(s_7440_jpg).
holds(s_7440_jpg, building).
holds(s_7440_jpg, feature).
holds(s_7440_jpg, cafe).
holds(s_7440_jpg, hotel).
holds(s_7440_jpg, store).
holds(s_7440_jpg, misccommercial).
holds(s_7440_jpg, commercial).
holds(s_7440_jpg, awning).
holds(s_7440_jpg, vendingmachine).
holds(s_7440_jpg, chimney).
holds(s_7440_jpg, car).

sample(s_11904_jpg).
holds(s_11904_jpg, building).
holds(s_11904_jpg, feature).
holds(s_11904_jpg, cafe).
holds(s_11904_jpg, restaurant).
holds(s_11904_jpg, store).
holds(s_11904_jpg, misccommercial).
holds(s_11904_jpg, residential).
holds(s_11904_jpg, commercial).
holds(s_11904_jpg, vendingmachine).
holds(s_11904_jpg, chimney).
holds(s_11904_jpg, pipe).
holds(s_11904_jpg, car).

sample(s_7854_jpg).
holds(s_7854_jpg, building).
holds(s_7854_jpg, feature).
holds(s_7854_jpg, cafe).
holds(s_7854_jpg, hotel).
holds(s_7854_jpg, restaurant).
holds(s_7854_jpg, misccommercial).
holds(s_7854_jpg, residential).
holds(s_7854_jpg, commercial).
holds(s_7854_jpg, awning).
holds(s_7854_jpg, vendingmachine).
holds(s_7854_jpg, chimney).
holds(s_7854_jpg, pipe).
holds(s_7854_jpg, car).

sample(s_8183_jpg).
holds(s_8183_jpg, building).
holds(s_8183_jpg, feature).
holds(s_8183_jpg, suburban).
holds(s_8183_jpg, commercial).
holds(s_8183_jpg, door).
holds(s_8183_jpg, window).
holds(s_8183_jpg, porch).
holds(s_8183_jpg, sign).
holds(s_8183_jpg, tiledroof).
holds(s_8183_jpg, tiledrooftop).
holds(s_8183_jpg, vendingmachine).

sample(s_13877_jpg).
holds(s_13877_jpg, building).
holds(s_13877_jpg, feature).
holds(s_13877_jpg, miscresidential).
holds(s_13877_jpg, countryhouse).
holds(s_13877_jpg, door).
holds(s_13877_jpg, window).
holds(s_13877_jpg, porch).
holds(s_13877_jpg, sign).
holds(s_13877_jpg, tiledroof).
holds(s_13877_jpg, chimney).
holds(s_13877_jpg, car).

sample(s_5136_jpg).
holds(s_5136_jpg, building).
holds(s_5136_jpg, feature).
holds(s_5136_jpg, cafe).
holds(s_5136_jpg, hotel).
holds(s_5136_jpg, restaurant).
holds(s_5136_jpg, store).
holds(s_5136_jpg, misccommercial).
holds(s_5136_jpg, residential).
holds(s_5136_jpg, commercial).
holds(s_5136_jpg, awning).
holds(s_5136_jpg, vendingmachine).
holds(s_5136_jpg, chimney).
holds(s_5136_jpg, pipe).
holds(s_5136_jpg, car).

sample(s_14519_jpg).
holds(s_14519_jpg, building).
holds(s_14519_jpg, feature).
holds(s_14519_jpg, suburban).
holds(s_14519_jpg, miscresidential).
holds(s_14519_jpg, countryhouse).
holds(s_14519_jpg, commercial).
holds(s_14519_jpg, door).
holds(s_14519_jpg, window).
holds(s_14519_jpg, porch).
holds(s_14519_jpg, sign).
holds(s_14519_jpg, tiledroof).
holds(s_14519_jpg, vendingmachine).
holds(s_14519_jpg, car).

sample(s_6570_jpg).
holds(s_6570_jpg, building).
holds(s_6570_jpg, feature).
holds(s_6570_jpg, cafe).
holds(s_6570_jpg, hotel).
holds(s_6570_jpg, store).
holds(s_6570_jpg, misccommercial).
holds(s_6570_jpg, commercial).
holds(s_6570_jpg, window).
holds(s_6570_jpg, awning).
holds(s_6570_jpg, vendingmachine).
holds(s_6570_jpg, chimney).
holds(s_6570_jpg, car).

sample(s_8851_jpg).
holds(s_8851_jpg, building).
holds(s_8851_jpg, feature).
holds(s_8851_jpg, miscindustrial).
holds(s_8851_jpg, watertreatment).
holds(s_8851_jpg, door).
holds(s_8851_jpg, window).
holds(s_8851_jpg, sign).
holds(s_8851_jpg, tiledrooftop).
holds(s_8851_jpg, vendingmachine).
holds(s_8851_jpg, chimney).
holds(s_8851_jpg, machine).

sample(s_12873_jpg).
holds(s_12873_jpg, building).
holds(s_12873_jpg, feature).
holds(s_12873_jpg, cafe).
holds(s_12873_jpg, hotel).
holds(s_12873_jpg, restaurant).
holds(s_12873_jpg, store).
holds(s_12873_jpg, residential).
holds(s_12873_jpg, commercial).
holds(s_12873_jpg, awning).
holds(s_12873_jpg, vendingmachine).
holds(s_12873_jpg, chimney).
holds(s_12873_jpg, pipe).
holds(s_12873_jpg, car).

sample(s_12700_jpg).
holds(s_12700_jpg, building).
holds(s_12700_jpg, feature).
holds(s_12700_jpg, constructionsite).
holds(s_12700_jpg, commercial).
holds(s_12700_jpg, door).
holds(s_12700_jpg, awning).
holds(s_12700_jpg, tiledrooftop).
holds(s_12700_jpg, vendingmachine).
holds(s_12700_jpg, chimney).
holds(s_12700_jpg, machine).

sample(s_13243_jpg).
holds(s_13243_jpg, building).
holds(s_13243_jpg, feature).
holds(s_13243_jpg, miscindustrial).
holds(s_13243_jpg, watertreatment).
holds(s_13243_jpg, door).
holds(s_13243_jpg, window).
holds(s_13243_jpg, sign).
holds(s_13243_jpg, tiledrooftop).
holds(s_13243_jpg, vendingmachine).
holds(s_13243_jpg, chimney).
holds(s_13243_jpg, machine).

sample(s_14066_jpg).
holds(s_14066_jpg, building).
holds(s_14066_jpg, feature).
holds(s_14066_jpg, suburban).
holds(s_14066_jpg, commercial).
holds(s_14066_jpg, door).
holds(s_14066_jpg, window).
holds(s_14066_jpg, porch).
holds(s_14066_jpg, sign).
holds(s_14066_jpg, tiledroof).
holds(s_14066_jpg, tiledrooftop).
holds(s_14066_jpg, vendingmachine).

sample(s_10762_jpg).
holds(s_10762_jpg, building).
holds(s_10762_jpg, feature).
holds(s_10762_jpg, miscindustrial).
holds(s_10762_jpg, watertreatment).
holds(s_10762_jpg, door).
holds(s_10762_jpg, window).
holds(s_10762_jpg, sign).
holds(s_10762_jpg, tiledrooftop).
holds(s_10762_jpg, vendingmachine).
holds(s_10762_jpg, chimney).
holds(s_10762_jpg, machine).

sample(s_12612_jpg).
holds(s_12612_jpg, building).
holds(s_12612_jpg, feature).
holds(s_12612_jpg, cafe).
holds(s_12612_jpg, hotel).
holds(s_12612_jpg, restaurant).
holds(s_12612_jpg, store).
holds(s_12612_jpg, misccommercial).
holds(s_12612_jpg, residential).
holds(s_12612_jpg, commercial).
holds(s_12612_jpg, awning).
holds(s_12612_jpg, tiledrooftop).
holds(s_12612_jpg, vendingmachine).
holds(s_12612_jpg, chimney).
holds(s_12612_jpg, pipe).
holds(s_12612_jpg, machine).
holds(s_12612_jpg, car).

sample(s_10691_jpg).
holds(s_10691_jpg, building).
holds(s_10691_jpg, feature).
holds(s_10691_jpg, suburban).
holds(s_10691_jpg, door).
holds(s_10691_jpg, window).
holds(s_10691_jpg, sign).
holds(s_10691_jpg, tiledroof).
holds(s_10691_jpg, tiledrooftop).
holds(s_10691_jpg, vendingmachine).

sample(s_14882_jpg).
holds(s_14882_jpg, building).
holds(s_14882_jpg, feature).
holds(s_14882_jpg, suburban).
holds(s_14882_jpg, miscresidential).
holds(s_14882_jpg, commercial).
holds(s_14882_jpg, door).
holds(s_14882_jpg, window).
holds(s_14882_jpg, porch).
holds(s_14882_jpg, sign).
holds(s_14882_jpg, tiledroof).
holds(s_14882_jpg, vendingmachine).
holds(s_14882_jpg, car).

sample(s_4793_jpg).
holds(s_4793_jpg, building).
holds(s_4793_jpg, feature).
holds(s_4793_jpg, miscresidential).
holds(s_4793_jpg, countryhouse).
holds(s_4793_jpg, door).
holds(s_4793_jpg, window).
holds(s_4793_jpg, porch).
holds(s_4793_jpg, sign).
holds(s_4793_jpg, tiledroof).
holds(s_4793_jpg, chimney).
holds(s_4793_jpg, car).

sample(s_2957_jpg).
holds(s_2957_jpg, building).
holds(s_2957_jpg, feature).
holds(s_2957_jpg, suburban).
holds(s_2957_jpg, commercial).
holds(s_2957_jpg, door).
holds(s_2957_jpg, window).
holds(s_2957_jpg, sign).
holds(s_2957_jpg, tiledroof).
holds(s_2957_jpg, tiledrooftop).
holds(s_2957_jpg, vendingmachine).

sample(s_6696_jpg).
holds(s_6696_jpg, building).
holds(s_6696_jpg, feature).
holds(s_6696_jpg, cafe).
holds(s_6696_jpg, store).
holds(s_6696_jpg, misccommercial).
holds(s_6696_jpg, residential).
holds(s_6696_jpg, commercial).
holds(s_6696_jpg, awning).
holds(s_6696_jpg, vendingmachine).
holds(s_6696_jpg, chimney).
holds(s_6696_jpg, pipe).
holds(s_6696_jpg, car).

sample(s_3183_jpg).
holds(s_3183_jpg, building).
holds(s_3183_jpg, feature).
holds(s_3183_jpg, cafe).
holds(s_3183_jpg, hotel).
holds(s_3183_jpg, restaurant).
holds(s_3183_jpg, store).
holds(s_3183_jpg, misccommercial).
holds(s_3183_jpg, residential).
holds(s_3183_jpg, commercial).
holds(s_3183_jpg, awning).
holds(s_3183_jpg, vendingmachine).
holds(s_3183_jpg, chimney).
holds(s_3183_jpg, pipe).
holds(s_3183_jpg, car).

sample(s_7883_jpg).
holds(s_7883_jpg, building).
holds(s_7883_jpg, feature).
holds(s_7883_jpg, miscresidential).
holds(s_7883_jpg, countryhouse).
holds(s_7883_jpg, door).
holds(s_7883_jpg, window).
holds(s_7883_jpg, sign).
holds(s_7883_jpg, tiledroof).
holds(s_7883_jpg, chimney).
holds(s_7883_jpg, car).

sample(s_4817_jpg).
holds(s_4817_jpg, building).
holds(s_4817_jpg, feature).
holds(s_4817_jpg, suburban).
holds(s_4817_jpg, residential).
holds(s_4817_jpg, commercial).
holds(s_4817_jpg, sign).
holds(s_4817_jpg, tiledroof).
holds(s_4817_jpg, tiledrooftop).
holds(s_4817_jpg, vendingmachine).

sample(s_2483_jpg).
holds(s_2483_jpg, building).
holds(s_2483_jpg, feature).
holds(s_2483_jpg, suburban).
holds(s_2483_jpg, miscresidential).
holds(s_2483_jpg, commercial).
holds(s_2483_jpg, door).
holds(s_2483_jpg, window).
holds(s_2483_jpg, porch).
holds(s_2483_jpg, sign).
holds(s_2483_jpg, tiledroof).
holds(s_2483_jpg, vendingmachine).
holds(s_2483_jpg, car).

sample(s_420_jpg).
holds(s_420_jpg, building).
holds(s_420_jpg, feature).
holds(s_420_jpg, cafe).
holds(s_420_jpg, hotel).
holds(s_420_jpg, store).
holds(s_420_jpg, misccommercial).
holds(s_420_jpg, residential).
holds(s_420_jpg, commercial).
holds(s_420_jpg, awning).
holds(s_420_jpg, vendingmachine).
holds(s_420_jpg, chimney).
holds(s_420_jpg, car).

sample(s_941_jpg).
holds(s_941_jpg, building).
holds(s_941_jpg, feature).
holds(s_941_jpg, miscresidential).
holds(s_941_jpg, commercial).
holds(s_941_jpg, door).
holds(s_941_jpg, window).
holds(s_941_jpg, awning).
holds(s_941_jpg, porch).
holds(s_941_jpg, sign).
holds(s_941_jpg, tiledroof).
holds(s_941_jpg, vendingmachine).
holds(s_941_jpg, chimney).
holds(s_941_jpg, car).

sample(s_8362_jpg).
holds(s_8362_jpg, building).
holds(s_8362_jpg, feature).
holds(s_8362_jpg, powerplant).
holds(s_8362_jpg, commercial).
holds(s_8362_jpg, door).
holds(s_8362_jpg, window).
holds(s_8362_jpg, awning).
holds(s_8362_jpg, tiledrooftop).
holds(s_8362_jpg, vendingmachine).
holds(s_8362_jpg, chimney).

sample(s_6780_jpg).
holds(s_6780_jpg, building).
holds(s_6780_jpg, feature).
holds(s_6780_jpg, cafe).
holds(s_6780_jpg, store).
holds(s_6780_jpg, misccommercial).
holds(s_6780_jpg, residential).
holds(s_6780_jpg, commercial).
holds(s_6780_jpg, awning).
holds(s_6780_jpg, vendingmachine).
holds(s_6780_jpg, chimney).
holds(s_6780_jpg, pipe).
holds(s_6780_jpg, car).

sample(s_11957_jpg).
holds(s_11957_jpg, building).
holds(s_11957_jpg, feature).
holds(s_11957_jpg, suburban).
holds(s_11957_jpg, commercial).
holds(s_11957_jpg, door).
holds(s_11957_jpg, window).
holds(s_11957_jpg, sign).
holds(s_11957_jpg, tiledroof).
holds(s_11957_jpg, tiledrooftop).
holds(s_11957_jpg, vendingmachine).

sample(s_15823_jpg).
holds(s_15823_jpg, building).
holds(s_15823_jpg, feature).
holds(s_15823_jpg, powerplant).
holds(s_15823_jpg, door).
holds(s_15823_jpg, window).
holds(s_15823_jpg, tiledrooftop).
holds(s_15823_jpg, vendingmachine).
holds(s_15823_jpg, chimney).
holds(s_15823_jpg, machine).

sample(s_3820_jpg).
holds(s_3820_jpg, building).
holds(s_3820_jpg, feature).
holds(s_3820_jpg, constructionsite).
holds(s_3820_jpg, powerplant).
holds(s_3820_jpg, commercial).
holds(s_3820_jpg, door).
holds(s_3820_jpg, window).
holds(s_3820_jpg, awning).
holds(s_3820_jpg, tiledrooftop).
holds(s_3820_jpg, vendingmachine).
holds(s_3820_jpg, chimney).
holds(s_3820_jpg, machine).

sample(s_10324_jpg).
holds(s_10324_jpg, building).
holds(s_10324_jpg, feature).
holds(s_10324_jpg, constructionsite).
holds(s_10324_jpg, powerplant).
holds(s_10324_jpg, commercial).
holds(s_10324_jpg, door).
holds(s_10324_jpg, window).
holds(s_10324_jpg, awning).
holds(s_10324_jpg, tiledrooftop).
holds(s_10324_jpg, vendingmachine).
holds(s_10324_jpg, chimney).
holds(s_10324_jpg, machine).

sample(s_13070_jpg).
holds(s_13070_jpg, building).
holds(s_13070_jpg, feature).
holds(s_13070_jpg, miscresidential).
holds(s_13070_jpg, countryhouse).
holds(s_13070_jpg, door).
holds(s_13070_jpg, window).
holds(s_13070_jpg, sign).
holds(s_13070_jpg, tiledroof).
holds(s_13070_jpg, chimney).
holds(s_13070_jpg, car).

sample(s_667_jpg).
holds(s_667_jpg, building).
holds(s_667_jpg, feature).
holds(s_667_jpg, miscindustrial).
holds(s_667_jpg, powerplant).
holds(s_667_jpg, watertreatment).
holds(s_667_jpg, door).
holds(s_667_jpg, window).
holds(s_667_jpg, sign).
holds(s_667_jpg, tiledrooftop).
holds(s_667_jpg, vendingmachine).
holds(s_667_jpg, chimney).
holds(s_667_jpg, machine).

sample(s_4703_jpg).
holds(s_4703_jpg, building).
holds(s_4703_jpg, feature).
holds(s_4703_jpg, suburban).
holds(s_4703_jpg, miscresidential).
holds(s_4703_jpg, commercial).
holds(s_4703_jpg, door).
holds(s_4703_jpg, window).
holds(s_4703_jpg, porch).
holds(s_4703_jpg, sign).
holds(s_4703_jpg, tiledroof).
holds(s_4703_jpg, vendingmachine).
holds(s_4703_jpg, car).

sample(s_4603_jpg).
holds(s_4603_jpg, building).
holds(s_4603_jpg, feature).
holds(s_4603_jpg, miscindustrial).
holds(s_4603_jpg, watertreatment).
holds(s_4603_jpg, door).
holds(s_4603_jpg, window).
holds(s_4603_jpg, sign).
holds(s_4603_jpg, tiledrooftop).
holds(s_4603_jpg, vendingmachine).
holds(s_4603_jpg, machine).

sample(s_801_jpg).
holds(s_801_jpg, building).
holds(s_801_jpg, feature).
holds(s_801_jpg, hotel).
holds(s_801_jpg, store).
holds(s_801_jpg, residential).
holds(s_801_jpg, commercial).
holds(s_801_jpg, awning).
holds(s_801_jpg, vendingmachine).
holds(s_801_jpg, chimney).
holds(s_801_jpg, pipe).
holds(s_801_jpg, car).

sample(s_7429_jpg).
holds(s_7429_jpg, building).
holds(s_7429_jpg, feature).
holds(s_7429_jpg, constructionsite).
holds(s_7429_jpg, powerplant).
holds(s_7429_jpg, commercial).
holds(s_7429_jpg, door).
holds(s_7429_jpg, window).
holds(s_7429_jpg, awning).
holds(s_7429_jpg, tiledrooftop).
holds(s_7429_jpg, vendingmachine).
holds(s_7429_jpg, chimney).
holds(s_7429_jpg, machine).

sample(s_6187_jpg).
holds(s_6187_jpg, building).
holds(s_6187_jpg, feature).
holds(s_6187_jpg, miscindustrial).
holds(s_6187_jpg, watertreatment).
holds(s_6187_jpg, door).
holds(s_6187_jpg, window).
holds(s_6187_jpg, awning).
holds(s_6187_jpg, sign).
holds(s_6187_jpg, tiledrooftop).
holds(s_6187_jpg, vendingmachine).
holds(s_6187_jpg, machine).

sample(s_6550_jpg).
holds(s_6550_jpg, building).
holds(s_6550_jpg, feature).
holds(s_6550_jpg, miscindustrial).
holds(s_6550_jpg, watertreatment).
holds(s_6550_jpg, door).
holds(s_6550_jpg, window).
holds(s_6550_jpg, sign).
holds(s_6550_jpg, tiledrooftop).
holds(s_6550_jpg, vendingmachine).
holds(s_6550_jpg, chimney).
holds(s_6550_jpg, machine).

sample(s_4318_jpg).
holds(s_4318_jpg, building).
holds(s_4318_jpg, feature).
holds(s_4318_jpg, constructionsite).
holds(s_4318_jpg, powerplant).
holds(s_4318_jpg, commercial).
holds(s_4318_jpg, door).
holds(s_4318_jpg, awning).
holds(s_4318_jpg, tiledrooftop).
holds(s_4318_jpg, vendingmachine).
holds(s_4318_jpg, chimney).
holds(s_4318_jpg, machine).

sample(s_13466_jpg).
holds(s_13466_jpg, building).
holds(s_13466_jpg, feature).
holds(s_13466_jpg, suburban).
holds(s_13466_jpg, miscresidential).
holds(s_13466_jpg, commercial).
holds(s_13466_jpg, door).
holds(s_13466_jpg, window).
holds(s_13466_jpg, porch).
holds(s_13466_jpg, sign).
holds(s_13466_jpg, tiledroof).
holds(s_13466_jpg, vendingmachine).
holds(s_13466_jpg, car).

sample(s_11805_jpg).
holds(s_11805_jpg, building).
holds(s_11805_jpg, feature).
holds(s_11805_jpg, cafe).
holds(s_11805_jpg, hotel).
holds(s_11805_jpg, store).
holds(s_11805_jpg, residential).
holds(s_11805_jpg, commercial).
holds(s_11805_jpg, awning).
holds(s_11805_jpg, vendingmachine).
holds(s_11805_jpg, chimney).
holds(s_11805_jpg, car).

sample(s_2213_jpg).
holds(s_2213_jpg, building).
holds(s_2213_jpg, feature).
holds(s_2213_jpg, miscresidential).
holds(s_2213_jpg, countryhouse).
holds(s_2213_jpg, door).
holds(s_2213_jpg, window).
holds(s_2213_jpg, porch).
holds(s_2213_jpg, sign).
holds(s_2213_jpg, tiledroof).
holds(s_2213_jpg, chimney).
holds(s_2213_jpg, car).

sample(s_5256_jpg).
holds(s_5256_jpg, building).
holds(s_5256_jpg, feature).
holds(s_5256_jpg, cafe).
holds(s_5256_jpg, hotel).
holds(s_5256_jpg, store).
holds(s_5256_jpg, residential).
holds(s_5256_jpg, commercial).
holds(s_5256_jpg, awning).
holds(s_5256_jpg, vendingmachine).
holds(s_5256_jpg, chimney).
holds(s_5256_jpg, car).

sample(s_635_jpg).
holds(s_635_jpg, building).
holds(s_635_jpg, feature).
holds(s_635_jpg, suburban).
holds(s_635_jpg, miscresidential).
holds(s_635_jpg, commercial).
holds(s_635_jpg, door).
holds(s_635_jpg, window).
holds(s_635_jpg, porch).
holds(s_635_jpg, sign).
holds(s_635_jpg, tiledroof).
holds(s_635_jpg, vendingmachine).
holds(s_635_jpg, car).

sample(s_13017_jpg).
holds(s_13017_jpg, building).
holds(s_13017_jpg, feature).
holds(s_13017_jpg, cafe).
holds(s_13017_jpg, hotel).
holds(s_13017_jpg, store).
holds(s_13017_jpg, misccommercial).
holds(s_13017_jpg, residential).
holds(s_13017_jpg, commercial).
holds(s_13017_jpg, awning).
holds(s_13017_jpg, vendingmachine).
holds(s_13017_jpg, chimney).
holds(s_13017_jpg, pipe).
holds(s_13017_jpg, car).

sample(s_7244_jpg).
holds(s_7244_jpg, building).
holds(s_7244_jpg, feature).
holds(s_7244_jpg, miscresidential).
holds(s_7244_jpg, door).
holds(s_7244_jpg, window).
holds(s_7244_jpg, porch).
holds(s_7244_jpg, sign).
holds(s_7244_jpg, tiledroof).
holds(s_7244_jpg, vendingmachine).
holds(s_7244_jpg, chimney).
holds(s_7244_jpg, car).

sample(s_12761_jpg).
holds(s_12761_jpg, building).
holds(s_12761_jpg, feature).
holds(s_12761_jpg, suburban).
holds(s_12761_jpg, miscresidential).
holds(s_12761_jpg, commercial).
holds(s_12761_jpg, door).
holds(s_12761_jpg, window).
holds(s_12761_jpg, porch).
holds(s_12761_jpg, sign).
holds(s_12761_jpg, tiledroof).
holds(s_12761_jpg, vendingmachine).
holds(s_12761_jpg, chimney).
holds(s_12761_jpg, car).

sample(s_9128_jpg).
holds(s_9128_jpg, building).
holds(s_9128_jpg, feature).
holds(s_9128_jpg, miscresidential).
holds(s_9128_jpg, commercial).
holds(s_9128_jpg, door).
holds(s_9128_jpg, window).
holds(s_9128_jpg, awning).
holds(s_9128_jpg, porch).
holds(s_9128_jpg, sign).
holds(s_9128_jpg, tiledroof).
holds(s_9128_jpg, vendingmachine).
holds(s_9128_jpg, chimney).
holds(s_9128_jpg, car).

sample(s_6298_jpg).
holds(s_6298_jpg, building).
holds(s_6298_jpg, feature).
holds(s_6298_jpg, constructionsite).
holds(s_6298_jpg, powerplant).
holds(s_6298_jpg, commercial).
holds(s_6298_jpg, door).
holds(s_6298_jpg, awning).
holds(s_6298_jpg, tiledrooftop).
holds(s_6298_jpg, vendingmachine).
holds(s_6298_jpg, chimney).

sample(s_7468_jpg).
holds(s_7468_jpg, building).
holds(s_7468_jpg, feature).
holds(s_7468_jpg, miscindustrial).
holds(s_7468_jpg, watertreatment).
holds(s_7468_jpg, door).
holds(s_7468_jpg, window).
holds(s_7468_jpg, sign).
holds(s_7468_jpg, tiledrooftop).
holds(s_7468_jpg, vendingmachine).
holds(s_7468_jpg, machine).

sample(s_2222_jpg).
holds(s_2222_jpg, building).
holds(s_2222_jpg, feature).
holds(s_2222_jpg, miscresidential).
holds(s_2222_jpg, countryhouse).
holds(s_2222_jpg, door).
holds(s_2222_jpg, window).
holds(s_2222_jpg, sign).
holds(s_2222_jpg, tiledroof).
holds(s_2222_jpg, chimney).
holds(s_2222_jpg, car).

sample(s_6794_jpg).
holds(s_6794_jpg, building).
holds(s_6794_jpg, feature).
holds(s_6794_jpg, suburban).
holds(s_6794_jpg, miscresidential).
holds(s_6794_jpg, commercial).
holds(s_6794_jpg, door).
holds(s_6794_jpg, window).
holds(s_6794_jpg, porch).
holds(s_6794_jpg, sign).
holds(s_6794_jpg, tiledroof).
holds(s_6794_jpg, vendingmachine).
holds(s_6794_jpg, car).

sample(s_11930_jpg).
holds(s_11930_jpg, building).
holds(s_11930_jpg, feature).
holds(s_11930_jpg, miscresidential).
holds(s_11930_jpg, countryhouse).
holds(s_11930_jpg, door).
holds(s_11930_jpg, window).
holds(s_11930_jpg, porch).
holds(s_11930_jpg, sign).
holds(s_11930_jpg, tiledroof).
holds(s_11930_jpg, chimney).
holds(s_11930_jpg, car).

sample(s_3582_jpg).
holds(s_3582_jpg, building).
holds(s_3582_jpg, feature).
holds(s_3582_jpg, cafe).
holds(s_3582_jpg, hotel).
holds(s_3582_jpg, misccommercial).
holds(s_3582_jpg, commercial).
holds(s_3582_jpg, door).
holds(s_3582_jpg, awning).
holds(s_3582_jpg, tiledrooftop).
holds(s_3582_jpg, vendingmachine).
holds(s_3582_jpg, chimney).
holds(s_3582_jpg, car).

sample(s_8939_jpg).
holds(s_8939_jpg, building).
holds(s_8939_jpg, feature).
holds(s_8939_jpg, suburban).
holds(s_8939_jpg, miscresidential).
holds(s_8939_jpg, commercial).
holds(s_8939_jpg, door).
holds(s_8939_jpg, window).
holds(s_8939_jpg, porch).
holds(s_8939_jpg, sign).
holds(s_8939_jpg, tiledroof).
holds(s_8939_jpg, vendingmachine).
holds(s_8939_jpg, car).

sample(s_7031_jpg).
holds(s_7031_jpg, building).
holds(s_7031_jpg, feature).
holds(s_7031_jpg, suburban).
holds(s_7031_jpg, miscresidential).
holds(s_7031_jpg, commercial).
holds(s_7031_jpg, door).
holds(s_7031_jpg, window).
holds(s_7031_jpg, porch).
holds(s_7031_jpg, sign).
holds(s_7031_jpg, tiledroof).
holds(s_7031_jpg, vendingmachine).
holds(s_7031_jpg, car).

sample(s_2833_jpg).
holds(s_2833_jpg, building).
holds(s_2833_jpg, feature).
holds(s_2833_jpg, miscindustrial).
holds(s_2833_jpg, powerplant).
holds(s_2833_jpg, watertreatment).
holds(s_2833_jpg, door).
holds(s_2833_jpg, window).
holds(s_2833_jpg, sign).
holds(s_2833_jpg, tiledrooftop).
holds(s_2833_jpg, vendingmachine).
holds(s_2833_jpg, chimney).
holds(s_2833_jpg, machine).

sample(s_5649_jpg).
holds(s_5649_jpg, building).
holds(s_5649_jpg, feature).
holds(s_5649_jpg, hotel).
holds(s_5649_jpg, store).
holds(s_5649_jpg, misccommercial).
holds(s_5649_jpg, residential).
holds(s_5649_jpg, commercial).
holds(s_5649_jpg, awning).
holds(s_5649_jpg, vendingmachine).
holds(s_5649_jpg, chimney).
holds(s_5649_jpg, car).

sample(s_5075_jpg).
holds(s_5075_jpg, building).
holds(s_5075_jpg, feature).
holds(s_5075_jpg, suburban).
holds(s_5075_jpg, miscresidential).
holds(s_5075_jpg, countryhouse).
holds(s_5075_jpg, commercial).
holds(s_5075_jpg, door).
holds(s_5075_jpg, window).
holds(s_5075_jpg, porch).
holds(s_5075_jpg, sign).
holds(s_5075_jpg, tiledroof).
holds(s_5075_jpg, vendingmachine).
holds(s_5075_jpg, car).

sample(s_14377_jpg).
holds(s_14377_jpg, building).
holds(s_14377_jpg, feature).
holds(s_14377_jpg, constructionsite).
holds(s_14377_jpg, powerplant).
holds(s_14377_jpg, commercial).
holds(s_14377_jpg, door).
holds(s_14377_jpg, window).
holds(s_14377_jpg, awning).
holds(s_14377_jpg, tiledrooftop).
holds(s_14377_jpg, vendingmachine).
holds(s_14377_jpg, chimney).

sample(s_4573_jpg).
holds(s_4573_jpg, building).
holds(s_4573_jpg, feature).
holds(s_4573_jpg, miscindustrial).
holds(s_4573_jpg, powerplant).
holds(s_4573_jpg, watertreatment).
holds(s_4573_jpg, door).
holds(s_4573_jpg, window).
holds(s_4573_jpg, tiledrooftop).
holds(s_4573_jpg, vendingmachine).
holds(s_4573_jpg, chimney).
holds(s_4573_jpg, machine).

sample(s_15820_jpg).
holds(s_15820_jpg, building).
holds(s_15820_jpg, feature).
holds(s_15820_jpg, constructionsite).
holds(s_15820_jpg, commercial).
holds(s_15820_jpg, door).
holds(s_15820_jpg, awning).
holds(s_15820_jpg, tiledrooftop).
holds(s_15820_jpg, vendingmachine).
holds(s_15820_jpg, chimney).
holds(s_15820_jpg, machine).

sample(s_8194_jpg).
holds(s_8194_jpg, building).
holds(s_8194_jpg, feature).
holds(s_8194_jpg, constructionsite).
holds(s_8194_jpg, powerplant).
holds(s_8194_jpg, commercial).
holds(s_8194_jpg, door).
holds(s_8194_jpg, awning).
holds(s_8194_jpg, tiledrooftop).
holds(s_8194_jpg, vendingmachine).
holds(s_8194_jpg, chimney).

sample(s_7873_jpg).
holds(s_7873_jpg, building).
holds(s_7873_jpg, feature).
holds(s_7873_jpg, miscindustrial).
holds(s_7873_jpg, watertreatment).
holds(s_7873_jpg, door).
holds(s_7873_jpg, window).
holds(s_7873_jpg, sign).
holds(s_7873_jpg, tiledrooftop).
holds(s_7873_jpg, vendingmachine).
holds(s_7873_jpg, machine).

sample(s_15427_jpg).
holds(s_15427_jpg, building).
holds(s_15427_jpg, feature).
holds(s_15427_jpg, miscindustrial).
holds(s_15427_jpg, powerplant).
holds(s_15427_jpg, watertreatment).
holds(s_15427_jpg, door).
holds(s_15427_jpg, window).
holds(s_15427_jpg, sign).
holds(s_15427_jpg, tiledrooftop).
holds(s_15427_jpg, vendingmachine).
holds(s_15427_jpg, chimney).
holds(s_15427_jpg, machine).

sample(s_5779_jpg).
holds(s_5779_jpg, building).
holds(s_5779_jpg, feature).
holds(s_5779_jpg, powerplant).
holds(s_5779_jpg, door).
holds(s_5779_jpg, window).
holds(s_5779_jpg, tiledrooftop).
holds(s_5779_jpg, vendingmachine).
holds(s_5779_jpg, chimney).
holds(s_5779_jpg, machine).

sample(s_5040_jpg).
holds(s_5040_jpg, building).
holds(s_5040_jpg, feature).
holds(s_5040_jpg, cafe).
holds(s_5040_jpg, hotel).
holds(s_5040_jpg, store).
holds(s_5040_jpg, misccommercial).
holds(s_5040_jpg, residential).
holds(s_5040_jpg, commercial).
holds(s_5040_jpg, awning).
holds(s_5040_jpg, vendingmachine).
holds(s_5040_jpg, chimney).
holds(s_5040_jpg, pipe).
holds(s_5040_jpg, car).

sample(s_15951_jpg).
holds(s_15951_jpg, building).
holds(s_15951_jpg, feature).
holds(s_15951_jpg, cafe).
holds(s_15951_jpg, hotel).
holds(s_15951_jpg, store).
holds(s_15951_jpg, misccommercial).
holds(s_15951_jpg, commercial).
holds(s_15951_jpg, awning).
holds(s_15951_jpg, vendingmachine).
holds(s_15951_jpg, chimney).
holds(s_15951_jpg, car).

sample(s_7196_jpg).
holds(s_7196_jpg, building).
holds(s_7196_jpg, feature).
holds(s_7196_jpg, suburban).
holds(s_7196_jpg, miscresidential).
holds(s_7196_jpg, countryhouse).
holds(s_7196_jpg, commercial).
holds(s_7196_jpg, door).
holds(s_7196_jpg, window).
holds(s_7196_jpg, porch).
holds(s_7196_jpg, sign).
holds(s_7196_jpg, tiledroof).
holds(s_7196_jpg, vendingmachine).
holds(s_7196_jpg, car).

sample(s_4594_jpg).
holds(s_4594_jpg, building).
holds(s_4594_jpg, feature).
holds(s_4594_jpg, constructionsite).
holds(s_4594_jpg, powerplant).
holds(s_4594_jpg, commercial).
holds(s_4594_jpg, door).
holds(s_4594_jpg, window).
holds(s_4594_jpg, awning).
holds(s_4594_jpg, tiledrooftop).
holds(s_4594_jpg, vendingmachine).
holds(s_4594_jpg, chimney).

sample(s_1190_jpg).
holds(s_1190_jpg, building).
holds(s_1190_jpg, feature).
holds(s_1190_jpg, suburban).
holds(s_1190_jpg, miscresidential).
holds(s_1190_jpg, commercial).
holds(s_1190_jpg, door).
holds(s_1190_jpg, window).
holds(s_1190_jpg, porch).
holds(s_1190_jpg, sign).
holds(s_1190_jpg, tiledroof).
holds(s_1190_jpg, vendingmachine).
holds(s_1190_jpg, car).

sample(s_6494_jpg).
holds(s_6494_jpg, building).
holds(s_6494_jpg, feature).
holds(s_6494_jpg, suburban).
holds(s_6494_jpg, miscresidential).
holds(s_6494_jpg, commercial).
holds(s_6494_jpg, door).
holds(s_6494_jpg, window).
holds(s_6494_jpg, porch).
holds(s_6494_jpg, sign).
holds(s_6494_jpg, tiledroof).
holds(s_6494_jpg, vendingmachine).
holds(s_6494_jpg, car).

sample(s_9610_jpg).
holds(s_9610_jpg, building).
holds(s_9610_jpg, feature).
holds(s_9610_jpg, miscindustrial).
holds(s_9610_jpg, watertreatment).
holds(s_9610_jpg, door).
holds(s_9610_jpg, window).
holds(s_9610_jpg, awning).
holds(s_9610_jpg, sign).
holds(s_9610_jpg, tiledrooftop).
holds(s_9610_jpg, vendingmachine).
holds(s_9610_jpg, chimney).
holds(s_9610_jpg, machine).

sample(s_4052_jpg).
holds(s_4052_jpg, building).
holds(s_4052_jpg, feature).
holds(s_4052_jpg, miscresidential).
holds(s_4052_jpg, countryhouse).
holds(s_4052_jpg, commercial).
holds(s_4052_jpg, door).
holds(s_4052_jpg, window).
holds(s_4052_jpg, sign).
holds(s_4052_jpg, tiledroof).
holds(s_4052_jpg, chimney).
holds(s_4052_jpg, car).

sample(s_9665_jpg).
holds(s_9665_jpg, building).
holds(s_9665_jpg, feature).
holds(s_9665_jpg, miscresidential).
holds(s_9665_jpg, commercial).
holds(s_9665_jpg, door).
holds(s_9665_jpg, window).
holds(s_9665_jpg, awning).
holds(s_9665_jpg, porch).
holds(s_9665_jpg, sign).
holds(s_9665_jpg, tiledroof).
holds(s_9665_jpg, vendingmachine).
holds(s_9665_jpg, chimney).
holds(s_9665_jpg, car).

sample(s_10513_jpg).
holds(s_10513_jpg, building).
holds(s_10513_jpg, feature).
holds(s_10513_jpg, powerplant).
holds(s_10513_jpg, commercial).
holds(s_10513_jpg, door).
holds(s_10513_jpg, window).
holds(s_10513_jpg, tiledrooftop).
holds(s_10513_jpg, vendingmachine).
holds(s_10513_jpg, chimney).

sample(s_11817_jpg).
holds(s_11817_jpg, building).
holds(s_11817_jpg, feature).
holds(s_11817_jpg, cafe).
holds(s_11817_jpg, hotel).
holds(s_11817_jpg, restaurant).
holds(s_11817_jpg, residential).
holds(s_11817_jpg, commercial).
holds(s_11817_jpg, tiledrooftop).
holds(s_11817_jpg, vendingmachine).
holds(s_11817_jpg, chimney).
holds(s_11817_jpg, pipe).
holds(s_11817_jpg, car).

sample(s_8393_jpg).
holds(s_8393_jpg, building).
holds(s_8393_jpg, feature).
holds(s_8393_jpg, suburban).
holds(s_8393_jpg, miscresidential).
holds(s_8393_jpg, commercial).
holds(s_8393_jpg, door).
holds(s_8393_jpg, window).
holds(s_8393_jpg, porch).
holds(s_8393_jpg, sign).
holds(s_8393_jpg, tiledroof).
holds(s_8393_jpg, vendingmachine).
holds(s_8393_jpg, chimney).
holds(s_8393_jpg, car).

sample(s_1474_jpg).
holds(s_1474_jpg, building).
holds(s_1474_jpg, feature).
holds(s_1474_jpg, miscindustrial).
holds(s_1474_jpg, watertreatment).
holds(s_1474_jpg, door).
holds(s_1474_jpg, window).
holds(s_1474_jpg, sign).
holds(s_1474_jpg, tiledrooftop).
holds(s_1474_jpg, vendingmachine).
holds(s_1474_jpg, chimney).
holds(s_1474_jpg, machine).

sample(s_981_jpg).
holds(s_981_jpg, building).
holds(s_981_jpg, feature).
holds(s_981_jpg, cafe).
holds(s_981_jpg, hotel).
holds(s_981_jpg, restaurant).
holds(s_981_jpg, store).
holds(s_981_jpg, residential).
holds(s_981_jpg, commercial).
holds(s_981_jpg, awning).
holds(s_981_jpg, vendingmachine).
holds(s_981_jpg, chimney).
holds(s_981_jpg, pipe).
holds(s_981_jpg, car).

sample(s_13000_jpg).
holds(s_13000_jpg, building).
holds(s_13000_jpg, feature).
holds(s_13000_jpg, constructionsite).
holds(s_13000_jpg, powerplant).
holds(s_13000_jpg, commercial).
holds(s_13000_jpg, door).
holds(s_13000_jpg, window).
holds(s_13000_jpg, awning).
holds(s_13000_jpg, tiledrooftop).
holds(s_13000_jpg, vendingmachine).
holds(s_13000_jpg, chimney).
holds(s_13000_jpg, machine).

sample(s_14742_jpg).
holds(s_14742_jpg, building).
holds(s_14742_jpg, feature).
holds(s_14742_jpg, cafe).
holds(s_14742_jpg, hotel).
holds(s_14742_jpg, misccommercial).
holds(s_14742_jpg, commercial).
holds(s_14742_jpg, door).
holds(s_14742_jpg, awning).
holds(s_14742_jpg, tiledrooftop).
holds(s_14742_jpg, vendingmachine).
holds(s_14742_jpg, chimney).
holds(s_14742_jpg, car).

sample(s_7765_jpg).
holds(s_7765_jpg, building).
holds(s_7765_jpg, feature).
holds(s_7765_jpg, constructionsite).
holds(s_7765_jpg, commercial).
holds(s_7765_jpg, door).
holds(s_7765_jpg, awning).
holds(s_7765_jpg, tiledrooftop).
holds(s_7765_jpg, vendingmachine).
holds(s_7765_jpg, chimney).
holds(s_7765_jpg, machine).

sample(s_665_jpg).
holds(s_665_jpg, building).
holds(s_665_jpg, feature).
holds(s_665_jpg, suburban).
holds(s_665_jpg, miscresidential).
holds(s_665_jpg, commercial).
holds(s_665_jpg, door).
holds(s_665_jpg, window).
holds(s_665_jpg, porch).
holds(s_665_jpg, sign).
holds(s_665_jpg, tiledroof).
holds(s_665_jpg, vendingmachine).
holds(s_665_jpg, car).

sample(s_860_jpg).
holds(s_860_jpg, building).
holds(s_860_jpg, feature).
holds(s_860_jpg, suburban).
holds(s_860_jpg, miscresidential).
holds(s_860_jpg, commercial).
holds(s_860_jpg, door).
holds(s_860_jpg, window).
holds(s_860_jpg, porch).
holds(s_860_jpg, sign).
holds(s_860_jpg, tiledroof).
holds(s_860_jpg, vendingmachine).
holds(s_860_jpg, car).

sample(s_6640_jpg).
holds(s_6640_jpg, building).
holds(s_6640_jpg, feature).
holds(s_6640_jpg, constructionsite).
holds(s_6640_jpg, powerplant).
holds(s_6640_jpg, commercial).
holds(s_6640_jpg, door).
holds(s_6640_jpg, window).
holds(s_6640_jpg, awning).
holds(s_6640_jpg, tiledrooftop).
holds(s_6640_jpg, vendingmachine).
holds(s_6640_jpg, chimney).
holds(s_6640_jpg, machine).

sample(s_12659_jpg).
holds(s_12659_jpg, building).
holds(s_12659_jpg, feature).
holds(s_12659_jpg, suburban).
holds(s_12659_jpg, miscresidential).
holds(s_12659_jpg, commercial).
holds(s_12659_jpg, door).
holds(s_12659_jpg, window).
holds(s_12659_jpg, porch).
holds(s_12659_jpg, sign).
holds(s_12659_jpg, tiledroof).
holds(s_12659_jpg, vendingmachine).
holds(s_12659_jpg, car).

sample(s_1312_jpg).
holds(s_1312_jpg, building).
holds(s_1312_jpg, feature).
holds(s_1312_jpg, miscindustrial).
holds(s_1312_jpg, powerplant).
holds(s_1312_jpg, watertreatment).
holds(s_1312_jpg, door).
holds(s_1312_jpg, window).
holds(s_1312_jpg, sign).
holds(s_1312_jpg, tiledrooftop).
holds(s_1312_jpg, chimney).
holds(s_1312_jpg, machine).

sample(s_3118_jpg).
holds(s_3118_jpg, building).
holds(s_3118_jpg, feature).
holds(s_3118_jpg, miscindustrial).
holds(s_3118_jpg, powerplant).
holds(s_3118_jpg, watertreatment).
holds(s_3118_jpg, door).
holds(s_3118_jpg, window).
holds(s_3118_jpg, sign).
holds(s_3118_jpg, tiledrooftop).
holds(s_3118_jpg, chimney).
holds(s_3118_jpg, machine).

sample(s_4799_jpg).
holds(s_4799_jpg, building).
holds(s_4799_jpg, feature).
holds(s_4799_jpg, suburban).
holds(s_4799_jpg, commercial).
holds(s_4799_jpg, door).
holds(s_4799_jpg, porch).
holds(s_4799_jpg, sign).
holds(s_4799_jpg, tiledroof).
holds(s_4799_jpg, tiledrooftop).
holds(s_4799_jpg, vendingmachine).

sample(s_1581_jpg).
holds(s_1581_jpg, building).
holds(s_1581_jpg, feature).
holds(s_1581_jpg, cafe).
holds(s_1581_jpg, hotel).
holds(s_1581_jpg, restaurant).
holds(s_1581_jpg, misccommercial).
holds(s_1581_jpg, residential).
holds(s_1581_jpg, commercial).
holds(s_1581_jpg, awning).
holds(s_1581_jpg, vendingmachine).
holds(s_1581_jpg, chimney).
holds(s_1581_jpg, car).

sample(s_14531_jpg).
holds(s_14531_jpg, building).
holds(s_14531_jpg, feature).
holds(s_14531_jpg, suburban).
holds(s_14531_jpg, commercial).
holds(s_14531_jpg, door).
holds(s_14531_jpg, window).
holds(s_14531_jpg, porch).
holds(s_14531_jpg, sign).
holds(s_14531_jpg, tiledroof).
holds(s_14531_jpg, tiledrooftop).
holds(s_14531_jpg, vendingmachine).

sample(s_2951_jpg).
holds(s_2951_jpg, building).
holds(s_2951_jpg, feature).
holds(s_2951_jpg, miscresidential).
holds(s_2951_jpg, commercial).
holds(s_2951_jpg, door).
holds(s_2951_jpg, window).
holds(s_2951_jpg, awning).
holds(s_2951_jpg, porch).
holds(s_2951_jpg, sign).
holds(s_2951_jpg, tiledroof).
holds(s_2951_jpg, vendingmachine).
holds(s_2951_jpg, chimney).
holds(s_2951_jpg, car).

sample(s_2028_jpg).
holds(s_2028_jpg, building).
holds(s_2028_jpg, feature).
holds(s_2028_jpg, cafe).
holds(s_2028_jpg, hotel).
holds(s_2028_jpg, store).
holds(s_2028_jpg, misccommercial).
holds(s_2028_jpg, commercial).
holds(s_2028_jpg, awning).
holds(s_2028_jpg, vendingmachine).
holds(s_2028_jpg, chimney).
holds(s_2028_jpg, car).

sample(s_6983_jpg).
holds(s_6983_jpg, building).
holds(s_6983_jpg, feature).
holds(s_6983_jpg, suburban).
holds(s_6983_jpg, miscresidential).
holds(s_6983_jpg, countryhouse).
holds(s_6983_jpg, door).
holds(s_6983_jpg, window).
holds(s_6983_jpg, porch).
holds(s_6983_jpg, sign).
holds(s_6983_jpg, tiledroof).
holds(s_6983_jpg, chimney).
holds(s_6983_jpg, car).

sample(s_11215_jpg).
holds(s_11215_jpg, building).
holds(s_11215_jpg, feature).
holds(s_11215_jpg, miscindustrial).
holds(s_11215_jpg, powerplant).
holds(s_11215_jpg, watertreatment).
holds(s_11215_jpg, door).
holds(s_11215_jpg, window).
holds(s_11215_jpg, sign).
holds(s_11215_jpg, tiledrooftop).
holds(s_11215_jpg, vendingmachine).
holds(s_11215_jpg, chimney).
holds(s_11215_jpg, machine).

sample(s_14477_jpg).
holds(s_14477_jpg, building).
holds(s_14477_jpg, feature).
holds(s_14477_jpg, suburban).
holds(s_14477_jpg, miscresidential).
holds(s_14477_jpg, countryhouse).
holds(s_14477_jpg, door).
holds(s_14477_jpg, window).
holds(s_14477_jpg, porch).
holds(s_14477_jpg, sign).
holds(s_14477_jpg, tiledroof).
holds(s_14477_jpg, car).

sample(s_356_jpg).
holds(s_356_jpg, building).
holds(s_356_jpg, feature).
holds(s_356_jpg, suburban).
holds(s_356_jpg, commercial).
holds(s_356_jpg, door).
holds(s_356_jpg, window).
holds(s_356_jpg, porch).
holds(s_356_jpg, sign).
holds(s_356_jpg, tiledroof).
holds(s_356_jpg, tiledrooftop).
holds(s_356_jpg, vendingmachine).

sample(s_11816_jpg).
holds(s_11816_jpg, building).
holds(s_11816_jpg, feature).
holds(s_11816_jpg, suburban).
holds(s_11816_jpg, miscresidential).
holds(s_11816_jpg, commercial).
holds(s_11816_jpg, door).
holds(s_11816_jpg, window).
holds(s_11816_jpg, porch).
holds(s_11816_jpg, sign).
holds(s_11816_jpg, tiledroof).
holds(s_11816_jpg, vendingmachine).
holds(s_11816_jpg, car).

sample(s_11208_jpg).
holds(s_11208_jpg, building).
holds(s_11208_jpg, feature).
holds(s_11208_jpg, cafe).
holds(s_11208_jpg, hotel).
holds(s_11208_jpg, misccommercial).
holds(s_11208_jpg, residential).
holds(s_11208_jpg, commercial).
holds(s_11208_jpg, awning).
holds(s_11208_jpg, vendingmachine).
holds(s_11208_jpg, chimney).
holds(s_11208_jpg, car).

sample(s_2263_jpg).
holds(s_2263_jpg, building).
holds(s_2263_jpg, feature).
holds(s_2263_jpg, powerplant).
holds(s_2263_jpg, door).
holds(s_2263_jpg, window).
holds(s_2263_jpg, awning).
holds(s_2263_jpg, sign).
holds(s_2263_jpg, tiledrooftop).
holds(s_2263_jpg, vendingmachine).
holds(s_2263_jpg, chimney).
holds(s_2263_jpg, machine).

sample(s_15629_jpg).
holds(s_15629_jpg, building).
holds(s_15629_jpg, feature).
holds(s_15629_jpg, suburban).
holds(s_15629_jpg, miscresidential).
holds(s_15629_jpg, commercial).
holds(s_15629_jpg, door).
holds(s_15629_jpg, window).
holds(s_15629_jpg, porch).
holds(s_15629_jpg, sign).
holds(s_15629_jpg, tiledroof).
holds(s_15629_jpg, vendingmachine).
holds(s_15629_jpg, car).

sample(s_695_jpg).
holds(s_695_jpg, building).
holds(s_695_jpg, feature).
holds(s_695_jpg, miscresidential).
holds(s_695_jpg, countryhouse).
holds(s_695_jpg, door).
holds(s_695_jpg, window).
holds(s_695_jpg, porch).
holds(s_695_jpg, sign).
holds(s_695_jpg, tiledroof).
holds(s_695_jpg, chimney).
holds(s_695_jpg, car).

sample(s_8306_jpg).
holds(s_8306_jpg, building).
holds(s_8306_jpg, feature).
holds(s_8306_jpg, suburban).
holds(s_8306_jpg, miscresidential).
holds(s_8306_jpg, commercial).
holds(s_8306_jpg, door).
holds(s_8306_jpg, window).
holds(s_8306_jpg, porch).
holds(s_8306_jpg, sign).
holds(s_8306_jpg, tiledroof).
holds(s_8306_jpg, vendingmachine).
holds(s_8306_jpg, car).

sample(s_10059_jpg).
holds(s_10059_jpg, building).
holds(s_10059_jpg, feature).
holds(s_10059_jpg, cafe).
holds(s_10059_jpg, hotel).
holds(s_10059_jpg, restaurant).
holds(s_10059_jpg, misccommercial).
holds(s_10059_jpg, residential).
holds(s_10059_jpg, commercial).
holds(s_10059_jpg, awning).
holds(s_10059_jpg, tiledrooftop).
holds(s_10059_jpg, vendingmachine).
holds(s_10059_jpg, chimney).
holds(s_10059_jpg, pipe).
holds(s_10059_jpg, car).

sample(s_7213_jpg).
holds(s_7213_jpg, building).
holds(s_7213_jpg, feature).
holds(s_7213_jpg, powerplant).
holds(s_7213_jpg, commercial).
holds(s_7213_jpg, door).
holds(s_7213_jpg, window).
holds(s_7213_jpg, awning).
holds(s_7213_jpg, tiledrooftop).
holds(s_7213_jpg, vendingmachine).
holds(s_7213_jpg, chimney).
holds(s_7213_jpg, machine).

sample(s_10665_jpg).
holds(s_10665_jpg, building).
holds(s_10665_jpg, feature).
holds(s_10665_jpg, cafe).
holds(s_10665_jpg, hotel).
holds(s_10665_jpg, restaurant).
holds(s_10665_jpg, store).
holds(s_10665_jpg, misccommercial).
holds(s_10665_jpg, residential).
holds(s_10665_jpg, commercial).
holds(s_10665_jpg, awning).
holds(s_10665_jpg, vendingmachine).
holds(s_10665_jpg, chimney).
holds(s_10665_jpg, pipe).
holds(s_10665_jpg, car).

sample(s_14470_jpg).
holds(s_14470_jpg, building).
holds(s_14470_jpg, feature).
holds(s_14470_jpg, miscindustrial).
holds(s_14470_jpg, watertreatment).
holds(s_14470_jpg, door).
holds(s_14470_jpg, window).
holds(s_14470_jpg, sign).
holds(s_14470_jpg, tiledrooftop).
holds(s_14470_jpg, vendingmachine).
holds(s_14470_jpg, chimney).
holds(s_14470_jpg, machine).

sample(s_109_jpg).
holds(s_109_jpg, building).
holds(s_109_jpg, feature).
holds(s_109_jpg, miscindustrial).
holds(s_109_jpg, powerplant).
holds(s_109_jpg, watertreatment).
holds(s_109_jpg, door).
holds(s_109_jpg, window).
holds(s_109_jpg, sign).
holds(s_109_jpg, tiledrooftop).
holds(s_109_jpg, chimney).
holds(s_109_jpg, machine).

sample(s_10593_jpg).
holds(s_10593_jpg, building).
holds(s_10593_jpg, feature).
holds(s_10593_jpg, cafe).
holds(s_10593_jpg, hotel).
holds(s_10593_jpg, store).
holds(s_10593_jpg, misccommercial).
holds(s_10593_jpg, commercial).
holds(s_10593_jpg, awning).
holds(s_10593_jpg, vendingmachine).
holds(s_10593_jpg, chimney).
holds(s_10593_jpg, car).

sample(s_2184_jpg).
holds(s_2184_jpg, building).
holds(s_2184_jpg, feature).
holds(s_2184_jpg, cafe).
holds(s_2184_jpg, hotel).
holds(s_2184_jpg, restaurant).
holds(s_2184_jpg, store).
holds(s_2184_jpg, residential).
holds(s_2184_jpg, commercial).
holds(s_2184_jpg, awning).
holds(s_2184_jpg, tiledrooftop).
holds(s_2184_jpg, vendingmachine).
holds(s_2184_jpg, chimney).
holds(s_2184_jpg, pipe).
holds(s_2184_jpg, car).

sample(s_9631_jpg).
holds(s_9631_jpg, building).
holds(s_9631_jpg, feature).
holds(s_9631_jpg, miscindustrial).
holds(s_9631_jpg, watertreatment).
holds(s_9631_jpg, door).
holds(s_9631_jpg, window).
holds(s_9631_jpg, sign).
holds(s_9631_jpg, tiledrooftop).
holds(s_9631_jpg, vendingmachine).
holds(s_9631_jpg, machine).

sample(s_9404_jpg).
holds(s_9404_jpg, building).
holds(s_9404_jpg, feature).
holds(s_9404_jpg, suburban).
holds(s_9404_jpg, miscresidential).
holds(s_9404_jpg, countryhouse).
holds(s_9404_jpg, commercial).
holds(s_9404_jpg, door).
holds(s_9404_jpg, window).
holds(s_9404_jpg, porch).
holds(s_9404_jpg, sign).
holds(s_9404_jpg, tiledroof).
holds(s_9404_jpg, vendingmachine).
holds(s_9404_jpg, car).

sample(s_12750_jpg).
holds(s_12750_jpg, building).
holds(s_12750_jpg, feature).
holds(s_12750_jpg, cafe).
holds(s_12750_jpg, hotel).
holds(s_12750_jpg, misccommercial).
holds(s_12750_jpg, commercial).
holds(s_12750_jpg, door).
holds(s_12750_jpg, awning).
holds(s_12750_jpg, tiledrooftop).
holds(s_12750_jpg, vendingmachine).
holds(s_12750_jpg, chimney).
holds(s_12750_jpg, car).

sample(s_8549_jpg).
holds(s_8549_jpg, building).
holds(s_8549_jpg, feature).
holds(s_8549_jpg, miscresidential).
holds(s_8549_jpg, countryhouse).
holds(s_8549_jpg, door).
holds(s_8549_jpg, window).
holds(s_8549_jpg, porch).
holds(s_8549_jpg, sign).
holds(s_8549_jpg, tiledroof).
holds(s_8549_jpg, chimney).
holds(s_8549_jpg, car).

sample(s_12481_jpg).
holds(s_12481_jpg, building).
holds(s_12481_jpg, feature).
holds(s_12481_jpg, constructionsite).
holds(s_12481_jpg, commercial).
holds(s_12481_jpg, door).
holds(s_12481_jpg, awning).
holds(s_12481_jpg, tiledrooftop).
holds(s_12481_jpg, vendingmachine).
holds(s_12481_jpg, chimney).
holds(s_12481_jpg, machine).

sample(s_2351_jpg).
holds(s_2351_jpg, building).
holds(s_2351_jpg, feature).
holds(s_2351_jpg, miscresidential).
holds(s_2351_jpg, door).
holds(s_2351_jpg, window).
holds(s_2351_jpg, porch).
holds(s_2351_jpg, sign).
holds(s_2351_jpg, tiledroof).
holds(s_2351_jpg, vendingmachine).
holds(s_2351_jpg, chimney).
holds(s_2351_jpg, car).

sample(s_235_jpg).
holds(s_235_jpg, building).
holds(s_235_jpg, feature).
holds(s_235_jpg, miscindustrial).
holds(s_235_jpg, watertreatment).
holds(s_235_jpg, door).
holds(s_235_jpg, window).
holds(s_235_jpg, sign).
holds(s_235_jpg, tiledrooftop).
holds(s_235_jpg, vendingmachine).
holds(s_235_jpg, machine).

sample(s_8560_jpg).
holds(s_8560_jpg, building).
holds(s_8560_jpg, feature).
holds(s_8560_jpg, powerplant).
holds(s_8560_jpg, commercial).
holds(s_8560_jpg, door).
holds(s_8560_jpg, window).
holds(s_8560_jpg, awning).
holds(s_8560_jpg, tiledrooftop).
holds(s_8560_jpg, vendingmachine).
holds(s_8560_jpg, chimney).
holds(s_8560_jpg, machine).

sample(s_1786_jpg).
holds(s_1786_jpg, building).
holds(s_1786_jpg, feature).
holds(s_1786_jpg, miscindustrial).
holds(s_1786_jpg, powerplant).
holds(s_1786_jpg, watertreatment).
holds(s_1786_jpg, door).
holds(s_1786_jpg, window).
holds(s_1786_jpg, sign).
holds(s_1786_jpg, tiledrooftop).
holds(s_1786_jpg, vendingmachine).
holds(s_1786_jpg, chimney).
holds(s_1786_jpg, machine).

sample(s_808_jpg).
holds(s_808_jpg, building).
holds(s_808_jpg, feature).
holds(s_808_jpg, miscindustrial).
holds(s_808_jpg, watertreatment).
holds(s_808_jpg, door).
holds(s_808_jpg, window).
holds(s_808_jpg, awning).
holds(s_808_jpg, sign).
holds(s_808_jpg, tiledrooftop).
holds(s_808_jpg, vendingmachine).
holds(s_808_jpg, machine).

sample(s_8181_jpg).
holds(s_8181_jpg, building).
holds(s_8181_jpg, feature).
holds(s_8181_jpg, cafe).
holds(s_8181_jpg, hotel).
holds(s_8181_jpg, store).
holds(s_8181_jpg, misccommercial).
holds(s_8181_jpg, residential).
holds(s_8181_jpg, commercial).
holds(s_8181_jpg, awning).
holds(s_8181_jpg, vendingmachine).
holds(s_8181_jpg, chimney).
holds(s_8181_jpg, pipe).
holds(s_8181_jpg, car).

sample(s_2131_jpg).
holds(s_2131_jpg, building).
holds(s_2131_jpg, feature).
holds(s_2131_jpg, miscindustrial).
holds(s_2131_jpg, watertreatment).
holds(s_2131_jpg, door).
holds(s_2131_jpg, window).
holds(s_2131_jpg, sign).
holds(s_2131_jpg, tiledrooftop).
holds(s_2131_jpg, vendingmachine).
holds(s_2131_jpg, chimney).
holds(s_2131_jpg, machine).

sample(s_15065_jpg).
holds(s_15065_jpg, building).
holds(s_15065_jpg, feature).
holds(s_15065_jpg, suburban).
holds(s_15065_jpg, miscresidential).
holds(s_15065_jpg, countryhouse).
holds(s_15065_jpg, door).
holds(s_15065_jpg, window).
holds(s_15065_jpg, porch).
holds(s_15065_jpg, sign).
holds(s_15065_jpg, tiledroof).
holds(s_15065_jpg, car).

sample(s_2598_jpg).
holds(s_2598_jpg, building).
holds(s_2598_jpg, feature).
holds(s_2598_jpg, cafe).
holds(s_2598_jpg, hotel).
holds(s_2598_jpg, store).
holds(s_2598_jpg, misccommercial).
holds(s_2598_jpg, commercial).
holds(s_2598_jpg, awning).
holds(s_2598_jpg, vendingmachine).
holds(s_2598_jpg, chimney).
holds(s_2598_jpg, car).

sample(s_2428_jpg).
holds(s_2428_jpg, building).
holds(s_2428_jpg, feature).
holds(s_2428_jpg, constructionsite).
holds(s_2428_jpg, powerplant).
holds(s_2428_jpg, commercial).
holds(s_2428_jpg, door).
holds(s_2428_jpg, awning).
holds(s_2428_jpg, tiledrooftop).
holds(s_2428_jpg, vendingmachine).
holds(s_2428_jpg, chimney).
holds(s_2428_jpg, machine).

sample(s_3985_jpg).
holds(s_3985_jpg, building).
holds(s_3985_jpg, feature).
holds(s_3985_jpg, miscindustrial).
holds(s_3985_jpg, watertreatment).
holds(s_3985_jpg, door).
holds(s_3985_jpg, window).
holds(s_3985_jpg, sign).
holds(s_3985_jpg, tiledrooftop).
holds(s_3985_jpg, vendingmachine).
holds(s_3985_jpg, chimney).
holds(s_3985_jpg, machine).

sample(s_12797_jpg).
holds(s_12797_jpg, building).
holds(s_12797_jpg, feature).
holds(s_12797_jpg, suburban).
holds(s_12797_jpg, miscresidential).
holds(s_12797_jpg, commercial).
holds(s_12797_jpg, door).
holds(s_12797_jpg, window).
holds(s_12797_jpg, porch).
holds(s_12797_jpg, sign).
holds(s_12797_jpg, tiledroof).
holds(s_12797_jpg, vendingmachine).
holds(s_12797_jpg, car).

sample(s_12509_jpg).
holds(s_12509_jpg, building).
holds(s_12509_jpg, feature).
holds(s_12509_jpg, suburban).
holds(s_12509_jpg, miscresidential).
holds(s_12509_jpg, commercial).
holds(s_12509_jpg, door).
holds(s_12509_jpg, window).
holds(s_12509_jpg, porch).
holds(s_12509_jpg, sign).
holds(s_12509_jpg, tiledroof).
holds(s_12509_jpg, vendingmachine).
holds(s_12509_jpg, car).

sample(s_5070_jpg).
holds(s_5070_jpg, building).
holds(s_5070_jpg, feature).
holds(s_5070_jpg, cafe).
holds(s_5070_jpg, store).
holds(s_5070_jpg, residential).
holds(s_5070_jpg, commercial).
holds(s_5070_jpg, awning).
holds(s_5070_jpg, vendingmachine).
holds(s_5070_jpg, chimney).
holds(s_5070_jpg, car).

sample(s_414_jpg).
holds(s_414_jpg, building).
holds(s_414_jpg, feature).
holds(s_414_jpg, cafe).
holds(s_414_jpg, hotel).
holds(s_414_jpg, restaurant).
holds(s_414_jpg, store).
holds(s_414_jpg, misccommercial).
holds(s_414_jpg, residential).
holds(s_414_jpg, commercial).
holds(s_414_jpg, awning).
holds(s_414_jpg, vendingmachine).
holds(s_414_jpg, chimney).
holds(s_414_jpg, pipe).
holds(s_414_jpg, car).

sample(s_3771_jpg).
holds(s_3771_jpg, building).
holds(s_3771_jpg, feature).
holds(s_3771_jpg, cafe).
holds(s_3771_jpg, hotel).
holds(s_3771_jpg, restaurant).
holds(s_3771_jpg, store).
holds(s_3771_jpg, residential).
holds(s_3771_jpg, commercial).
holds(s_3771_jpg, vendingmachine).
holds(s_3771_jpg, chimney).
holds(s_3771_jpg, pipe).
holds(s_3771_jpg, car).

sample(s_3309_jpg).
holds(s_3309_jpg, building).
holds(s_3309_jpg, feature).
holds(s_3309_jpg, cafe).
holds(s_3309_jpg, store).
holds(s_3309_jpg, misccommercial).
holds(s_3309_jpg, commercial).
holds(s_3309_jpg, awning).
holds(s_3309_jpg, vendingmachine).
holds(s_3309_jpg, chimney).
holds(s_3309_jpg, car).

sample(s_8276_jpg).
holds(s_8276_jpg, building).
holds(s_8276_jpg, feature).
holds(s_8276_jpg, suburban).
holds(s_8276_jpg, miscresidential).
holds(s_8276_jpg, countryhouse).
holds(s_8276_jpg, door).
holds(s_8276_jpg, window).
holds(s_8276_jpg, porch).
holds(s_8276_jpg, sign).
holds(s_8276_jpg, tiledroof).
holds(s_8276_jpg, car).

sample(s_3000_jpg).
holds(s_3000_jpg, building).
holds(s_3000_jpg, feature).
holds(s_3000_jpg, cafe).
holds(s_3000_jpg, hotel).
holds(s_3000_jpg, restaurant).
holds(s_3000_jpg, store).
holds(s_3000_jpg, misccommercial).
holds(s_3000_jpg, residential).
holds(s_3000_jpg, commercial).
holds(s_3000_jpg, awning).
holds(s_3000_jpg, vendingmachine).
holds(s_3000_jpg, chimney).
holds(s_3000_jpg, pipe).
holds(s_3000_jpg, car).

sample(s_12904_jpg).
holds(s_12904_jpg, building).
holds(s_12904_jpg, feature).
holds(s_12904_jpg, miscindustrial).
holds(s_12904_jpg, watertreatment).
holds(s_12904_jpg, door).
holds(s_12904_jpg, window).
holds(s_12904_jpg, sign).
holds(s_12904_jpg, tiledrooftop).
holds(s_12904_jpg, vendingmachine).
holds(s_12904_jpg, machine).

sample(s_10026_jpg).
holds(s_10026_jpg, building).
holds(s_10026_jpg, feature).
holds(s_10026_jpg, cafe).
holds(s_10026_jpg, hotel).
holds(s_10026_jpg, restaurant).
holds(s_10026_jpg, misccommercial).
holds(s_10026_jpg, residential).
holds(s_10026_jpg, commercial).
holds(s_10026_jpg, awning).
holds(s_10026_jpg, vendingmachine).
holds(s_10026_jpg, chimney).
holds(s_10026_jpg, car).

sample(s_3641_jpg).
holds(s_3641_jpg, building).
holds(s_3641_jpg, feature).
holds(s_3641_jpg, suburban).
holds(s_3641_jpg, miscresidential).
holds(s_3641_jpg, countryhouse).
holds(s_3641_jpg, door).
holds(s_3641_jpg, window).
holds(s_3641_jpg, porch).
holds(s_3641_jpg, sign).
holds(s_3641_jpg, tiledroof).
holds(s_3641_jpg, car).

sample(s_15880_jpg).
holds(s_15880_jpg, building).
holds(s_15880_jpg, feature).
holds(s_15880_jpg, miscindustrial).
holds(s_15880_jpg, watertreatment).
holds(s_15880_jpg, door).
holds(s_15880_jpg, window).
holds(s_15880_jpg, sign).
holds(s_15880_jpg, tiledrooftop).
holds(s_15880_jpg, vendingmachine).
holds(s_15880_jpg, machine).

sample(s_11653_jpg).
holds(s_11653_jpg, building).
holds(s_11653_jpg, feature).
holds(s_11653_jpg, miscindustrial).
holds(s_11653_jpg, watertreatment).
holds(s_11653_jpg, door).
holds(s_11653_jpg, window).
holds(s_11653_jpg, awning).
holds(s_11653_jpg, sign).
holds(s_11653_jpg, tiledrooftop).
holds(s_11653_jpg, vendingmachine).
holds(s_11653_jpg, machine).

sample(s_9046_jpg).
holds(s_9046_jpg, building).
holds(s_9046_jpg, feature).
holds(s_9046_jpg, powerplant).
holds(s_9046_jpg, door).
holds(s_9046_jpg, window).
holds(s_9046_jpg, sign).
holds(s_9046_jpg, tiledrooftop).
holds(s_9046_jpg, vendingmachine).
holds(s_9046_jpg, chimney).
holds(s_9046_jpg, machine).

sample(s_10223_jpg).
holds(s_10223_jpg, building).
holds(s_10223_jpg, feature).
holds(s_10223_jpg, miscresidential).
holds(s_10223_jpg, countryhouse).
holds(s_10223_jpg, door).
holds(s_10223_jpg, window).
holds(s_10223_jpg, porch).
holds(s_10223_jpg, sign).
holds(s_10223_jpg, tiledroof).
holds(s_10223_jpg, chimney).
holds(s_10223_jpg, car).

sample(s_1473_jpg).
holds(s_1473_jpg, building).
holds(s_1473_jpg, feature).
holds(s_1473_jpg, cafe).
holds(s_1473_jpg, hotel).
holds(s_1473_jpg, store).
holds(s_1473_jpg, misccommercial).
holds(s_1473_jpg, residential).
holds(s_1473_jpg, commercial).
holds(s_1473_jpg, awning).
holds(s_1473_jpg, vendingmachine).
holds(s_1473_jpg, chimney).
holds(s_1473_jpg, pipe).
holds(s_1473_jpg, car).

sample(s_14165_jpg).
holds(s_14165_jpg, building).
holds(s_14165_jpg, feature).
holds(s_14165_jpg, suburban).
holds(s_14165_jpg, miscresidential).
holds(s_14165_jpg, commercial).
holds(s_14165_jpg, door).
holds(s_14165_jpg, window).
holds(s_14165_jpg, porch).
holds(s_14165_jpg, sign).
holds(s_14165_jpg, tiledroof).
holds(s_14165_jpg, vendingmachine).
holds(s_14165_jpg, car).

sample(s_14423_jpg).
holds(s_14423_jpg, building).
holds(s_14423_jpg, feature).
holds(s_14423_jpg, miscresidential).
holds(s_14423_jpg, door).
holds(s_14423_jpg, window).
holds(s_14423_jpg, awning).
holds(s_14423_jpg, porch).
holds(s_14423_jpg, sign).
holds(s_14423_jpg, tiledroof).
holds(s_14423_jpg, vendingmachine).
holds(s_14423_jpg, chimney).
holds(s_14423_jpg, car).

sample(s_4162_jpg).
holds(s_4162_jpg, building).
holds(s_4162_jpg, feature).
holds(s_4162_jpg, powerplant).
holds(s_4162_jpg, door).
holds(s_4162_jpg, window).
holds(s_4162_jpg, sign).
holds(s_4162_jpg, tiledrooftop).
holds(s_4162_jpg, vendingmachine).
holds(s_4162_jpg, chimney).
holds(s_4162_jpg, machine).

sample(s_3054_jpg).
holds(s_3054_jpg, building).
holds(s_3054_jpg, feature).
holds(s_3054_jpg, cafe).
holds(s_3054_jpg, hotel).
holds(s_3054_jpg, misccommercial).
holds(s_3054_jpg, commercial).
holds(s_3054_jpg, door).
holds(s_3054_jpg, window).
holds(s_3054_jpg, awning).
holds(s_3054_jpg, vendingmachine).
holds(s_3054_jpg, chimney).
holds(s_3054_jpg, car).

sample(s_5834_jpg).
holds(s_5834_jpg, building).
holds(s_5834_jpg, feature).
holds(s_5834_jpg, miscresidential).
holds(s_5834_jpg, commercial).
holds(s_5834_jpg, door).
holds(s_5834_jpg, window).
holds(s_5834_jpg, awning).
holds(s_5834_jpg, porch).
holds(s_5834_jpg, sign).
holds(s_5834_jpg, tiledroof).
holds(s_5834_jpg, vendingmachine).
holds(s_5834_jpg, car).

sample(s_13608_jpg).
holds(s_13608_jpg, building).
holds(s_13608_jpg, feature).
holds(s_13608_jpg, cafe).
holds(s_13608_jpg, hotel).
holds(s_13608_jpg, store).
holds(s_13608_jpg, misccommercial).
holds(s_13608_jpg, residential).
holds(s_13608_jpg, commercial).
holds(s_13608_jpg, awning).
holds(s_13608_jpg, vendingmachine).
holds(s_13608_jpg, chimney).
holds(s_13608_jpg, pipe).
holds(s_13608_jpg, car).

sample(s_6622_jpg).
holds(s_6622_jpg, building).
holds(s_6622_jpg, feature).
holds(s_6622_jpg, powerplant).
holds(s_6622_jpg, door).
holds(s_6622_jpg, window).
holds(s_6622_jpg, sign).
holds(s_6622_jpg, tiledrooftop).
holds(s_6622_jpg, vendingmachine).
holds(s_6622_jpg, chimney).
holds(s_6622_jpg, machine).

sample(s_1939_jpg).
holds(s_1939_jpg, building).
holds(s_1939_jpg, feature).
holds(s_1939_jpg, miscindustrial).
holds(s_1939_jpg, watertreatment).
holds(s_1939_jpg, door).
holds(s_1939_jpg, window).
holds(s_1939_jpg, sign).
holds(s_1939_jpg, tiledrooftop).
holds(s_1939_jpg, vendingmachine).
holds(s_1939_jpg, chimney).
holds(s_1939_jpg, machine).

sample(s_10599_jpg).
holds(s_10599_jpg, building).
holds(s_10599_jpg, feature).
holds(s_10599_jpg, hotel).
holds(s_10599_jpg, restaurant).
holds(s_10599_jpg, store).
holds(s_10599_jpg, misccommercial).
holds(s_10599_jpg, residential).
holds(s_10599_jpg, commercial).
holds(s_10599_jpg, awning).
holds(s_10599_jpg, vendingmachine).
holds(s_10599_jpg, chimney).
holds(s_10599_jpg, pipe).
holds(s_10599_jpg, car).

sample(s_9315_jpg).
holds(s_9315_jpg, building).
holds(s_9315_jpg, feature).
holds(s_9315_jpg, cafe).
holds(s_9315_jpg, restaurant).
holds(s_9315_jpg, store).
holds(s_9315_jpg, misccommercial).
holds(s_9315_jpg, residential).
holds(s_9315_jpg, commercial).
holds(s_9315_jpg, awning).
holds(s_9315_jpg, vendingmachine).
holds(s_9315_jpg, chimney).
holds(s_9315_jpg, pipe).
holds(s_9315_jpg, car).

sample(s_9345_jpg).
holds(s_9345_jpg, building).
holds(s_9345_jpg, feature).
holds(s_9345_jpg, cafe).
holds(s_9345_jpg, hotel).
holds(s_9345_jpg, restaurant).
holds(s_9345_jpg, misccommercial).
holds(s_9345_jpg, residential).
holds(s_9345_jpg, commercial).
holds(s_9345_jpg, awning).
holds(s_9345_jpg, vendingmachine).
holds(s_9345_jpg, chimney).
holds(s_9345_jpg, car).

sample(s_12116_jpg).
holds(s_12116_jpg, building).
holds(s_12116_jpg, feature).
holds(s_12116_jpg, suburban).
holds(s_12116_jpg, commercial).
holds(s_12116_jpg, door).
holds(s_12116_jpg, window).
holds(s_12116_jpg, porch).
holds(s_12116_jpg, sign).
holds(s_12116_jpg, tiledroof).
holds(s_12116_jpg, tiledrooftop).
holds(s_12116_jpg, vendingmachine).

sample(s_1821_jpg).
holds(s_1821_jpg, building).
holds(s_1821_jpg, feature).
holds(s_1821_jpg, cafe).
holds(s_1821_jpg, hotel).
holds(s_1821_jpg, misccommercial).
holds(s_1821_jpg, commercial).
holds(s_1821_jpg, door).
holds(s_1821_jpg, window).
holds(s_1821_jpg, awning).
holds(s_1821_jpg, tiledrooftop).
holds(s_1821_jpg, vendingmachine).
holds(s_1821_jpg, chimney).
holds(s_1821_jpg, car).

sample(s_7954_jpg).
holds(s_7954_jpg, building).
holds(s_7954_jpg, feature).
holds(s_7954_jpg, miscindustrial).
holds(s_7954_jpg, watertreatment).
holds(s_7954_jpg, door).
holds(s_7954_jpg, window).
holds(s_7954_jpg, sign).
holds(s_7954_jpg, tiledrooftop).
holds(s_7954_jpg, vendingmachine).
holds(s_7954_jpg, machine).

sample(s_2553_jpg).
holds(s_2553_jpg, building).
holds(s_2553_jpg, feature).
holds(s_2553_jpg, cafe).
holds(s_2553_jpg, restaurant).
holds(s_2553_jpg, store).
holds(s_2553_jpg, misccommercial).
holds(s_2553_jpg, residential).
holds(s_2553_jpg, commercial).
holds(s_2553_jpg, awning).
holds(s_2553_jpg, vendingmachine).
holds(s_2553_jpg, chimney).
holds(s_2553_jpg, pipe).
holds(s_2553_jpg, car).

sample(s_15965_jpg).
holds(s_15965_jpg, building).
holds(s_15965_jpg, feature).
holds(s_15965_jpg, suburban).
holds(s_15965_jpg, miscresidential).
holds(s_15965_jpg, countryhouse).
holds(s_15965_jpg, door).
holds(s_15965_jpg, window).
holds(s_15965_jpg, porch).
holds(s_15965_jpg, sign).
holds(s_15965_jpg, tiledroof).
holds(s_15965_jpg, car).

sample(s_7975_jpg).
holds(s_7975_jpg, building).
holds(s_7975_jpg, feature).
holds(s_7975_jpg, miscindustrial).
holds(s_7975_jpg, powerplant).
holds(s_7975_jpg, watertreatment).
holds(s_7975_jpg, door).
holds(s_7975_jpg, window).
holds(s_7975_jpg, sign).
holds(s_7975_jpg, tiledrooftop).
holds(s_7975_jpg, vendingmachine).
holds(s_7975_jpg, chimney).
holds(s_7975_jpg, machine).

sample(s_7735_jpg).
holds(s_7735_jpg, building).
holds(s_7735_jpg, feature).
holds(s_7735_jpg, powerplant).
holds(s_7735_jpg, door).
holds(s_7735_jpg, window).
holds(s_7735_jpg, tiledrooftop).
holds(s_7735_jpg, vendingmachine).
holds(s_7735_jpg, chimney).
holds(s_7735_jpg, machine).

sample(s_10612_jpg).
holds(s_10612_jpg, building).
holds(s_10612_jpg, feature).
holds(s_10612_jpg, miscindustrial).
holds(s_10612_jpg, watertreatment).
holds(s_10612_jpg, door).
holds(s_10612_jpg, window).
holds(s_10612_jpg, sign).
holds(s_10612_jpg, tiledrooftop).
holds(s_10612_jpg, vendingmachine).
holds(s_10612_jpg, machine).

sample(s_7907_jpg).
holds(s_7907_jpg, building).
holds(s_7907_jpg, feature).
holds(s_7907_jpg, suburban).
holds(s_7907_jpg, miscresidential).
holds(s_7907_jpg, commercial).
holds(s_7907_jpg, door).
holds(s_7907_jpg, window).
holds(s_7907_jpg, porch).
holds(s_7907_jpg, sign).
holds(s_7907_jpg, tiledroof).
holds(s_7907_jpg, vendingmachine).
holds(s_7907_jpg, car).

sample(s_14091_jpg).
holds(s_14091_jpg, building).
holds(s_14091_jpg, feature).
holds(s_14091_jpg, cafe).
holds(s_14091_jpg, hotel).
holds(s_14091_jpg, restaurant).
holds(s_14091_jpg, store).
holds(s_14091_jpg, residential).
holds(s_14091_jpg, commercial).
holds(s_14091_jpg, awning).
holds(s_14091_jpg, vendingmachine).
holds(s_14091_jpg, chimney).
holds(s_14091_jpg, pipe).
holds(s_14091_jpg, car).

sample(s_696_jpg).
holds(s_696_jpg, building).
holds(s_696_jpg, feature).
holds(s_696_jpg, cafe).
holds(s_696_jpg, hotel).
holds(s_696_jpg, store).
holds(s_696_jpg, misccommercial).
holds(s_696_jpg, commercial).
holds(s_696_jpg, awning).
holds(s_696_jpg, vendingmachine).
holds(s_696_jpg, chimney).
holds(s_696_jpg, car).

sample(s_15924_jpg).
holds(s_15924_jpg, building).
holds(s_15924_jpg, feature).
holds(s_15924_jpg, cafe).
holds(s_15924_jpg, hotel).
holds(s_15924_jpg, residential).
holds(s_15924_jpg, commercial).
holds(s_15924_jpg, awning).
holds(s_15924_jpg, vendingmachine).
holds(s_15924_jpg, chimney).
holds(s_15924_jpg, car).

sample(s_102_jpg).
holds(s_102_jpg, building).
holds(s_102_jpg, feature).
holds(s_102_jpg, cafe).
holds(s_102_jpg, hotel).
holds(s_102_jpg, misccommercial).
holds(s_102_jpg, residential).
holds(s_102_jpg, commercial).
holds(s_102_jpg, window).
holds(s_102_jpg, awning).
holds(s_102_jpg, vendingmachine).
holds(s_102_jpg, car).

sample(s_11791_jpg).
holds(s_11791_jpg, building).
holds(s_11791_jpg, feature).
holds(s_11791_jpg, miscindustrial).
holds(s_11791_jpg, powerplant).
holds(s_11791_jpg, watertreatment).
holds(s_11791_jpg, door).
holds(s_11791_jpg, window).
holds(s_11791_jpg, sign).
holds(s_11791_jpg, tiledrooftop).
holds(s_11791_jpg, chimney).
holds(s_11791_jpg, machine).

sample(s_14009_jpg).
holds(s_14009_jpg, building).
holds(s_14009_jpg, feature).
holds(s_14009_jpg, miscresidential).
holds(s_14009_jpg, door).
holds(s_14009_jpg, window).
holds(s_14009_jpg, porch).
holds(s_14009_jpg, sign).
holds(s_14009_jpg, tiledroof).
holds(s_14009_jpg, vendingmachine).
holds(s_14009_jpg, car).

sample(s_2061_jpg).
holds(s_2061_jpg, building).
holds(s_2061_jpg, feature).
holds(s_2061_jpg, cafe).
holds(s_2061_jpg, hotel).
holds(s_2061_jpg, store).
holds(s_2061_jpg, misccommercial).
holds(s_2061_jpg, residential).
holds(s_2061_jpg, commercial).
holds(s_2061_jpg, window).
holds(s_2061_jpg, awning).
holds(s_2061_jpg, vendingmachine).
holds(s_2061_jpg, chimney).
holds(s_2061_jpg, pipe).
holds(s_2061_jpg, car).

sample(s_4820_jpg).
holds(s_4820_jpg, building).
holds(s_4820_jpg, feature).
holds(s_4820_jpg, suburban).
holds(s_4820_jpg, commercial).
holds(s_4820_jpg, door).
holds(s_4820_jpg, window).
holds(s_4820_jpg, sign).
holds(s_4820_jpg, tiledroof).
holds(s_4820_jpg, tiledrooftop).
holds(s_4820_jpg, vendingmachine).

sample(s_683_jpg).
holds(s_683_jpg, building).
holds(s_683_jpg, feature).
holds(s_683_jpg, miscresidential).
holds(s_683_jpg, countryhouse).
holds(s_683_jpg, door).
holds(s_683_jpg, window).
holds(s_683_jpg, porch).
holds(s_683_jpg, sign).
holds(s_683_jpg, tiledroof).
holds(s_683_jpg, chimney).
holds(s_683_jpg, car).

sample(s_11979_jpg).
holds(s_11979_jpg, building).
holds(s_11979_jpg, feature).
holds(s_11979_jpg, cafe).
holds(s_11979_jpg, hotel).
holds(s_11979_jpg, restaurant).
holds(s_11979_jpg, store).
holds(s_11979_jpg, misccommercial).
holds(s_11979_jpg, residential).
holds(s_11979_jpg, commercial).
holds(s_11979_jpg, awning).
holds(s_11979_jpg, vendingmachine).
holds(s_11979_jpg, chimney).
holds(s_11979_jpg, pipe).
holds(s_11979_jpg, car).

sample(s_11434_jpg).
holds(s_11434_jpg, building).
holds(s_11434_jpg, feature).
holds(s_11434_jpg, miscindustrial).
holds(s_11434_jpg, powerplant).
holds(s_11434_jpg, watertreatment).
holds(s_11434_jpg, door).
holds(s_11434_jpg, window).
holds(s_11434_jpg, sign).
holds(s_11434_jpg, tiledrooftop).
holds(s_11434_jpg, chimney).
holds(s_11434_jpg, machine).

sample(s_13422_jpg).
holds(s_13422_jpg, building).
holds(s_13422_jpg, feature).
holds(s_13422_jpg, cafe).
holds(s_13422_jpg, hotel).
holds(s_13422_jpg, store).
holds(s_13422_jpg, misccommercial).
holds(s_13422_jpg, residential).
holds(s_13422_jpg, commercial).
holds(s_13422_jpg, awning).
holds(s_13422_jpg, vendingmachine).
holds(s_13422_jpg, chimney).
holds(s_13422_jpg, car).

sample(s_2194_jpg).
holds(s_2194_jpg, building).
holds(s_2194_jpg, feature).
holds(s_2194_jpg, constructionsite).
holds(s_2194_jpg, commercial).
holds(s_2194_jpg, door).
holds(s_2194_jpg, awning).
holds(s_2194_jpg, tiledrooftop).
holds(s_2194_jpg, vendingmachine).
holds(s_2194_jpg, chimney).

sample(s_15414_jpg).
holds(s_15414_jpg, building).
holds(s_15414_jpg, feature).
holds(s_15414_jpg, cafe).
holds(s_15414_jpg, hotel).
holds(s_15414_jpg, restaurant).
holds(s_15414_jpg, residential).
holds(s_15414_jpg, commercial).
holds(s_15414_jpg, tiledrooftop).
holds(s_15414_jpg, vendingmachine).
holds(s_15414_jpg, pipe).
holds(s_15414_jpg, machine).
holds(s_15414_jpg, car).

sample(s_5225_jpg).
holds(s_5225_jpg, building).
holds(s_5225_jpg, feature).
holds(s_5225_jpg, suburban).
holds(s_5225_jpg, commercial).
holds(s_5225_jpg, door).
holds(s_5225_jpg, window).
holds(s_5225_jpg, porch).
holds(s_5225_jpg, sign).
holds(s_5225_jpg, tiledroof).
holds(s_5225_jpg, tiledrooftop).
holds(s_5225_jpg, vendingmachine).

sample(s_9480_jpg).
holds(s_9480_jpg, building).
holds(s_9480_jpg, feature).
holds(s_9480_jpg, cafe).
holds(s_9480_jpg, store).
holds(s_9480_jpg, misccommercial).
holds(s_9480_jpg, commercial).
holds(s_9480_jpg, door).
holds(s_9480_jpg, awning).
holds(s_9480_jpg, vendingmachine).
holds(s_9480_jpg, chimney).
holds(s_9480_jpg, car).

sample(s_12427_jpg).
holds(s_12427_jpg, building).
holds(s_12427_jpg, feature).
holds(s_12427_jpg, miscindustrial).
holds(s_12427_jpg, powerplant).
holds(s_12427_jpg, watertreatment).
holds(s_12427_jpg, door).
holds(s_12427_jpg, window).
holds(s_12427_jpg, sign).
holds(s_12427_jpg, tiledrooftop).
holds(s_12427_jpg, vendingmachine).
holds(s_12427_jpg, chimney).
holds(s_12427_jpg, machine).

sample(s_12634_jpg).
holds(s_12634_jpg, building).
holds(s_12634_jpg, feature).
holds(s_12634_jpg, constructionsite).
holds(s_12634_jpg, powerplant).
holds(s_12634_jpg, commercial).
holds(s_12634_jpg, door).
holds(s_12634_jpg, awning).
holds(s_12634_jpg, tiledrooftop).
holds(s_12634_jpg, vendingmachine).
holds(s_12634_jpg, chimney).

sample(s_9040_jpg).
holds(s_9040_jpg, building).
holds(s_9040_jpg, feature).
holds(s_9040_jpg, constructionsite).
holds(s_9040_jpg, powerplant).
holds(s_9040_jpg, commercial).
holds(s_9040_jpg, door).
holds(s_9040_jpg, window).
holds(s_9040_jpg, awning).
holds(s_9040_jpg, tiledrooftop).
holds(s_9040_jpg, vendingmachine).
holds(s_9040_jpg, chimney).
holds(s_9040_jpg, machine).

sample(s_12526_jpg).
holds(s_12526_jpg, building).
holds(s_12526_jpg, feature).
holds(s_12526_jpg, constructionsite).
holds(s_12526_jpg, commercial).
holds(s_12526_jpg, door).
holds(s_12526_jpg, awning).
holds(s_12526_jpg, tiledrooftop).
holds(s_12526_jpg, vendingmachine).
holds(s_12526_jpg, chimney).
holds(s_12526_jpg, machine).

sample(s_2607_jpg).
holds(s_2607_jpg, building).
holds(s_2607_jpg, feature).
holds(s_2607_jpg, cafe).
holds(s_2607_jpg, hotel).
holds(s_2607_jpg, store).
holds(s_2607_jpg, misccommercial).
holds(s_2607_jpg, residential).
holds(s_2607_jpg, commercial).
holds(s_2607_jpg, awning).
holds(s_2607_jpg, vendingmachine).
holds(s_2607_jpg, chimney).
holds(s_2607_jpg, pipe).
holds(s_2607_jpg, car).

sample(s_6850_jpg).
holds(s_6850_jpg, building).
holds(s_6850_jpg, feature).
holds(s_6850_jpg, miscindustrial).
holds(s_6850_jpg, powerplant).
holds(s_6850_jpg, watertreatment).
holds(s_6850_jpg, door).
holds(s_6850_jpg, window).
holds(s_6850_jpg, awning).
holds(s_6850_jpg, sign).
holds(s_6850_jpg, tiledrooftop).
holds(s_6850_jpg, vendingmachine).
holds(s_6850_jpg, chimney).
holds(s_6850_jpg, machine).

sample(s_5994_jpg).
holds(s_5994_jpg, building).
holds(s_5994_jpg, feature).
holds(s_5994_jpg, cafe).
holds(s_5994_jpg, store).
holds(s_5994_jpg, misccommercial).
holds(s_5994_jpg, residential).
holds(s_5994_jpg, commercial).
holds(s_5994_jpg, awning).
holds(s_5994_jpg, vendingmachine).
holds(s_5994_jpg, chimney).
holds(s_5994_jpg, pipe).
holds(s_5994_jpg, car).

sample(s_6677_jpg).
holds(s_6677_jpg, building).
holds(s_6677_jpg, feature).
holds(s_6677_jpg, suburban).
holds(s_6677_jpg, miscresidential).
holds(s_6677_jpg, commercial).
holds(s_6677_jpg, door).
holds(s_6677_jpg, window).
holds(s_6677_jpg, porch).
holds(s_6677_jpg, sign).
holds(s_6677_jpg, tiledroof).
holds(s_6677_jpg, vendingmachine).
holds(s_6677_jpg, car).

sample(s_1828_jpg).
holds(s_1828_jpg, building).
holds(s_1828_jpg, feature).
holds(s_1828_jpg, miscindustrial).
holds(s_1828_jpg, powerplant).
holds(s_1828_jpg, watertreatment).
holds(s_1828_jpg, door).
holds(s_1828_jpg, window).
holds(s_1828_jpg, sign).
holds(s_1828_jpg, tiledrooftop).
holds(s_1828_jpg, vendingmachine).
holds(s_1828_jpg, chimney).
holds(s_1828_jpg, machine).

sample(s_11563_jpg).
holds(s_11563_jpg, building).
holds(s_11563_jpg, feature).
holds(s_11563_jpg, constructionsite).
holds(s_11563_jpg, powerplant).
holds(s_11563_jpg, commercial).
holds(s_11563_jpg, door).
holds(s_11563_jpg, awning).
holds(s_11563_jpg, tiledrooftop).
holds(s_11563_jpg, vendingmachine).
holds(s_11563_jpg, chimney).
holds(s_11563_jpg, car).

sample(s_4760_jpg).
holds(s_4760_jpg, building).
holds(s_4760_jpg, feature).
holds(s_4760_jpg, miscresidential).
holds(s_4760_jpg, countryhouse).
holds(s_4760_jpg, door).
holds(s_4760_jpg, window).
holds(s_4760_jpg, sign).
holds(s_4760_jpg, tiledroof).
holds(s_4760_jpg, chimney).
holds(s_4760_jpg, car).

sample(s_14514_jpg).
holds(s_14514_jpg, building).
holds(s_14514_jpg, feature).
holds(s_14514_jpg, cafe).
holds(s_14514_jpg, hotel).
holds(s_14514_jpg, restaurant).
holds(s_14514_jpg, store).
holds(s_14514_jpg, misccommercial).
holds(s_14514_jpg, residential).
holds(s_14514_jpg, commercial).
holds(s_14514_jpg, awning).
holds(s_14514_jpg, vendingmachine).
holds(s_14514_jpg, chimney).
holds(s_14514_jpg, pipe).
holds(s_14514_jpg, car).

sample(s_7678_jpg).
holds(s_7678_jpg, building).
holds(s_7678_jpg, feature).
holds(s_7678_jpg, constructionsite).
holds(s_7678_jpg, powerplant).
holds(s_7678_jpg, commercial).
holds(s_7678_jpg, door).
holds(s_7678_jpg, window).
holds(s_7678_jpg, awning).
holds(s_7678_jpg, tiledrooftop).
holds(s_7678_jpg, vendingmachine).
holds(s_7678_jpg, chimney).
holds(s_7678_jpg, machine).

sample(s_6746_jpg).
holds(s_6746_jpg, building).
holds(s_6746_jpg, feature).
holds(s_6746_jpg, suburban).
holds(s_6746_jpg, miscresidential).
holds(s_6746_jpg, countryhouse).
holds(s_6746_jpg, commercial).
holds(s_6746_jpg, door).
holds(s_6746_jpg, window).
holds(s_6746_jpg, porch).
holds(s_6746_jpg, sign).
holds(s_6746_jpg, tiledroof).
holds(s_6746_jpg, vendingmachine).
holds(s_6746_jpg, car).

sample(s_7867_jpg).
holds(s_7867_jpg, building).
holds(s_7867_jpg, feature).
holds(s_7867_jpg, constructionsite).
holds(s_7867_jpg, commercial).
holds(s_7867_jpg, door).
holds(s_7867_jpg, awning).
holds(s_7867_jpg, tiledrooftop).
holds(s_7867_jpg, vendingmachine).
holds(s_7867_jpg, chimney).
holds(s_7867_jpg, machine).

sample(s_11316_jpg).
holds(s_11316_jpg, building).
holds(s_11316_jpg, feature).
holds(s_11316_jpg, cafe).
holds(s_11316_jpg, hotel).
holds(s_11316_jpg, store).
holds(s_11316_jpg, misccommercial).
holds(s_11316_jpg, residential).
holds(s_11316_jpg, commercial).
holds(s_11316_jpg, window).
holds(s_11316_jpg, awning).
holds(s_11316_jpg, vendingmachine).
holds(s_11316_jpg, pipe).
holds(s_11316_jpg, car).

sample(s_4223_jpg).
holds(s_4223_jpg, building).
holds(s_4223_jpg, feature).
holds(s_4223_jpg, miscresidential).
holds(s_4223_jpg, countryhouse).
holds(s_4223_jpg, door).
holds(s_4223_jpg, window).
holds(s_4223_jpg, porch).
holds(s_4223_jpg, sign).
holds(s_4223_jpg, tiledroof).
holds(s_4223_jpg, chimney).
holds(s_4223_jpg, car).

sample(s_8012_jpg).
holds(s_8012_jpg, building).
holds(s_8012_jpg, feature).
holds(s_8012_jpg, miscresidential).
holds(s_8012_jpg, countryhouse).
holds(s_8012_jpg, door).
holds(s_8012_jpg, window).
holds(s_8012_jpg, sign).
holds(s_8012_jpg, tiledroof).
holds(s_8012_jpg, chimney).
holds(s_8012_jpg, car).

sample(s_6946_jpg).
holds(s_6946_jpg, building).
holds(s_6946_jpg, feature).
holds(s_6946_jpg, miscindustrial).
holds(s_6946_jpg, powerplant).
holds(s_6946_jpg, watertreatment).
holds(s_6946_jpg, door).
holds(s_6946_jpg, window).
holds(s_6946_jpg, sign).
holds(s_6946_jpg, tiledrooftop).
holds(s_6946_jpg, chimney).
holds(s_6946_jpg, machine).

sample(s_15071_jpg).
holds(s_15071_jpg, building).
holds(s_15071_jpg, feature).
holds(s_15071_jpg, suburban).
holds(s_15071_jpg, commercial).
holds(s_15071_jpg, door).
holds(s_15071_jpg, window).
holds(s_15071_jpg, porch).
holds(s_15071_jpg, sign).
holds(s_15071_jpg, tiledroof).
holds(s_15071_jpg, tiledrooftop).
holds(s_15071_jpg, vendingmachine).

sample(s_5782_jpg).
holds(s_5782_jpg, building).
holds(s_5782_jpg, feature).
holds(s_5782_jpg, miscindustrial).
holds(s_5782_jpg, powerplant).
holds(s_5782_jpg, watertreatment).
holds(s_5782_jpg, door).
holds(s_5782_jpg, window).
holds(s_5782_jpg, sign).
holds(s_5782_jpg, tiledrooftop).
holds(s_5782_jpg, vendingmachine).
holds(s_5782_jpg, chimney).
holds(s_5782_jpg, machine).

sample(s_13916_jpg).
holds(s_13916_jpg, building).
holds(s_13916_jpg, feature).
holds(s_13916_jpg, miscresidential).
holds(s_13916_jpg, door).
holds(s_13916_jpg, window).
holds(s_13916_jpg, porch).
holds(s_13916_jpg, sign).
holds(s_13916_jpg, tiledroof).
holds(s_13916_jpg, vendingmachine).
holds(s_13916_jpg, car).

sample(s_10340_jpg).
holds(s_10340_jpg, building).
holds(s_10340_jpg, feature).
holds(s_10340_jpg, suburban).
holds(s_10340_jpg, commercial).
holds(s_10340_jpg, door).
holds(s_10340_jpg, window).
holds(s_10340_jpg, porch).
holds(s_10340_jpg, sign).
holds(s_10340_jpg, tiledroof).
holds(s_10340_jpg, tiledrooftop).
holds(s_10340_jpg, vendingmachine).

sample(s_4125_jpg).
holds(s_4125_jpg, building).
holds(s_4125_jpg, feature).
holds(s_4125_jpg, cafe).
holds(s_4125_jpg, hotel).
holds(s_4125_jpg, restaurant).
holds(s_4125_jpg, misccommercial).
holds(s_4125_jpg, commercial).
holds(s_4125_jpg, door).
holds(s_4125_jpg, awning).
holds(s_4125_jpg, tiledrooftop).
holds(s_4125_jpg, vendingmachine).
holds(s_4125_jpg, chimney).
holds(s_4125_jpg, machine).
holds(s_4125_jpg, car).

sample(s_9898_jpg).
holds(s_9898_jpg, building).
holds(s_9898_jpg, feature).
holds(s_9898_jpg, constructionsite).
holds(s_9898_jpg, powerplant).
holds(s_9898_jpg, commercial).
holds(s_9898_jpg, door).
holds(s_9898_jpg, awning).
holds(s_9898_jpg, tiledrooftop).
holds(s_9898_jpg, vendingmachine).
holds(s_9898_jpg, chimney).

sample(s_8288_jpg).
holds(s_8288_jpg, building).
holds(s_8288_jpg, feature).
holds(s_8288_jpg, suburban).
holds(s_8288_jpg, miscresidential).
holds(s_8288_jpg, countryhouse).
holds(s_8288_jpg, door).
holds(s_8288_jpg, window).
holds(s_8288_jpg, porch).
holds(s_8288_jpg, sign).
holds(s_8288_jpg, tiledroof).
holds(s_8288_jpg, vendingmachine).
holds(s_8288_jpg, car).

sample(s_2126_jpg).
holds(s_2126_jpg, building).
holds(s_2126_jpg, feature).
holds(s_2126_jpg, suburban).
holds(s_2126_jpg, miscresidential).
holds(s_2126_jpg, commercial).
holds(s_2126_jpg, door).
holds(s_2126_jpg, window).
holds(s_2126_jpg, porch).
holds(s_2126_jpg, sign).
holds(s_2126_jpg, tiledroof).
holds(s_2126_jpg, vendingmachine).
holds(s_2126_jpg, car).

sample(s_5864_jpg).
holds(s_5864_jpg, building).
holds(s_5864_jpg, feature).
holds(s_5864_jpg, suburban).
holds(s_5864_jpg, miscresidential).
holds(s_5864_jpg, commercial).
holds(s_5864_jpg, door).
holds(s_5864_jpg, window).
holds(s_5864_jpg, porch).
holds(s_5864_jpg, sign).
holds(s_5864_jpg, tiledroof).
holds(s_5864_jpg, vendingmachine).
holds(s_5864_jpg, car).

sample(s_8589_jpg).
holds(s_8589_jpg, building).
holds(s_8589_jpg, feature).
holds(s_8589_jpg, cafe).
holds(s_8589_jpg, hotel).
holds(s_8589_jpg, store).
holds(s_8589_jpg, misccommercial).
holds(s_8589_jpg, commercial).
holds(s_8589_jpg, awning).
holds(s_8589_jpg, vendingmachine).
holds(s_8589_jpg, chimney).
holds(s_8589_jpg, car).

sample(s_10383_jpg).
holds(s_10383_jpg, building).
holds(s_10383_jpg, feature).
holds(s_10383_jpg, cafe).
holds(s_10383_jpg, hotel).
holds(s_10383_jpg, misccommercial).
holds(s_10383_jpg, commercial).
holds(s_10383_jpg, door).
holds(s_10383_jpg, awning).
holds(s_10383_jpg, vendingmachine).
holds(s_10383_jpg, chimney).
holds(s_10383_jpg, car).

sample(s_8257_jpg).
holds(s_8257_jpg, building).
holds(s_8257_jpg, feature).
holds(s_8257_jpg, miscindustrial).
holds(s_8257_jpg, powerplant).
holds(s_8257_jpg, watertreatment).
holds(s_8257_jpg, door).
holds(s_8257_jpg, window).
holds(s_8257_jpg, sign).
holds(s_8257_jpg, tiledrooftop).
holds(s_8257_jpg, vendingmachine).
holds(s_8257_jpg, chimney).
holds(s_8257_jpg, machine).

sample(s_9984_jpg).
holds(s_9984_jpg, building).
holds(s_9984_jpg, feature).
holds(s_9984_jpg, cafe).
holds(s_9984_jpg, hotel).
holds(s_9984_jpg, store).
holds(s_9984_jpg, misccommercial).
holds(s_9984_jpg, residential).
holds(s_9984_jpg, commercial).
holds(s_9984_jpg, awning).
holds(s_9984_jpg, vendingmachine).
holds(s_9984_jpg, chimney).
holds(s_9984_jpg, pipe).
holds(s_9984_jpg, car).

sample(s_9788_jpg).
holds(s_9788_jpg, building).
holds(s_9788_jpg, feature).
holds(s_9788_jpg, suburban).
holds(s_9788_jpg, miscresidential).
holds(s_9788_jpg, countryhouse).
holds(s_9788_jpg, door).
holds(s_9788_jpg, window).
holds(s_9788_jpg, porch).
holds(s_9788_jpg, sign).
holds(s_9788_jpg, tiledroof).
holds(s_9788_jpg, vendingmachine).
holds(s_9788_jpg, car).

sample(s_13658_jpg).
holds(s_13658_jpg, building).
holds(s_13658_jpg, feature).
holds(s_13658_jpg, miscresidential).
holds(s_13658_jpg, door).
holds(s_13658_jpg, window).
holds(s_13658_jpg, awning).
holds(s_13658_jpg, porch).
holds(s_13658_jpg, sign).
holds(s_13658_jpg, tiledroof).
holds(s_13658_jpg, vendingmachine).
holds(s_13658_jpg, chimney).
holds(s_13658_jpg, car).

sample(s_10933_jpg).
holds(s_10933_jpg, building).
holds(s_10933_jpg, feature).
holds(s_10933_jpg, miscindustrial).
holds(s_10933_jpg, powerplant).
holds(s_10933_jpg, watertreatment).
holds(s_10933_jpg, door).
holds(s_10933_jpg, window).
holds(s_10933_jpg, awning).
holds(s_10933_jpg, sign).
holds(s_10933_jpg, tiledrooftop).
holds(s_10933_jpg, vendingmachine).
holds(s_10933_jpg, chimney).
holds(s_10933_jpg, machine).

sample(s_1839_jpg).
holds(s_1839_jpg, building).
holds(s_1839_jpg, feature).
holds(s_1839_jpg, cafe).
holds(s_1839_jpg, hotel).
holds(s_1839_jpg, restaurant).
holds(s_1839_jpg, store).
holds(s_1839_jpg, misccommercial).
holds(s_1839_jpg, residential).
holds(s_1839_jpg, commercial).
holds(s_1839_jpg, awning).
holds(s_1839_jpg, vendingmachine).
holds(s_1839_jpg, chimney).
holds(s_1839_jpg, pipe).
holds(s_1839_jpg, car).

sample(s_822_jpg).
holds(s_822_jpg, building).
holds(s_822_jpg, feature).
holds(s_822_jpg, cafe).
holds(s_822_jpg, hotel).
holds(s_822_jpg, store).
holds(s_822_jpg, misccommercial).
holds(s_822_jpg, commercial).
holds(s_822_jpg, awning).
holds(s_822_jpg, vendingmachine).
holds(s_822_jpg, chimney).
holds(s_822_jpg, pipe).
holds(s_822_jpg, car).

sample(s_4713_jpg).
holds(s_4713_jpg, building).
holds(s_4713_jpg, feature).
holds(s_4713_jpg, cafe).
holds(s_4713_jpg, hotel).
holds(s_4713_jpg, restaurant).
holds(s_4713_jpg, store).
holds(s_4713_jpg, misccommercial).
holds(s_4713_jpg, residential).
holds(s_4713_jpg, commercial).
holds(s_4713_jpg, awning).
holds(s_4713_jpg, vendingmachine).
holds(s_4713_jpg, chimney).
holds(s_4713_jpg, pipe).
holds(s_4713_jpg, car).

sample(s_16_jpg).
holds(s_16_jpg, building).
holds(s_16_jpg, feature).
holds(s_16_jpg, powerplant).
holds(s_16_jpg, commercial).
holds(s_16_jpg, door).
holds(s_16_jpg, window).
holds(s_16_jpg, tiledrooftop).
holds(s_16_jpg, vendingmachine).
holds(s_16_jpg, chimney).
holds(s_16_jpg, machine).

sample(s_7693_jpg).
holds(s_7693_jpg, building).
holds(s_7693_jpg, feature).
holds(s_7693_jpg, constructionsite).
holds(s_7693_jpg, commercial).
holds(s_7693_jpg, door).
holds(s_7693_jpg, awning).
holds(s_7693_jpg, tiledrooftop).
holds(s_7693_jpg, vendingmachine).
holds(s_7693_jpg, chimney).

sample(s_13633_jpg).
holds(s_13633_jpg, building).
holds(s_13633_jpg, feature).
holds(s_13633_jpg, constructionsite).
holds(s_13633_jpg, commercial).
holds(s_13633_jpg, door).
holds(s_13633_jpg, awning).
holds(s_13633_jpg, tiledrooftop).
holds(s_13633_jpg, vendingmachine).
holds(s_13633_jpg, chimney).
holds(s_13633_jpg, machine).

sample(s_4269_jpg).
holds(s_4269_jpg, building).
holds(s_4269_jpg, feature).
holds(s_4269_jpg, cafe).
holds(s_4269_jpg, hotel).
holds(s_4269_jpg, misccommercial).
holds(s_4269_jpg, commercial).
holds(s_4269_jpg, door).
holds(s_4269_jpg, awning).
holds(s_4269_jpg, tiledrooftop).
holds(s_4269_jpg, vendingmachine).
holds(s_4269_jpg, chimney).
holds(s_4269_jpg, car).

sample(s_3431_jpg).
holds(s_3431_jpg, building).
holds(s_3431_jpg, feature).
holds(s_3431_jpg, suburban).
holds(s_3431_jpg, miscresidential).
holds(s_3431_jpg, countryhouse).
holds(s_3431_jpg, door).
holds(s_3431_jpg, window).
holds(s_3431_jpg, porch).
holds(s_3431_jpg, sign).
holds(s_3431_jpg, tiledroof).
holds(s_3431_jpg, car).

sample(s_3185_jpg).
holds(s_3185_jpg, building).
holds(s_3185_jpg, feature).
holds(s_3185_jpg, suburban).
holds(s_3185_jpg, miscresidential).
holds(s_3185_jpg, countryhouse).
holds(s_3185_jpg, door).
holds(s_3185_jpg, window).
holds(s_3185_jpg, porch).
holds(s_3185_jpg, sign).
holds(s_3185_jpg, tiledroof).
holds(s_3185_jpg, chimney).
holds(s_3185_jpg, car).

sample(s_11228_jpg).
holds(s_11228_jpg, building).
holds(s_11228_jpg, feature).
holds(s_11228_jpg, miscresidential).
holds(s_11228_jpg, countryhouse).
holds(s_11228_jpg, door).
holds(s_11228_jpg, window).
holds(s_11228_jpg, porch).
holds(s_11228_jpg, sign).
holds(s_11228_jpg, tiledroof).
holds(s_11228_jpg, chimney).
holds(s_11228_jpg, car).

sample(s_6264_jpg).
holds(s_6264_jpg, building).
holds(s_6264_jpg, feature).
holds(s_6264_jpg, cafe).
holds(s_6264_jpg, hotel).
holds(s_6264_jpg, restaurant).
holds(s_6264_jpg, misccommercial).
holds(s_6264_jpg, residential).
holds(s_6264_jpg, commercial).
holds(s_6264_jpg, vendingmachine).
holds(s_6264_jpg, chimney).
holds(s_6264_jpg, car).

sample(s_14317_jpg).
holds(s_14317_jpg, building).
holds(s_14317_jpg, feature).
holds(s_14317_jpg, miscindustrial).
holds(s_14317_jpg, watertreatment).
holds(s_14317_jpg, door).
holds(s_14317_jpg, window).
holds(s_14317_jpg, sign).
holds(s_14317_jpg, tiledrooftop).
holds(s_14317_jpg, vendingmachine).
holds(s_14317_jpg, machine).

sample(s_4271_jpg).
holds(s_4271_jpg, building).
holds(s_4271_jpg, feature).
holds(s_4271_jpg, miscresidential).
holds(s_4271_jpg, commercial).
holds(s_4271_jpg, door).
holds(s_4271_jpg, window).
holds(s_4271_jpg, awning).
holds(s_4271_jpg, porch).
holds(s_4271_jpg, sign).
holds(s_4271_jpg, tiledroof).
holds(s_4271_jpg, vendingmachine).
holds(s_4271_jpg, chimney).
holds(s_4271_jpg, car).

sample(s_7831_jpg).
holds(s_7831_jpg, building).
holds(s_7831_jpg, feature).
holds(s_7831_jpg, constructionsite).
holds(s_7831_jpg, powerplant).
holds(s_7831_jpg, commercial).
holds(s_7831_jpg, door).
holds(s_7831_jpg, awning).
holds(s_7831_jpg, tiledrooftop).
holds(s_7831_jpg, vendingmachine).
holds(s_7831_jpg, chimney).
holds(s_7831_jpg, machine).

sample(s_12256_jpg).
holds(s_12256_jpg, building).
holds(s_12256_jpg, feature).
holds(s_12256_jpg, miscindustrial).
holds(s_12256_jpg, watertreatment).
holds(s_12256_jpg, door).
holds(s_12256_jpg, window).
holds(s_12256_jpg, sign).
holds(s_12256_jpg, tiledrooftop).
holds(s_12256_jpg, vendingmachine).
holds(s_12256_jpg, chimney).
holds(s_12256_jpg, machine).

sample(s_15336_jpg).
holds(s_15336_jpg, building).
holds(s_15336_jpg, feature).
holds(s_15336_jpg, cafe).
holds(s_15336_jpg, hotel).
holds(s_15336_jpg, store).
holds(s_15336_jpg, misccommercial).
holds(s_15336_jpg, commercial).
holds(s_15336_jpg, awning).
holds(s_15336_jpg, vendingmachine).
holds(s_15336_jpg, chimney).
holds(s_15336_jpg, car).

sample(s_12960_jpg).
holds(s_12960_jpg, building).
holds(s_12960_jpg, feature).
holds(s_12960_jpg, cafe).
holds(s_12960_jpg, hotel).
holds(s_12960_jpg, restaurant).
holds(s_12960_jpg, misccommercial).
holds(s_12960_jpg, residential).
holds(s_12960_jpg, commercial).
holds(s_12960_jpg, awning).
holds(s_12960_jpg, tiledrooftop).
holds(s_12960_jpg, vendingmachine).
holds(s_12960_jpg, chimney).
holds(s_12960_jpg, pipe).
holds(s_12960_jpg, car).

sample(s_9281_jpg).
holds(s_9281_jpg, building).
holds(s_9281_jpg, feature).
holds(s_9281_jpg, suburban).
holds(s_9281_jpg, commercial).
holds(s_9281_jpg, door).
holds(s_9281_jpg, window).
holds(s_9281_jpg, sign).
holds(s_9281_jpg, tiledroof).
holds(s_9281_jpg, tiledrooftop).
holds(s_9281_jpg, vendingmachine).

sample(s_15897_jpg).
holds(s_15897_jpg, building).
holds(s_15897_jpg, feature).
holds(s_15897_jpg, cafe).
holds(s_15897_jpg, hotel).
holds(s_15897_jpg, restaurant).
holds(s_15897_jpg, residential).
holds(s_15897_jpg, commercial).
holds(s_15897_jpg, tiledrooftop).
holds(s_15897_jpg, vendingmachine).
holds(s_15897_jpg, pipe).
holds(s_15897_jpg, machine).
holds(s_15897_jpg, car).

sample(s_14138_jpg).
holds(s_14138_jpg, building).
holds(s_14138_jpg, feature).
holds(s_14138_jpg, miscresidential).
holds(s_14138_jpg, countryhouse).
holds(s_14138_jpg, door).
holds(s_14138_jpg, window).
holds(s_14138_jpg, porch).
holds(s_14138_jpg, sign).
holds(s_14138_jpg, tiledroof).
holds(s_14138_jpg, chimney).
holds(s_14138_jpg, car).

sample(s_12553_jpg).
holds(s_12553_jpg, building).
holds(s_12553_jpg, feature).
holds(s_12553_jpg, constructionsite).
holds(s_12553_jpg, commercial).
holds(s_12553_jpg, door).
holds(s_12553_jpg, awning).
holds(s_12553_jpg, tiledrooftop).
holds(s_12553_jpg, vendingmachine).
holds(s_12553_jpg, chimney).
holds(s_12553_jpg, machine).

sample(s_5798_jpg).
holds(s_5798_jpg, building).
holds(s_5798_jpg, feature).
holds(s_5798_jpg, miscresidential).
holds(s_5798_jpg, door).
holds(s_5798_jpg, window).
holds(s_5798_jpg, porch).
holds(s_5798_jpg, sign).
holds(s_5798_jpg, tiledroof).
holds(s_5798_jpg, vendingmachine).
holds(s_5798_jpg, car).

sample(s_1693_jpg).
holds(s_1693_jpg, building).
holds(s_1693_jpg, feature).
holds(s_1693_jpg, constructionsite).
holds(s_1693_jpg, commercial).
holds(s_1693_jpg, door).
holds(s_1693_jpg, awning).
holds(s_1693_jpg, tiledrooftop).
holds(s_1693_jpg, vendingmachine).
holds(s_1693_jpg, chimney).

sample(s_11491_jpg).
holds(s_11491_jpg, building).
holds(s_11491_jpg, feature).
holds(s_11491_jpg, miscindustrial).
holds(s_11491_jpg, watertreatment).
holds(s_11491_jpg, door).
holds(s_11491_jpg, window).
holds(s_11491_jpg, sign).
holds(s_11491_jpg, tiledrooftop).
holds(s_11491_jpg, vendingmachine).
holds(s_11491_jpg, chimney).
holds(s_11491_jpg, machine).

sample(s_1366_jpg).
holds(s_1366_jpg, building).
holds(s_1366_jpg, feature).
holds(s_1366_jpg, powerplant).
holds(s_1366_jpg, door).
holds(s_1366_jpg, window).
holds(s_1366_jpg, awning).
holds(s_1366_jpg, tiledrooftop).
holds(s_1366_jpg, vendingmachine).
holds(s_1366_jpg, chimney).
holds(s_1366_jpg, machine).

sample(s_7705_jpg).
holds(s_7705_jpg, building).
holds(s_7705_jpg, feature).
holds(s_7705_jpg, miscindustrial).
holds(s_7705_jpg, powerplant).
holds(s_7705_jpg, watertreatment).
holds(s_7705_jpg, door).
holds(s_7705_jpg, window).
holds(s_7705_jpg, sign).
holds(s_7705_jpg, tiledrooftop).
holds(s_7705_jpg, chimney).
holds(s_7705_jpg, machine).

sample(s_9438_jpg).
holds(s_9438_jpg, building).
holds(s_9438_jpg, feature).
holds(s_9438_jpg, cafe).
holds(s_9438_jpg, hotel).
holds(s_9438_jpg, misccommercial).
holds(s_9438_jpg, commercial).
holds(s_9438_jpg, awning).
holds(s_9438_jpg, vendingmachine).
holds(s_9438_jpg, chimney).
holds(s_9438_jpg, car).

sample(s_3508_jpg).
holds(s_3508_jpg, building).
holds(s_3508_jpg, feature).
holds(s_3508_jpg, constructionsite).
holds(s_3508_jpg, powerplant).
holds(s_3508_jpg, commercial).
holds(s_3508_jpg, door).
holds(s_3508_jpg, awning).
holds(s_3508_jpg, tiledrooftop).
holds(s_3508_jpg, vendingmachine).
holds(s_3508_jpg, chimney).
holds(s_3508_jpg, machine).

sample(s_12285_jpg).
holds(s_12285_jpg, building).
holds(s_12285_jpg, feature).
holds(s_12285_jpg, cafe).
holds(s_12285_jpg, misccommercial).
holds(s_12285_jpg, commercial).
holds(s_12285_jpg, door).
holds(s_12285_jpg, window).
holds(s_12285_jpg, awning).
holds(s_12285_jpg, porch).
holds(s_12285_jpg, tiledroof).
holds(s_12285_jpg, vendingmachine).
holds(s_12285_jpg, chimney).
holds(s_12285_jpg, car).

sample(s_4389_jpg).
holds(s_4389_jpg, building).
holds(s_4389_jpg, feature).
holds(s_4389_jpg, cafe).
holds(s_4389_jpg, hotel).
holds(s_4389_jpg, restaurant).
holds(s_4389_jpg, store).
holds(s_4389_jpg, misccommercial).
holds(s_4389_jpg, residential).
holds(s_4389_jpg, commercial).
holds(s_4389_jpg, awning).
holds(s_4389_jpg, tiledrooftop).
holds(s_4389_jpg, vendingmachine).
holds(s_4389_jpg, chimney).
holds(s_4389_jpg, pipe).
holds(s_4389_jpg, car).

sample(s_11287_jpg).
holds(s_11287_jpg, building).
holds(s_11287_jpg, feature).
holds(s_11287_jpg, constructionsite).
holds(s_11287_jpg, commercial).
holds(s_11287_jpg, door).
holds(s_11287_jpg, awning).
holds(s_11287_jpg, tiledrooftop).
holds(s_11287_jpg, vendingmachine).
holds(s_11287_jpg, chimney).

sample(s_11471_jpg).
holds(s_11471_jpg, building).
holds(s_11471_jpg, feature).
holds(s_11471_jpg, suburban).
holds(s_11471_jpg, miscresidential).
holds(s_11471_jpg, commercial).
holds(s_11471_jpg, door).
holds(s_11471_jpg, window).
holds(s_11471_jpg, porch).
holds(s_11471_jpg, sign).
holds(s_11471_jpg, tiledroof).
holds(s_11471_jpg, vendingmachine).
holds(s_11471_jpg, car).

sample(s_13214_jpg).
holds(s_13214_jpg, building).
holds(s_13214_jpg, feature).
holds(s_13214_jpg, suburban).
holds(s_13214_jpg, miscresidential).
holds(s_13214_jpg, door).
holds(s_13214_jpg, window).
holds(s_13214_jpg, porch).
holds(s_13214_jpg, sign).
holds(s_13214_jpg, tiledroof).
holds(s_13214_jpg, vendingmachine).
holds(s_13214_jpg, chimney).
holds(s_13214_jpg, car).

sample(s_6470_jpg).
holds(s_6470_jpg, building).
holds(s_6470_jpg, feature).
holds(s_6470_jpg, miscresidential).
holds(s_6470_jpg, countryhouse).
holds(s_6470_jpg, door).
holds(s_6470_jpg, window).
holds(s_6470_jpg, porch).
holds(s_6470_jpg, sign).
holds(s_6470_jpg, tiledroof).
holds(s_6470_jpg, chimney).
holds(s_6470_jpg, car).

sample(s_7623_jpg).
holds(s_7623_jpg, building).
holds(s_7623_jpg, feature).
holds(s_7623_jpg, cafe).
holds(s_7623_jpg, hotel).
holds(s_7623_jpg, store).
holds(s_7623_jpg, misccommercial).
holds(s_7623_jpg, commercial).
holds(s_7623_jpg, awning).
holds(s_7623_jpg, vendingmachine).
holds(s_7623_jpg, chimney).
holds(s_7623_jpg, car).

sample(s_948_jpg).
holds(s_948_jpg, building).
holds(s_948_jpg, feature).
holds(s_948_jpg, cafe).
holds(s_948_jpg, hotel).
holds(s_948_jpg, misccommercial).
holds(s_948_jpg, commercial).
holds(s_948_jpg, door).
holds(s_948_jpg, awning).
holds(s_948_jpg, vendingmachine).
holds(s_948_jpg, chimney).
holds(s_948_jpg, car).

sample(s_2383_jpg).
holds(s_2383_jpg, building).
holds(s_2383_jpg, feature).
holds(s_2383_jpg, powerplant).
holds(s_2383_jpg, door).
holds(s_2383_jpg, window).
holds(s_2383_jpg, awning).
holds(s_2383_jpg, tiledrooftop).
holds(s_2383_jpg, vendingmachine).
holds(s_2383_jpg, chimney).
holds(s_2383_jpg, machine).

sample(s_611_jpg).
holds(s_611_jpg, building).
holds(s_611_jpg, feature).
holds(s_611_jpg, miscresidential).
holds(s_611_jpg, countryhouse).
holds(s_611_jpg, door).
holds(s_611_jpg, window).
holds(s_611_jpg, sign).
holds(s_611_jpg, tiledroof).
holds(s_611_jpg, chimney).
holds(s_611_jpg, car).

sample(s_11140_jpg).
holds(s_11140_jpg, building).
holds(s_11140_jpg, feature).
holds(s_11140_jpg, powerplant).
holds(s_11140_jpg, door).
holds(s_11140_jpg, window).
holds(s_11140_jpg, sign).
holds(s_11140_jpg, tiledrooftop).
holds(s_11140_jpg, chimney).
holds(s_11140_jpg, machine).

sample(s_12149_jpg).
holds(s_12149_jpg, building).
holds(s_12149_jpg, feature).
holds(s_12149_jpg, suburban).
holds(s_12149_jpg, miscresidential).
holds(s_12149_jpg, commercial).
holds(s_12149_jpg, door).
holds(s_12149_jpg, window).
holds(s_12149_jpg, porch).
holds(s_12149_jpg, sign).
holds(s_12149_jpg, tiledroof).
holds(s_12149_jpg, vendingmachine).
holds(s_12149_jpg, chimney).
holds(s_12149_jpg, car).

sample(s_8460_jpg).
holds(s_8460_jpg, building).
holds(s_8460_jpg, feature).
holds(s_8460_jpg, cafe).
holds(s_8460_jpg, hotel).
holds(s_8460_jpg, restaurant).
holds(s_8460_jpg, residential).
holds(s_8460_jpg, commercial).
holds(s_8460_jpg, window).
holds(s_8460_jpg, awning).
holds(s_8460_jpg, tiledrooftop).
holds(s_8460_jpg, vendingmachine).
holds(s_8460_jpg, chimney).
holds(s_8460_jpg, pipe).
holds(s_8460_jpg, car).

sample(s_5897_jpg).
holds(s_5897_jpg, building).
holds(s_5897_jpg, feature).
holds(s_5897_jpg, suburban).
holds(s_5897_jpg, miscresidential).
holds(s_5897_jpg, commercial).
holds(s_5897_jpg, door).
holds(s_5897_jpg, window).
holds(s_5897_jpg, porch).
holds(s_5897_jpg, sign).
holds(s_5897_jpg, tiledroof).
holds(s_5897_jpg, vendingmachine).
holds(s_5897_jpg, car).

sample(s_7474_jpg).
holds(s_7474_jpg, building).
holds(s_7474_jpg, feature).
holds(s_7474_jpg, miscindustrial).
holds(s_7474_jpg, watertreatment).
holds(s_7474_jpg, door).
holds(s_7474_jpg, window).
holds(s_7474_jpg, awning).
holds(s_7474_jpg, sign).
holds(s_7474_jpg, tiledrooftop).
holds(s_7474_jpg, vendingmachine).
holds(s_7474_jpg, machine).

sample(s_740_jpg).
holds(s_740_jpg, building).
holds(s_740_jpg, feature).
holds(s_740_jpg, suburban).
holds(s_740_jpg, miscresidential).
holds(s_740_jpg, countryhouse).
holds(s_740_jpg, door).
holds(s_740_jpg, window).
holds(s_740_jpg, porch).
holds(s_740_jpg, sign).
holds(s_740_jpg, tiledroof).
holds(s_740_jpg, car).

sample(s_1684_jpg).
holds(s_1684_jpg, building).
holds(s_1684_jpg, feature).
holds(s_1684_jpg, miscindustrial).
holds(s_1684_jpg, watertreatment).
holds(s_1684_jpg, door).
holds(s_1684_jpg, window).
holds(s_1684_jpg, sign).
holds(s_1684_jpg, tiledrooftop).
holds(s_1684_jpg, vendingmachine).
holds(s_1684_jpg, chimney).
holds(s_1684_jpg, machine).

sample(s_3852_jpg).
holds(s_3852_jpg, building).
holds(s_3852_jpg, feature).
holds(s_3852_jpg, cafe).
holds(s_3852_jpg, misccommercial).
holds(s_3852_jpg, commercial).
holds(s_3852_jpg, door).
holds(s_3852_jpg, awning).
holds(s_3852_jpg, vendingmachine).
holds(s_3852_jpg, chimney).
holds(s_3852_jpg, car).

sample(s_4443_jpg).
holds(s_4443_jpg, building).
holds(s_4443_jpg, feature).
holds(s_4443_jpg, cafe).
holds(s_4443_jpg, hotel).
holds(s_4443_jpg, store).
holds(s_4443_jpg, misccommercial).
holds(s_4443_jpg, residential).
holds(s_4443_jpg, commercial).
holds(s_4443_jpg, awning).
holds(s_4443_jpg, vendingmachine).
holds(s_4443_jpg, chimney).
holds(s_4443_jpg, pipe).
holds(s_4443_jpg, car).

sample(s_6867_jpg).
holds(s_6867_jpg, building).
holds(s_6867_jpg, feature).
holds(s_6867_jpg, cafe).
holds(s_6867_jpg, store).
holds(s_6867_jpg, misccommercial).
holds(s_6867_jpg, commercial).
holds(s_6867_jpg, awning).
holds(s_6867_jpg, vendingmachine).
holds(s_6867_jpg, chimney).
holds(s_6867_jpg, car).

sample(s_15315_jpg).
holds(s_15315_jpg, building).
holds(s_15315_jpg, feature).
holds(s_15315_jpg, cafe).
holds(s_15315_jpg, hotel).
holds(s_15315_jpg, restaurant).
holds(s_15315_jpg, misccommercial).
holds(s_15315_jpg, residential).
holds(s_15315_jpg, commercial).
holds(s_15315_jpg, awning).
holds(s_15315_jpg, vendingmachine).
holds(s_15315_jpg, chimney).
holds(s_15315_jpg, pipe).
holds(s_15315_jpg, car).

sample(s_9486_jpg).
holds(s_9486_jpg, building).
holds(s_9486_jpg, feature).
holds(s_9486_jpg, cafe).
holds(s_9486_jpg, hotel).
holds(s_9486_jpg, store).
holds(s_9486_jpg, misccommercial).
holds(s_9486_jpg, commercial).
holds(s_9486_jpg, window).
holds(s_9486_jpg, awning).
holds(s_9486_jpg, vendingmachine).
holds(s_9486_jpg, chimney).
holds(s_9486_jpg, car).

sample(s_3670_jpg).
holds(s_3670_jpg, building).
holds(s_3670_jpg, feature).
holds(s_3670_jpg, miscindustrial).
holds(s_3670_jpg, watertreatment).
holds(s_3670_jpg, door).
holds(s_3670_jpg, window).
holds(s_3670_jpg, sign).
holds(s_3670_jpg, tiledrooftop).
holds(s_3670_jpg, vendingmachine).
holds(s_3670_jpg, machine).

sample(s_1243_jpg).
holds(s_1243_jpg, building).
holds(s_1243_jpg, feature).
holds(s_1243_jpg, miscindustrial).
holds(s_1243_jpg, powerplant).
holds(s_1243_jpg, watertreatment).
holds(s_1243_jpg, door).
holds(s_1243_jpg, window).
holds(s_1243_jpg, sign).
holds(s_1243_jpg, tiledrooftop).
holds(s_1243_jpg, chimney).
holds(s_1243_jpg, machine).

sample(s_12159_jpg).
holds(s_12159_jpg, building).
holds(s_12159_jpg, feature).
holds(s_12159_jpg, cafe).
holds(s_12159_jpg, hotel).
holds(s_12159_jpg, restaurant).
holds(s_12159_jpg, store).
holds(s_12159_jpg, misccommercial).
holds(s_12159_jpg, residential).
holds(s_12159_jpg, commercial).
holds(s_12159_jpg, awning).
holds(s_12159_jpg, vendingmachine).
holds(s_12159_jpg, chimney).
holds(s_12159_jpg, pipe).
holds(s_12159_jpg, car).

sample(s_3435_jpg).
holds(s_3435_jpg, building).
holds(s_3435_jpg, feature).
holds(s_3435_jpg, cafe).
holds(s_3435_jpg, hotel).
holds(s_3435_jpg, store).
holds(s_3435_jpg, misccommercial).
holds(s_3435_jpg, commercial).
holds(s_3435_jpg, awning).
holds(s_3435_jpg, vendingmachine).
holds(s_3435_jpg, chimney).
holds(s_3435_jpg, car).

sample(s_75_jpg).
holds(s_75_jpg, building).
holds(s_75_jpg, feature).
holds(s_75_jpg, cafe).
holds(s_75_jpg, store).
holds(s_75_jpg, misccommercial).
holds(s_75_jpg, commercial).
holds(s_75_jpg, awning).
holds(s_75_jpg, vendingmachine).
holds(s_75_jpg, chimney).
holds(s_75_jpg, pipe).
holds(s_75_jpg, car).

sample(s_1452_jpg).
holds(s_1452_jpg, building).
holds(s_1452_jpg, feature).
holds(s_1452_jpg, cafe).
holds(s_1452_jpg, hotel).
holds(s_1452_jpg, misccommercial).
holds(s_1452_jpg, residential).
holds(s_1452_jpg, commercial).
holds(s_1452_jpg, awning).
holds(s_1452_jpg, tiledrooftop).
holds(s_1452_jpg, vendingmachine).
holds(s_1452_jpg, chimney).
holds(s_1452_jpg, car).

sample(s_11911_jpg).
holds(s_11911_jpg, building).
holds(s_11911_jpg, feature).
holds(s_11911_jpg, constructionsite).
holds(s_11911_jpg, powerplant).
holds(s_11911_jpg, commercial).
holds(s_11911_jpg, door).
holds(s_11911_jpg, awning).
holds(s_11911_jpg, tiledrooftop).
holds(s_11911_jpg, vendingmachine).
holds(s_11911_jpg, chimney).
holds(s_11911_jpg, machine).

sample(s_2148_jpg).
holds(s_2148_jpg, building).
holds(s_2148_jpg, feature).
holds(s_2148_jpg, cafe).
holds(s_2148_jpg, hotel).
holds(s_2148_jpg, store).
holds(s_2148_jpg, misccommercial).
holds(s_2148_jpg, residential).
holds(s_2148_jpg, commercial).
holds(s_2148_jpg, awning).
holds(s_2148_jpg, vendingmachine).
holds(s_2148_jpg, chimney).
holds(s_2148_jpg, pipe).
holds(s_2148_jpg, car).

sample(s_15638_jpg).
holds(s_15638_jpg, building).
holds(s_15638_jpg, feature).
holds(s_15638_jpg, miscresidential).
holds(s_15638_jpg, countryhouse).
holds(s_15638_jpg, door).
holds(s_15638_jpg, window).
holds(s_15638_jpg, porch).
holds(s_15638_jpg, sign).
holds(s_15638_jpg, tiledroof).
holds(s_15638_jpg, chimney).
holds(s_15638_jpg, car).

sample(s_2168_jpg).
holds(s_2168_jpg, building).
holds(s_2168_jpg, feature).
holds(s_2168_jpg, suburban).
holds(s_2168_jpg, miscresidential).
holds(s_2168_jpg, commercial).
holds(s_2168_jpg, door).
holds(s_2168_jpg, window).
holds(s_2168_jpg, porch).
holds(s_2168_jpg, sign).
holds(s_2168_jpg, tiledroof).
holds(s_2168_jpg, vendingmachine).
holds(s_2168_jpg, car).

sample(s_12303_jpg).
holds(s_12303_jpg, building).
holds(s_12303_jpg, feature).
holds(s_12303_jpg, cafe).
holds(s_12303_jpg, hotel).
holds(s_12303_jpg, restaurant).
holds(s_12303_jpg, store).
holds(s_12303_jpg, misccommercial).
holds(s_12303_jpg, residential).
holds(s_12303_jpg, commercial).
holds(s_12303_jpg, vendingmachine).
holds(s_12303_jpg, chimney).
holds(s_12303_jpg, pipe).
holds(s_12303_jpg, car).

sample(s_10819_jpg).
holds(s_10819_jpg, building).
holds(s_10819_jpg, feature).
holds(s_10819_jpg, constructionsite).
holds(s_10819_jpg, powerplant).
holds(s_10819_jpg, commercial).
holds(s_10819_jpg, door).
holds(s_10819_jpg, awning).
holds(s_10819_jpg, tiledrooftop).
holds(s_10819_jpg, vendingmachine).
holds(s_10819_jpg, chimney).
holds(s_10819_jpg, machine).

sample(s_2269_jpg).
holds(s_2269_jpg, building).
holds(s_2269_jpg, feature).
holds(s_2269_jpg, miscindustrial).
holds(s_2269_jpg, powerplant).
holds(s_2269_jpg, watertreatment).
holds(s_2269_jpg, door).
holds(s_2269_jpg, window).
holds(s_2269_jpg, sign).
holds(s_2269_jpg, tiledrooftop).
holds(s_2269_jpg, vendingmachine).
holds(s_2269_jpg, chimney).
holds(s_2269_jpg, machine).

sample(s_14971_jpg).
holds(s_14971_jpg, building).
holds(s_14971_jpg, feature).
holds(s_14971_jpg, miscindustrial).
holds(s_14971_jpg, watertreatment).
holds(s_14971_jpg, door).
holds(s_14971_jpg, window).
holds(s_14971_jpg, sign).
holds(s_14971_jpg, tiledrooftop).
holds(s_14971_jpg, vendingmachine).
holds(s_14971_jpg, machine).

sample(s_1714_jpg).
holds(s_1714_jpg, building).
holds(s_1714_jpg, feature).
holds(s_1714_jpg, powerplant).
holds(s_1714_jpg, door).
holds(s_1714_jpg, window).
holds(s_1714_jpg, tiledrooftop).
holds(s_1714_jpg, vendingmachine).
holds(s_1714_jpg, chimney).
holds(s_1714_jpg, machine).

sample(s_7456_jpg).
holds(s_7456_jpg, building).
holds(s_7456_jpg, feature).
holds(s_7456_jpg, miscindustrial).
holds(s_7456_jpg, powerplant).
holds(s_7456_jpg, watertreatment).
holds(s_7456_jpg, door).
holds(s_7456_jpg, window).
holds(s_7456_jpg, sign).
holds(s_7456_jpg, tiledrooftop).
holds(s_7456_jpg, vendingmachine).
holds(s_7456_jpg, chimney).
holds(s_7456_jpg, machine).

sample(s_12883_jpg).
holds(s_12883_jpg, building).
holds(s_12883_jpg, feature).
holds(s_12883_jpg, miscindustrial).
holds(s_12883_jpg, watertreatment).
holds(s_12883_jpg, door).
holds(s_12883_jpg, window).
holds(s_12883_jpg, sign).
holds(s_12883_jpg, tiledrooftop).
holds(s_12883_jpg, vendingmachine).
holds(s_12883_jpg, machine).

sample(s_130_jpg).
holds(s_130_jpg, building).
holds(s_130_jpg, feature).
holds(s_130_jpg, constructionsite).
holds(s_130_jpg, commercial).
holds(s_130_jpg, door).
holds(s_130_jpg, awning).
holds(s_130_jpg, tiledrooftop).
holds(s_130_jpg, vendingmachine).
holds(s_130_jpg, chimney).
holds(s_130_jpg, machine).

sample(s_13313_jpg).
holds(s_13313_jpg, building).
holds(s_13313_jpg, feature).
holds(s_13313_jpg, suburban).
holds(s_13313_jpg, miscresidential).
holds(s_13313_jpg, commercial).
holds(s_13313_jpg, door).
holds(s_13313_jpg, window).
holds(s_13313_jpg, porch).
holds(s_13313_jpg, sign).
holds(s_13313_jpg, tiledroof).
holds(s_13313_jpg, vendingmachine).
holds(s_13313_jpg, chimney).
holds(s_13313_jpg, car).

sample(s_8686_jpg).
holds(s_8686_jpg, building).
holds(s_8686_jpg, feature).
holds(s_8686_jpg, powerplant).
holds(s_8686_jpg, commercial).
holds(s_8686_jpg, door).
holds(s_8686_jpg, window).
holds(s_8686_jpg, awning).
holds(s_8686_jpg, tiledrooftop).
holds(s_8686_jpg, vendingmachine).
holds(s_8686_jpg, chimney).
holds(s_8686_jpg, car).

sample(s_8464_jpg).
holds(s_8464_jpg, building).
holds(s_8464_jpg, feature).
holds(s_8464_jpg, miscindustrial).
holds(s_8464_jpg, powerplant).
holds(s_8464_jpg, watertreatment).
holds(s_8464_jpg, door).
holds(s_8464_jpg, window).
holds(s_8464_jpg, sign).
holds(s_8464_jpg, tiledrooftop).
holds(s_8464_jpg, chimney).
holds(s_8464_jpg, machine).

sample(s_6996_jpg).
holds(s_6996_jpg, building).
holds(s_6996_jpg, feature).
holds(s_6996_jpg, hotel).
holds(s_6996_jpg, store).
holds(s_6996_jpg, residential).
holds(s_6996_jpg, commercial).
holds(s_6996_jpg, awning).
holds(s_6996_jpg, vendingmachine).
holds(s_6996_jpg, chimney).
holds(s_6996_jpg, pipe).
holds(s_6996_jpg, car).

sample(s_10341_jpg).
holds(s_10341_jpg, building).
holds(s_10341_jpg, feature).
holds(s_10341_jpg, cafe).
holds(s_10341_jpg, misccommercial).
holds(s_10341_jpg, commercial).
holds(s_10341_jpg, door).
holds(s_10341_jpg, awning).
holds(s_10341_jpg, vendingmachine).
holds(s_10341_jpg, chimney).
holds(s_10341_jpg, car).

sample(s_5473_jpg).
holds(s_5473_jpg, building).
holds(s_5473_jpg, feature).
holds(s_5473_jpg, powerplant).
holds(s_5473_jpg, door).
holds(s_5473_jpg, window).
holds(s_5473_jpg, sign).
holds(s_5473_jpg, tiledrooftop).
holds(s_5473_jpg, vendingmachine).
holds(s_5473_jpg, chimney).
holds(s_5473_jpg, machine).

sample(s_3074_jpg).
holds(s_3074_jpg, building).
holds(s_3074_jpg, feature).
holds(s_3074_jpg, miscresidential).
holds(s_3074_jpg, countryhouse).
holds(s_3074_jpg, commercial).
holds(s_3074_jpg, door).
holds(s_3074_jpg, window).
holds(s_3074_jpg, sign).
holds(s_3074_jpg, tiledroof).
holds(s_3074_jpg, car).

sample(s_5786_jpg).
holds(s_5786_jpg, building).
holds(s_5786_jpg, feature).
holds(s_5786_jpg, miscresidential).
holds(s_5786_jpg, countryhouse).
holds(s_5786_jpg, door).
holds(s_5786_jpg, window).
holds(s_5786_jpg, porch).
holds(s_5786_jpg, sign).
holds(s_5786_jpg, tiledroof).
holds(s_5786_jpg, chimney).
holds(s_5786_jpg, car).

sample(s_7336_jpg).
holds(s_7336_jpg, building).
holds(s_7336_jpg, feature).
holds(s_7336_jpg, constructionsite).
holds(s_7336_jpg, commercial).
holds(s_7336_jpg, door).
holds(s_7336_jpg, awning).
holds(s_7336_jpg, tiledrooftop).
holds(s_7336_jpg, vendingmachine).
holds(s_7336_jpg, chimney).

sample(s_14220_jpg).
holds(s_14220_jpg, building).
holds(s_14220_jpg, feature).
holds(s_14220_jpg, cafe).
holds(s_14220_jpg, hotel).
holds(s_14220_jpg, store).
holds(s_14220_jpg, misccommercial).
holds(s_14220_jpg, residential).
holds(s_14220_jpg, commercial).
holds(s_14220_jpg, awning).
holds(s_14220_jpg, vendingmachine).
holds(s_14220_jpg, chimney).
holds(s_14220_jpg, car).

sample(s_997_jpg).
holds(s_997_jpg, building).
holds(s_997_jpg, feature).
holds(s_997_jpg, powerplant).
holds(s_997_jpg, door).
holds(s_997_jpg, window).
holds(s_997_jpg, sign).
holds(s_997_jpg, tiledrooftop).
holds(s_997_jpg, vendingmachine).
holds(s_997_jpg, chimney).
holds(s_997_jpg, machine).

sample(s_13871_jpg).
holds(s_13871_jpg, building).
holds(s_13871_jpg, feature).
holds(s_13871_jpg, suburban).
holds(s_13871_jpg, miscresidential).
holds(s_13871_jpg, countryhouse).
holds(s_13871_jpg, commercial).
holds(s_13871_jpg, door).
holds(s_13871_jpg, window).
holds(s_13871_jpg, porch).
holds(s_13871_jpg, sign).
holds(s_13871_jpg, tiledroof).
holds(s_13871_jpg, vendingmachine).
holds(s_13871_jpg, car).

sample(s_3630_jpg).
holds(s_3630_jpg, building).
holds(s_3630_jpg, feature).
holds(s_3630_jpg, cafe).
holds(s_3630_jpg, hotel).
holds(s_3630_jpg, misccommercial).
holds(s_3630_jpg, commercial).
holds(s_3630_jpg, door).
holds(s_3630_jpg, awning).
holds(s_3630_jpg, vendingmachine).
holds(s_3630_jpg, chimney).
holds(s_3630_jpg, car).

sample(s_14401_jpg).
holds(s_14401_jpg, building).
holds(s_14401_jpg, feature).
holds(s_14401_jpg, constructionsite).
holds(s_14401_jpg, powerplant).
holds(s_14401_jpg, commercial).
holds(s_14401_jpg, door).
holds(s_14401_jpg, window).
holds(s_14401_jpg, awning).
holds(s_14401_jpg, tiledrooftop).
holds(s_14401_jpg, vendingmachine).
holds(s_14401_jpg, chimney).
holds(s_14401_jpg, machine).

sample(s_1794_jpg).
holds(s_1794_jpg, building).
holds(s_1794_jpg, feature).
holds(s_1794_jpg, cafe).
holds(s_1794_jpg, hotel).
holds(s_1794_jpg, misccommercial).
holds(s_1794_jpg, commercial).
holds(s_1794_jpg, door).
holds(s_1794_jpg, awning).
holds(s_1794_jpg, tiledrooftop).
holds(s_1794_jpg, vendingmachine).
holds(s_1794_jpg, chimney).
holds(s_1794_jpg, car).

sample(s_13780_jpg).
holds(s_13780_jpg, building).
holds(s_13780_jpg, feature).
holds(s_13780_jpg, constructionsite).
holds(s_13780_jpg, powerplant).
holds(s_13780_jpg, commercial).
holds(s_13780_jpg, door).
holds(s_13780_jpg, window).
holds(s_13780_jpg, awning).
holds(s_13780_jpg, tiledrooftop).
holds(s_13780_jpg, vendingmachine).
holds(s_13780_jpg, chimney).

sample(s_119_jpg).
holds(s_119_jpg, building).
holds(s_119_jpg, feature).
holds(s_119_jpg, suburban).
holds(s_119_jpg, commercial).
holds(s_119_jpg, door).
holds(s_119_jpg, window).
holds(s_119_jpg, porch).
holds(s_119_jpg, sign).
holds(s_119_jpg, tiledroof).
holds(s_119_jpg, tiledrooftop).
holds(s_119_jpg, vendingmachine).

sample(s_6254_jpg).
holds(s_6254_jpg, building).
holds(s_6254_jpg, feature).
holds(s_6254_jpg, suburban).
holds(s_6254_jpg, miscresidential).
holds(s_6254_jpg, countryhouse).
holds(s_6254_jpg, door).
holds(s_6254_jpg, window).
holds(s_6254_jpg, porch).
holds(s_6254_jpg, sign).
holds(s_6254_jpg, tiledroof).
holds(s_6254_jpg, vendingmachine).
holds(s_6254_jpg, car).

sample(s_1426_jpg).
holds(s_1426_jpg, building).
holds(s_1426_jpg, feature).
holds(s_1426_jpg, miscindustrial).
holds(s_1426_jpg, watertreatment).
holds(s_1426_jpg, door).
holds(s_1426_jpg, window).
holds(s_1426_jpg, sign).
holds(s_1426_jpg, tiledrooftop).
holds(s_1426_jpg, vendingmachine).
holds(s_1426_jpg, machine).

sample(s_9957_jpg).
holds(s_9957_jpg, building).
holds(s_9957_jpg, feature).
holds(s_9957_jpg, cafe).
holds(s_9957_jpg, hotel).
holds(s_9957_jpg, store).
holds(s_9957_jpg, misccommercial).
holds(s_9957_jpg, commercial).
holds(s_9957_jpg, awning).
holds(s_9957_jpg, vendingmachine).
holds(s_9957_jpg, chimney).
holds(s_9957_jpg, pipe).
holds(s_9957_jpg, car).

sample(s_14178_jpg).
holds(s_14178_jpg, building).
holds(s_14178_jpg, feature).
holds(s_14178_jpg, cafe).
holds(s_14178_jpg, hotel).
holds(s_14178_jpg, store).
holds(s_14178_jpg, misccommercial).
holds(s_14178_jpg, commercial).
holds(s_14178_jpg, awning).
holds(s_14178_jpg, vendingmachine).
holds(s_14178_jpg, chimney).
holds(s_14178_jpg, car).

sample(s_8497_jpg).
holds(s_8497_jpg, building).
holds(s_8497_jpg, feature).
holds(s_8497_jpg, constructionsite).
holds(s_8497_jpg, powerplant).
holds(s_8497_jpg, commercial).
holds(s_8497_jpg, door).
holds(s_8497_jpg, window).
holds(s_8497_jpg, tiledrooftop).
holds(s_8497_jpg, vendingmachine).
holds(s_8497_jpg, chimney).
holds(s_8497_jpg, machine).

sample(s_10050_jpg).
holds(s_10050_jpg, building).
holds(s_10050_jpg, feature).
holds(s_10050_jpg, hotel).
holds(s_10050_jpg, restaurant).
holds(s_10050_jpg, store).
holds(s_10050_jpg, misccommercial).
holds(s_10050_jpg, residential).
holds(s_10050_jpg, commercial).
holds(s_10050_jpg, awning).
holds(s_10050_jpg, vendingmachine).
holds(s_10050_jpg, pipe).
holds(s_10050_jpg, car).

sample(s_13551_jpg).
holds(s_13551_jpg, building).
holds(s_13551_jpg, feature).
holds(s_13551_jpg, cafe).
holds(s_13551_jpg, hotel).
holds(s_13551_jpg, store).
holds(s_13551_jpg, residential).
holds(s_13551_jpg, commercial).
holds(s_13551_jpg, awning).
holds(s_13551_jpg, vendingmachine).
holds(s_13551_jpg, chimney).
holds(s_13551_jpg, car).

sample(s_6292_jpg).
holds(s_6292_jpg, building).
holds(s_6292_jpg, feature).
holds(s_6292_jpg, miscindustrial).
holds(s_6292_jpg, watertreatment).
holds(s_6292_jpg, door).
holds(s_6292_jpg, window).
holds(s_6292_jpg, sign).
holds(s_6292_jpg, tiledrooftop).
holds(s_6292_jpg, vendingmachine).
holds(s_6292_jpg, machine).

sample(s_4494_jpg).
holds(s_4494_jpg, building).
holds(s_4494_jpg, feature).
holds(s_4494_jpg, restaurant).
holds(s_4494_jpg, store).
holds(s_4494_jpg, residential).
holds(s_4494_jpg, commercial).
holds(s_4494_jpg, vendingmachine).
holds(s_4494_jpg, wallsign).
holds(s_4494_jpg, chimney).
holds(s_4494_jpg, pipe).
holds(s_4494_jpg, car).

sample(s_4007_jpg).
holds(s_4007_jpg, building).
holds(s_4007_jpg, feature).
holds(s_4007_jpg, miscresidential).
holds(s_4007_jpg, countryhouse).
holds(s_4007_jpg, door).
holds(s_4007_jpg, window).
holds(s_4007_jpg, sign).
holds(s_4007_jpg, tiledroof).
holds(s_4007_jpg, chimney).
holds(s_4007_jpg, car).

sample(s_3849_jpg).
holds(s_3849_jpg, building).
holds(s_3849_jpg, feature).
holds(s_3849_jpg, cafe).
holds(s_3849_jpg, hotel).
holds(s_3849_jpg, restaurant).
holds(s_3849_jpg, misccommercial).
holds(s_3849_jpg, commercial).
holds(s_3849_jpg, awning).
holds(s_3849_jpg, vendingmachine).
holds(s_3849_jpg, chimney).
holds(s_3849_jpg, car).

sample(s_4785_jpg).
holds(s_4785_jpg, building).
holds(s_4785_jpg, feature).
holds(s_4785_jpg, cafe).
holds(s_4785_jpg, hotel).
holds(s_4785_jpg, store).
holds(s_4785_jpg, misccommercial).
holds(s_4785_jpg, residential).
holds(s_4785_jpg, commercial).
holds(s_4785_jpg, awning).
holds(s_4785_jpg, vendingmachine).
holds(s_4785_jpg, chimney).
holds(s_4785_jpg, car).

sample(s_9985_jpg).
holds(s_9985_jpg, building).
holds(s_9985_jpg, feature).
holds(s_9985_jpg, constructionsite).
holds(s_9985_jpg, powerplant).
holds(s_9985_jpg, commercial).
holds(s_9985_jpg, door).
holds(s_9985_jpg, awning).
holds(s_9985_jpg, tiledrooftop).
holds(s_9985_jpg, vendingmachine).
holds(s_9985_jpg, chimney).
holds(s_9985_jpg, machine).

sample(s_6793_jpg).
holds(s_6793_jpg, building).
holds(s_6793_jpg, feature).
holds(s_6793_jpg, miscindustrial).
holds(s_6793_jpg, powerplant).
holds(s_6793_jpg, watertreatment).
holds(s_6793_jpg, door).
holds(s_6793_jpg, window).
holds(s_6793_jpg, sign).
holds(s_6793_jpg, tiledrooftop).
holds(s_6793_jpg, vendingmachine).
holds(s_6793_jpg, chimney).
holds(s_6793_jpg, machine).

sample(s_11100_jpg).
holds(s_11100_jpg, building).
holds(s_11100_jpg, feature).
holds(s_11100_jpg, cafe).
holds(s_11100_jpg, hotel).
holds(s_11100_jpg, restaurant).
holds(s_11100_jpg, store).
holds(s_11100_jpg, residential).
holds(s_11100_jpg, commercial).
holds(s_11100_jpg, awning).
holds(s_11100_jpg, vendingmachine).
holds(s_11100_jpg, chimney).
holds(s_11100_jpg, pipe).
holds(s_11100_jpg, car).

sample(s_14826_jpg).
holds(s_14826_jpg, building).
holds(s_14826_jpg, feature).
holds(s_14826_jpg, cafe).
holds(s_14826_jpg, hotel).
holds(s_14826_jpg, misccommercial).
holds(s_14826_jpg, commercial).
holds(s_14826_jpg, door).
holds(s_14826_jpg, awning).
holds(s_14826_jpg, tiledrooftop).
holds(s_14826_jpg, vendingmachine).
holds(s_14826_jpg, chimney).
holds(s_14826_jpg, car).

sample(s_6586_jpg).
holds(s_6586_jpg, building).
holds(s_6586_jpg, feature).
holds(s_6586_jpg, miscindustrial).
holds(s_6586_jpg, watertreatment).
holds(s_6586_jpg, door).
holds(s_6586_jpg, window).
holds(s_6586_jpg, sign).
holds(s_6586_jpg, tiledrooftop).
holds(s_6586_jpg, vendingmachine).
holds(s_6586_jpg, machine).

sample(s_3624_jpg).
holds(s_3624_jpg, building).
holds(s_3624_jpg, feature).
holds(s_3624_jpg, cafe).
holds(s_3624_jpg, hotel).
holds(s_3624_jpg, store).
holds(s_3624_jpg, residential).
holds(s_3624_jpg, commercial).
holds(s_3624_jpg, window).
holds(s_3624_jpg, awning).
holds(s_3624_jpg, vendingmachine).
holds(s_3624_jpg, chimney).
holds(s_3624_jpg, car).

sample(s_14619_jpg).
holds(s_14619_jpg, building).
holds(s_14619_jpg, feature).
holds(s_14619_jpg, cafe).
holds(s_14619_jpg, restaurant).
holds(s_14619_jpg, store).
holds(s_14619_jpg, misccommercial).
holds(s_14619_jpg, residential).
holds(s_14619_jpg, commercial).
holds(s_14619_jpg, awning).
holds(s_14619_jpg, vendingmachine).
holds(s_14619_jpg, chimney).
holds(s_14619_jpg, pipe).
holds(s_14619_jpg, car).

sample(s_4556_jpg).
holds(s_4556_jpg, building).
holds(s_4556_jpg, feature).
holds(s_4556_jpg, miscresidential).
holds(s_4556_jpg, countryhouse).
holds(s_4556_jpg, door).
holds(s_4556_jpg, window).
holds(s_4556_jpg, sign).
holds(s_4556_jpg, tiledroof).
holds(s_4556_jpg, chimney).
holds(s_4556_jpg, car).

sample(s_5844_jpg).
holds(s_5844_jpg, building).
holds(s_5844_jpg, feature).
holds(s_5844_jpg, cafe).
holds(s_5844_jpg, hotel).
holds(s_5844_jpg, store).
holds(s_5844_jpg, residential).
holds(s_5844_jpg, commercial).
holds(s_5844_jpg, awning).
holds(s_5844_jpg, vendingmachine).
holds(s_5844_jpg, chimney).
holds(s_5844_jpg, car).

sample(s_6799_jpg).
holds(s_6799_jpg, building).
holds(s_6799_jpg, feature).
holds(s_6799_jpg, miscindustrial).
holds(s_6799_jpg, powerplant).
holds(s_6799_jpg, watertreatment).
holds(s_6799_jpg, door).
holds(s_6799_jpg, window).
holds(s_6799_jpg, sign).
holds(s_6799_jpg, tiledrooftop).
holds(s_6799_jpg, chimney).
holds(s_6799_jpg, machine).

sample(s_7743_jpg).
holds(s_7743_jpg, building).
holds(s_7743_jpg, feature).
holds(s_7743_jpg, cafe).
holds(s_7743_jpg, hotel).
holds(s_7743_jpg, restaurant).
holds(s_7743_jpg, store).
holds(s_7743_jpg, misccommercial).
holds(s_7743_jpg, residential).
holds(s_7743_jpg, commercial).
holds(s_7743_jpg, awning).
holds(s_7743_jpg, vendingmachine).
holds(s_7743_jpg, chimney).
holds(s_7743_jpg, pipe).
holds(s_7743_jpg, car).

sample(s_4937_jpg).
holds(s_4937_jpg, building).
holds(s_4937_jpg, feature).
holds(s_4937_jpg, miscresidential).
holds(s_4937_jpg, door).
holds(s_4937_jpg, window).
holds(s_4937_jpg, porch).
holds(s_4937_jpg, sign).
holds(s_4937_jpg, tiledroof).
holds(s_4937_jpg, vendingmachine).
holds(s_4937_jpg, chimney).
holds(s_4937_jpg, car).

sample(s_12668_jpg).
holds(s_12668_jpg, building).
holds(s_12668_jpg, feature).
holds(s_12668_jpg, suburban).
holds(s_12668_jpg, commercial).
holds(s_12668_jpg, door).
holds(s_12668_jpg, porch).
holds(s_12668_jpg, sign).
holds(s_12668_jpg, tiledroof).
holds(s_12668_jpg, tiledrooftop).
holds(s_12668_jpg, vendingmachine).

sample(s_5674_jpg).
holds(s_5674_jpg, building).
holds(s_5674_jpg, feature).
holds(s_5674_jpg, powerplant).
holds(s_5674_jpg, door).
holds(s_5674_jpg, window).
holds(s_5674_jpg, sign).
holds(s_5674_jpg, tiledrooftop).
holds(s_5674_jpg, vendingmachine).
holds(s_5674_jpg, chimney).
holds(s_5674_jpg, machine).

sample(s_15456_jpg).
holds(s_15456_jpg, building).
holds(s_15456_jpg, feature).
holds(s_15456_jpg, cafe).
holds(s_15456_jpg, hotel).
holds(s_15456_jpg, misccommercial).
holds(s_15456_jpg, commercial).
holds(s_15456_jpg, awning).
holds(s_15456_jpg, tiledrooftop).
holds(s_15456_jpg, vendingmachine).
holds(s_15456_jpg, chimney).
holds(s_15456_jpg, car).

sample(s_14788_jpg).
holds(s_14788_jpg, building).
holds(s_14788_jpg, feature).
holds(s_14788_jpg, powerplant).
holds(s_14788_jpg, door).
holds(s_14788_jpg, window).
holds(s_14788_jpg, awning).
holds(s_14788_jpg, sign).
holds(s_14788_jpg, tiledrooftop).
holds(s_14788_jpg, vendingmachine).
holds(s_14788_jpg, chimney).
holds(s_14788_jpg, machine).

sample(s_15333_jpg).
holds(s_15333_jpg, building).
holds(s_15333_jpg, feature).
holds(s_15333_jpg, cafe).
holds(s_15333_jpg, hotel).
holds(s_15333_jpg, restaurant).
holds(s_15333_jpg, store).
holds(s_15333_jpg, misccommercial).
holds(s_15333_jpg, residential).
holds(s_15333_jpg, commercial).
holds(s_15333_jpg, vendingmachine).
holds(s_15333_jpg, chimney).
holds(s_15333_jpg, pipe).
holds(s_15333_jpg, car).

sample(s_8325_jpg).
holds(s_8325_jpg, building).
holds(s_8325_jpg, feature).
holds(s_8325_jpg, cafe).
holds(s_8325_jpg, hotel).
holds(s_8325_jpg, restaurant).
holds(s_8325_jpg, store).
holds(s_8325_jpg, misccommercial).
holds(s_8325_jpg, residential).
holds(s_8325_jpg, commercial).
holds(s_8325_jpg, awning).
holds(s_8325_jpg, vendingmachine).
holds(s_8325_jpg, pipe).
holds(s_8325_jpg, car).

sample(s_9200_jpg).
holds(s_9200_jpg, building).
holds(s_9200_jpg, feature).
holds(s_9200_jpg, suburban).
holds(s_9200_jpg, miscresidential).
holds(s_9200_jpg, commercial).
holds(s_9200_jpg, door).
holds(s_9200_jpg, window).
holds(s_9200_jpg, porch).
holds(s_9200_jpg, sign).
holds(s_9200_jpg, tiledroof).
holds(s_9200_jpg, vendingmachine).
holds(s_9200_jpg, car).

sample(s_10857_jpg).
holds(s_10857_jpg, building).
holds(s_10857_jpg, feature).
holds(s_10857_jpg, cafe).
holds(s_10857_jpg, hotel).
holds(s_10857_jpg, restaurant).
holds(s_10857_jpg, misccommercial).
holds(s_10857_jpg, residential).
holds(s_10857_jpg, commercial).
holds(s_10857_jpg, awning).
holds(s_10857_jpg, tiledrooftop).
holds(s_10857_jpg, vendingmachine).
holds(s_10857_jpg, chimney).
holds(s_10857_jpg, car).

sample(s_6262_jpg).
holds(s_6262_jpg, building).
holds(s_6262_jpg, feature).
holds(s_6262_jpg, miscindustrial).
holds(s_6262_jpg, watertreatment).
holds(s_6262_jpg, door).
holds(s_6262_jpg, window).
holds(s_6262_jpg, sign).
holds(s_6262_jpg, tiledrooftop).
holds(s_6262_jpg, vendingmachine).
holds(s_6262_jpg, machine).

sample(s_3713_jpg).
holds(s_3713_jpg, building).
holds(s_3713_jpg, feature).
holds(s_3713_jpg, miscresidential).
holds(s_3713_jpg, countryhouse).
holds(s_3713_jpg, door).
holds(s_3713_jpg, window).
holds(s_3713_jpg, porch).
holds(s_3713_jpg, sign).
holds(s_3713_jpg, tiledroof).
holds(s_3713_jpg, chimney).
holds(s_3713_jpg, car).

sample(s_3206_jpg).
holds(s_3206_jpg, building).
holds(s_3206_jpg, feature).
holds(s_3206_jpg, suburban).
holds(s_3206_jpg, miscresidential).
holds(s_3206_jpg, countryhouse).
holds(s_3206_jpg, commercial).
holds(s_3206_jpg, door).
holds(s_3206_jpg, window).
holds(s_3206_jpg, porch).
holds(s_3206_jpg, sign).
holds(s_3206_jpg, tiledroof).
holds(s_3206_jpg, vendingmachine).
holds(s_3206_jpg, car).

sample(s_10104_jpg).
holds(s_10104_jpg, building).
holds(s_10104_jpg, feature).
holds(s_10104_jpg, cafe).
holds(s_10104_jpg, hotel).
holds(s_10104_jpg, store).
holds(s_10104_jpg, misccommercial).
holds(s_10104_jpg, residential).
holds(s_10104_jpg, commercial).
holds(s_10104_jpg, awning).
holds(s_10104_jpg, vendingmachine).
holds(s_10104_jpg, chimney).
holds(s_10104_jpg, pipe).
holds(s_10104_jpg, car).

sample(s_15256_jpg).
holds(s_15256_jpg, building).
holds(s_15256_jpg, feature).
holds(s_15256_jpg, miscindustrial).
holds(s_15256_jpg, watertreatment).
holds(s_15256_jpg, door).
holds(s_15256_jpg, window).
holds(s_15256_jpg, sign).
holds(s_15256_jpg, tiledrooftop).
holds(s_15256_jpg, vendingmachine).
holds(s_15256_jpg, machine).

sample(s_7424_jpg).
holds(s_7424_jpg, building).
holds(s_7424_jpg, feature).
holds(s_7424_jpg, suburban).
holds(s_7424_jpg, miscresidential).
holds(s_7424_jpg, commercial).
holds(s_7424_jpg, door).
holds(s_7424_jpg, window).
holds(s_7424_jpg, porch).
holds(s_7424_jpg, sign).
holds(s_7424_jpg, tiledroof).
holds(s_7424_jpg, vendingmachine).
holds(s_7424_jpg, car).

sample(s_12878_jpg).
holds(s_12878_jpg, building).
holds(s_12878_jpg, feature).
holds(s_12878_jpg, miscresidential).
holds(s_12878_jpg, countryhouse).
holds(s_12878_jpg, door).
holds(s_12878_jpg, window).
holds(s_12878_jpg, porch).
holds(s_12878_jpg, sign).
holds(s_12878_jpg, tiledroof).
holds(s_12878_jpg, chimney).
holds(s_12878_jpg, car).

sample(s_3755_jpg).
holds(s_3755_jpg, building).
holds(s_3755_jpg, feature).
holds(s_3755_jpg, miscresidential).
holds(s_3755_jpg, countryhouse).
holds(s_3755_jpg, commercial).
holds(s_3755_jpg, door).
holds(s_3755_jpg, window).
holds(s_3755_jpg, porch).
holds(s_3755_jpg, sign).
holds(s_3755_jpg, tiledroof).
holds(s_3755_jpg, chimney).
holds(s_3755_jpg, car).

sample(s_6448_jpg).
holds(s_6448_jpg, building).
holds(s_6448_jpg, feature).
holds(s_6448_jpg, miscindustrial).
holds(s_6448_jpg, powerplant).
holds(s_6448_jpg, watertreatment).
holds(s_6448_jpg, door).
holds(s_6448_jpg, window).
holds(s_6448_jpg, sign).
holds(s_6448_jpg, tiledrooftop).
holds(s_6448_jpg, vendingmachine).
holds(s_6448_jpg, chimney).
holds(s_6448_jpg, machine).

sample(s_8527_jpg).
holds(s_8527_jpg, building).
holds(s_8527_jpg, feature).
holds(s_8527_jpg, constructionsite).
holds(s_8527_jpg, powerplant).
holds(s_8527_jpg, commercial).
holds(s_8527_jpg, door).
holds(s_8527_jpg, awning).
holds(s_8527_jpg, tiledrooftop).
holds(s_8527_jpg, vendingmachine).
holds(s_8527_jpg, chimney).

sample(s_4729_jpg).
holds(s_4729_jpg, building).
holds(s_4729_jpg, feature).
holds(s_4729_jpg, miscindustrial).
holds(s_4729_jpg, watertreatment).
holds(s_4729_jpg, door).
holds(s_4729_jpg, window).
holds(s_4729_jpg, sign).
holds(s_4729_jpg, tiledrooftop).
holds(s_4729_jpg, vendingmachine).
holds(s_4729_jpg, machine).

sample(s_10458_jpg).
holds(s_10458_jpg, building).
holds(s_10458_jpg, feature).
holds(s_10458_jpg, cafe).
holds(s_10458_jpg, hotel).
holds(s_10458_jpg, restaurant).
holds(s_10458_jpg, store).
holds(s_10458_jpg, residential).
holds(s_10458_jpg, commercial).
holds(s_10458_jpg, awning).
holds(s_10458_jpg, tiledrooftop).
holds(s_10458_jpg, vendingmachine).
holds(s_10458_jpg, chimney).
holds(s_10458_jpg, pipe).
holds(s_10458_jpg, car).

sample(s_120_jpg).
holds(s_120_jpg, building).
holds(s_120_jpg, feature).
holds(s_120_jpg, cafe).
holds(s_120_jpg, hotel).
holds(s_120_jpg, restaurant).
holds(s_120_jpg, misccommercial).
holds(s_120_jpg, residential).
holds(s_120_jpg, commercial).
holds(s_120_jpg, awning).
holds(s_120_jpg, vendingmachine).
holds(s_120_jpg, pipe).
holds(s_120_jpg, car).

sample(s_711_jpg).
holds(s_711_jpg, building).
holds(s_711_jpg, feature).
holds(s_711_jpg, cafe).
holds(s_711_jpg, hotel).
holds(s_711_jpg, store).
holds(s_711_jpg, misccommercial).
holds(s_711_jpg, residential).
holds(s_711_jpg, commercial).
holds(s_711_jpg, awning).
holds(s_711_jpg, vendingmachine).
holds(s_711_jpg, chimney).
holds(s_711_jpg, pipe).
holds(s_711_jpg, car).

sample(s_13529_jpg).
holds(s_13529_jpg, building).
holds(s_13529_jpg, feature).
holds(s_13529_jpg, suburban).
holds(s_13529_jpg, miscresidential).
holds(s_13529_jpg, countryhouse).
holds(s_13529_jpg, commercial).
holds(s_13529_jpg, door).
holds(s_13529_jpg, window).
holds(s_13529_jpg, porch).
holds(s_13529_jpg, sign).
holds(s_13529_jpg, tiledroof).
holds(s_13529_jpg, vendingmachine).
holds(s_13529_jpg, car).

sample(s_9102_jpg).
holds(s_9102_jpg, building).
holds(s_9102_jpg, feature).
holds(s_9102_jpg, cafe).
holds(s_9102_jpg, hotel).
holds(s_9102_jpg, restaurant).
holds(s_9102_jpg, misccommercial).
holds(s_9102_jpg, residential).
holds(s_9102_jpg, commercial).
holds(s_9102_jpg, awning).
holds(s_9102_jpg, vendingmachine).
holds(s_9102_jpg, chimney).
holds(s_9102_jpg, car).

sample(s_719_jpg).
holds(s_719_jpg, building).
holds(s_719_jpg, feature).
holds(s_719_jpg, miscresidential).
holds(s_719_jpg, door).
holds(s_719_jpg, window).
holds(s_719_jpg, porch).
holds(s_719_jpg, sign).
holds(s_719_jpg, tiledroof).
holds(s_719_jpg, vendingmachine).
holds(s_719_jpg, chimney).
holds(s_719_jpg, car).

sample(s_5014_jpg).
holds(s_5014_jpg, building).
holds(s_5014_jpg, feature).
holds(s_5014_jpg, miscindustrial).
holds(s_5014_jpg, powerplant).
holds(s_5014_jpg, watertreatment).
holds(s_5014_jpg, door).
holds(s_5014_jpg, window).
holds(s_5014_jpg, sign).
holds(s_5014_jpg, tiledrooftop).
holds(s_5014_jpg, chimney).
holds(s_5014_jpg, machine).

sample(s_9299_jpg).
holds(s_9299_jpg, building).
holds(s_9299_jpg, feature).
holds(s_9299_jpg, suburban).
holds(s_9299_jpg, miscresidential).
holds(s_9299_jpg, commercial).
holds(s_9299_jpg, door).
holds(s_9299_jpg, window).
holds(s_9299_jpg, porch).
holds(s_9299_jpg, sign).
holds(s_9299_jpg, tiledroof).
holds(s_9299_jpg, vendingmachine).
holds(s_9299_jpg, car).

sample(s_11674_jpg).
holds(s_11674_jpg, building).
holds(s_11674_jpg, feature).
holds(s_11674_jpg, constructionsite).
holds(s_11674_jpg, powerplant).
holds(s_11674_jpg, commercial).
holds(s_11674_jpg, door).
holds(s_11674_jpg, awning).
holds(s_11674_jpg, tiledrooftop).
holds(s_11674_jpg, vendingmachine).
holds(s_11674_jpg, chimney).
holds(s_11674_jpg, machine).

sample(s_4983_jpg).
holds(s_4983_jpg, building).
holds(s_4983_jpg, feature).
holds(s_4983_jpg, cafe).
holds(s_4983_jpg, hotel).
holds(s_4983_jpg, restaurant).
holds(s_4983_jpg, store).
holds(s_4983_jpg, misccommercial).
holds(s_4983_jpg, residential).
holds(s_4983_jpg, commercial).
holds(s_4983_jpg, awning).
holds(s_4983_jpg, vendingmachine).
holds(s_4983_jpg, chimney).
holds(s_4983_jpg, pipe).
holds(s_4983_jpg, car).

sample(s_14410_jpg).
holds(s_14410_jpg, building).
holds(s_14410_jpg, feature).
holds(s_14410_jpg, miscindustrial).
holds(s_14410_jpg, powerplant).
holds(s_14410_jpg, watertreatment).
holds(s_14410_jpg, door).
holds(s_14410_jpg, window).
holds(s_14410_jpg, awning).
holds(s_14410_jpg, sign).
holds(s_14410_jpg, tiledrooftop).
holds(s_14410_jpg, chimney).
holds(s_14410_jpg, machine).

sample(s_13945_jpg).
holds(s_13945_jpg, building).
holds(s_13945_jpg, feature).
holds(s_13945_jpg, constructionsite).
holds(s_13945_jpg, commercial).
holds(s_13945_jpg, door).
holds(s_13945_jpg, awning).
holds(s_13945_jpg, tiledrooftop).
holds(s_13945_jpg, vendingmachine).
holds(s_13945_jpg, chimney).
holds(s_13945_jpg, machine).

sample(s_4039_jpg).
holds(s_4039_jpg, building).
holds(s_4039_jpg, feature).
holds(s_4039_jpg, miscindustrial).
holds(s_4039_jpg, watertreatment).
holds(s_4039_jpg, door).
holds(s_4039_jpg, window).
holds(s_4039_jpg, awning).
holds(s_4039_jpg, sign).
holds(s_4039_jpg, tiledrooftop).
holds(s_4039_jpg, vendingmachine).
holds(s_4039_jpg, chimney).
holds(s_4039_jpg, machine).

sample(s_4864_jpg).
holds(s_4864_jpg, building).
holds(s_4864_jpg, feature).
holds(s_4864_jpg, constructionsite).
holds(s_4864_jpg, powerplant).
holds(s_4864_jpg, commercial).
holds(s_4864_jpg, door).
holds(s_4864_jpg, awning).
holds(s_4864_jpg, tiledrooftop).
holds(s_4864_jpg, vendingmachine).
holds(s_4864_jpg, chimney).

sample(s_9437_jpg).
holds(s_9437_jpg, building).
holds(s_9437_jpg, feature).
holds(s_9437_jpg, miscresidential).
holds(s_9437_jpg, commercial).
holds(s_9437_jpg, door).
holds(s_9437_jpg, window).
holds(s_9437_jpg, porch).
holds(s_9437_jpg, sign).
holds(s_9437_jpg, tiledroof).
holds(s_9437_jpg, vendingmachine).
holds(s_9437_jpg, chimney).
holds(s_9437_jpg, car).

sample(s_83_jpg).
holds(s_83_jpg, building).
holds(s_83_jpg, feature).
holds(s_83_jpg, miscresidential).
holds(s_83_jpg, countryhouse).
holds(s_83_jpg, door).
holds(s_83_jpg, window).
holds(s_83_jpg, porch).
holds(s_83_jpg, sign).
holds(s_83_jpg, tiledroof).
holds(s_83_jpg, chimney).
holds(s_83_jpg, car).

sample(s_9274_jpg).
holds(s_9274_jpg, building).
holds(s_9274_jpg, feature).
holds(s_9274_jpg, miscindustrial).
holds(s_9274_jpg, powerplant).
holds(s_9274_jpg, watertreatment).
holds(s_9274_jpg, door).
holds(s_9274_jpg, window).
holds(s_9274_jpg, sign).
holds(s_9274_jpg, tiledrooftop).
holds(s_9274_jpg, chimney).
holds(s_9274_jpg, machine).

sample(s_4328_jpg).
holds(s_4328_jpg, building).
holds(s_4328_jpg, feature).
holds(s_4328_jpg, suburban).
holds(s_4328_jpg, miscresidential).
holds(s_4328_jpg, commercial).
holds(s_4328_jpg, door).
holds(s_4328_jpg, window).
holds(s_4328_jpg, porch).
holds(s_4328_jpg, sign).
holds(s_4328_jpg, tiledroof).
holds(s_4328_jpg, vendingmachine).
holds(s_4328_jpg, car).

sample(s_7887_jpg).
holds(s_7887_jpg, building).
holds(s_7887_jpg, feature).
holds(s_7887_jpg, cafe).
holds(s_7887_jpg, hotel).
holds(s_7887_jpg, misccommercial).
holds(s_7887_jpg, commercial).
holds(s_7887_jpg, door).
holds(s_7887_jpg, awning).
holds(s_7887_jpg, vendingmachine).
holds(s_7887_jpg, chimney).
holds(s_7887_jpg, car).

sample(s_2395_jpg).
holds(s_2395_jpg, building).
holds(s_2395_jpg, feature).
holds(s_2395_jpg, constructionsite).
holds(s_2395_jpg, powerplant).
holds(s_2395_jpg, commercial).
holds(s_2395_jpg, door).
holds(s_2395_jpg, awning).
holds(s_2395_jpg, tiledrooftop).
holds(s_2395_jpg, vendingmachine).
holds(s_2395_jpg, chimney).
holds(s_2395_jpg, machine).

sample(s_13051_jpg).
holds(s_13051_jpg, building).
holds(s_13051_jpg, feature).
holds(s_13051_jpg, miscindustrial).
holds(s_13051_jpg, watertreatment).
holds(s_13051_jpg, door).
holds(s_13051_jpg, window).
holds(s_13051_jpg, sign).
holds(s_13051_jpg, tiledrooftop).
holds(s_13051_jpg, vendingmachine).
holds(s_13051_jpg, chimney).
holds(s_13051_jpg, machine).

sample(s_320_jpg).
holds(s_320_jpg, building).
holds(s_320_jpg, feature).
holds(s_320_jpg, miscresidential).
holds(s_320_jpg, countryhouse).
holds(s_320_jpg, door).
holds(s_320_jpg, window).
holds(s_320_jpg, porch).
holds(s_320_jpg, sign).
holds(s_320_jpg, tiledroof).
holds(s_320_jpg, chimney).
holds(s_320_jpg, car).

sample(s_14304_jpg).
holds(s_14304_jpg, building).
holds(s_14304_jpg, feature).
holds(s_14304_jpg, hotel).
holds(s_14304_jpg, misccommercial).
holds(s_14304_jpg, commercial).
holds(s_14304_jpg, door).
holds(s_14304_jpg, awning).
holds(s_14304_jpg, tiledrooftop).
holds(s_14304_jpg, vendingmachine).
holds(s_14304_jpg, chimney).
holds(s_14304_jpg, car).

sample(s_11075_jpg).
holds(s_11075_jpg, building).
holds(s_11075_jpg, feature).
holds(s_11075_jpg, suburban).
holds(s_11075_jpg, miscresidential).
holds(s_11075_jpg, commercial).
holds(s_11075_jpg, door).
holds(s_11075_jpg, window).
holds(s_11075_jpg, porch).
holds(s_11075_jpg, sign).
holds(s_11075_jpg, tiledroof).
holds(s_11075_jpg, vendingmachine).
holds(s_11075_jpg, car).

sample(s_13059_jpg).
holds(s_13059_jpg, building).
holds(s_13059_jpg, feature).
holds(s_13059_jpg, store).
holds(s_13059_jpg, misccommercial).
holds(s_13059_jpg, residential).
holds(s_13059_jpg, commercial).
holds(s_13059_jpg, awning).
holds(s_13059_jpg, vendingmachine).
holds(s_13059_jpg, chimney).
holds(s_13059_jpg, pipe).
holds(s_13059_jpg, car).

sample(s_7036_jpg).
holds(s_7036_jpg, building).
holds(s_7036_jpg, feature).
holds(s_7036_jpg, constructionsite).
holds(s_7036_jpg, powerplant).
holds(s_7036_jpg, commercial).
holds(s_7036_jpg, door).
holds(s_7036_jpg, window).
holds(s_7036_jpg, awning).
holds(s_7036_jpg, tiledrooftop).
holds(s_7036_jpg, vendingmachine).
holds(s_7036_jpg, chimney).
holds(s_7036_jpg, machine).

sample(s_4906_jpg).
holds(s_4906_jpg, building).
holds(s_4906_jpg, feature).
holds(s_4906_jpg, constructionsite).
holds(s_4906_jpg, powerplant).
holds(s_4906_jpg, commercial).
holds(s_4906_jpg, door).
holds(s_4906_jpg, awning).
holds(s_4906_jpg, tiledrooftop).
holds(s_4906_jpg, vendingmachine).
holds(s_4906_jpg, chimney).
holds(s_4906_jpg, machine).

sample(s_1703_jpg).
holds(s_1703_jpg, building).
holds(s_1703_jpg, feature).
holds(s_1703_jpg, suburban).
holds(s_1703_jpg, commercial).
holds(s_1703_jpg, door).
holds(s_1703_jpg, window).
holds(s_1703_jpg, porch).
holds(s_1703_jpg, sign).
holds(s_1703_jpg, tiledroof).
holds(s_1703_jpg, tiledrooftop).
holds(s_1703_jpg, vendingmachine).

sample(s_13155_jpg).
holds(s_13155_jpg, building).
holds(s_13155_jpg, feature).
holds(s_13155_jpg, cafe).
holds(s_13155_jpg, hotel).
holds(s_13155_jpg, restaurant).
holds(s_13155_jpg, misccommercial).
holds(s_13155_jpg, residential).
holds(s_13155_jpg, commercial).
holds(s_13155_jpg, awning).
holds(s_13155_jpg, tiledrooftop).
holds(s_13155_jpg, vendingmachine).
holds(s_13155_jpg, pipe).
holds(s_13155_jpg, car).

sample(s_2416_jpg).
holds(s_2416_jpg, building).
holds(s_2416_jpg, feature).
holds(s_2416_jpg, miscindustrial).
holds(s_2416_jpg, watertreatment).
holds(s_2416_jpg, door).
holds(s_2416_jpg, window).
holds(s_2416_jpg, awning).
holds(s_2416_jpg, sign).
holds(s_2416_jpg, tiledrooftop).
holds(s_2416_jpg, vendingmachine).
holds(s_2416_jpg, chimney).
holds(s_2416_jpg, machine).

sample(s_1093_jpg).
holds(s_1093_jpg, building).
holds(s_1093_jpg, feature).
holds(s_1093_jpg, powerplant).
holds(s_1093_jpg, door).
holds(s_1093_jpg, window).
holds(s_1093_jpg, sign).
holds(s_1093_jpg, tiledrooftop).
holds(s_1093_jpg, vendingmachine).
holds(s_1093_jpg, chimney).
holds(s_1093_jpg, machine).

sample(s_14359_jpg).
holds(s_14359_jpg, building).
holds(s_14359_jpg, feature).
holds(s_14359_jpg, powerplant).
holds(s_14359_jpg, door).
holds(s_14359_jpg, window).
holds(s_14359_jpg, sign).
holds(s_14359_jpg, tiledrooftop).
holds(s_14359_jpg, vendingmachine).
holds(s_14359_jpg, chimney).
holds(s_14359_jpg, machine).

sample(s_6199_jpg).
holds(s_6199_jpg, building).
holds(s_6199_jpg, feature).
holds(s_6199_jpg, miscindustrial).
holds(s_6199_jpg, watertreatment).
holds(s_6199_jpg, door).
holds(s_6199_jpg, window).
holds(s_6199_jpg, awning).
holds(s_6199_jpg, sign).
holds(s_6199_jpg, tiledrooftop).
holds(s_6199_jpg, vendingmachine).
holds(s_6199_jpg, chimney).
holds(s_6199_jpg, machine).

sample(s_3692_jpg).
holds(s_3692_jpg, building).
holds(s_3692_jpg, feature).
holds(s_3692_jpg, suburban).
holds(s_3692_jpg, miscresidential).
holds(s_3692_jpg, countryhouse).
holds(s_3692_jpg, door).
holds(s_3692_jpg, window).
holds(s_3692_jpg, porch).
holds(s_3692_jpg, sign).
holds(s_3692_jpg, tiledroof).
holds(s_3692_jpg, chimney).
holds(s_3692_jpg, car).

sample(s_12294_jpg).
holds(s_12294_jpg, building).
holds(s_12294_jpg, feature).
holds(s_12294_jpg, cafe).
holds(s_12294_jpg, hotel).
holds(s_12294_jpg, store).
holds(s_12294_jpg, misccommercial).
holds(s_12294_jpg, residential).
holds(s_12294_jpg, commercial).
holds(s_12294_jpg, window).
holds(s_12294_jpg, awning).
holds(s_12294_jpg, vendingmachine).
holds(s_12294_jpg, chimney).
holds(s_12294_jpg, car).

sample(s_12411_jpg).
holds(s_12411_jpg, building).
holds(s_12411_jpg, feature).
holds(s_12411_jpg, cafe).
holds(s_12411_jpg, restaurant).
holds(s_12411_jpg, misccommercial).
holds(s_12411_jpg, commercial).
holds(s_12411_jpg, awning).
holds(s_12411_jpg, vendingmachine).
holds(s_12411_jpg, chimney).
holds(s_12411_jpg, pipe).
holds(s_12411_jpg, car).

sample(s_9740_jpg).
holds(s_9740_jpg, building).
holds(s_9740_jpg, feature).
holds(s_9740_jpg, miscresidential).
holds(s_9740_jpg, commercial).
holds(s_9740_jpg, door).
holds(s_9740_jpg, window).
holds(s_9740_jpg, awning).
holds(s_9740_jpg, porch).
holds(s_9740_jpg, sign).
holds(s_9740_jpg, tiledroof).
holds(s_9740_jpg, vendingmachine).
holds(s_9740_jpg, chimney).
holds(s_9740_jpg, car).

sample(s_15403_jpg).
holds(s_15403_jpg, building).
holds(s_15403_jpg, feature).
holds(s_15403_jpg, miscindustrial).
holds(s_15403_jpg, watertreatment).
holds(s_15403_jpg, door).
holds(s_15403_jpg, window).
holds(s_15403_jpg, sign).
holds(s_15403_jpg, tiledrooftop).
holds(s_15403_jpg, vendingmachine).
holds(s_15403_jpg, chimney).
holds(s_15403_jpg, machine).

sample(s_12590_jpg).
holds(s_12590_jpg, building).
holds(s_12590_jpg, feature).
holds(s_12590_jpg, miscresidential).
holds(s_12590_jpg, countryhouse).
holds(s_12590_jpg, door).
holds(s_12590_jpg, window).
holds(s_12590_jpg, porch).
holds(s_12590_jpg, sign).
holds(s_12590_jpg, tiledroof).
holds(s_12590_jpg, chimney).
holds(s_12590_jpg, car).

sample(s_5742_jpg).
holds(s_5742_jpg, building).
holds(s_5742_jpg, feature).
holds(s_5742_jpg, cafe).
holds(s_5742_jpg, hotel).
holds(s_5742_jpg, store).
holds(s_5742_jpg, misccommercial).
holds(s_5742_jpg, residential).
holds(s_5742_jpg, commercial).
holds(s_5742_jpg, awning).
holds(s_5742_jpg, vendingmachine).
holds(s_5742_jpg, chimney).
holds(s_5742_jpg, pipe).
holds(s_5742_jpg, car).

sample(s_1405_jpg).
holds(s_1405_jpg, building).
holds(s_1405_jpg, feature).
holds(s_1405_jpg, constructionsite).
holds(s_1405_jpg, powerplant).
holds(s_1405_jpg, commercial).
holds(s_1405_jpg, door).
holds(s_1405_jpg, awning).
holds(s_1405_jpg, tiledrooftop).
holds(s_1405_jpg, vendingmachine).
holds(s_1405_jpg, chimney).
holds(s_1405_jpg, machine).

sample(s_536_jpg).
holds(s_536_jpg, building).
holds(s_536_jpg, feature).
holds(s_536_jpg, suburban).
holds(s_536_jpg, miscresidential).
holds(s_536_jpg, commercial).
holds(s_536_jpg, door).
holds(s_536_jpg, window).
holds(s_536_jpg, porch).
holds(s_536_jpg, sign).
holds(s_536_jpg, tiledroof).
holds(s_536_jpg, vendingmachine).
holds(s_536_jpg, car).

sample(s_216_jpg).
holds(s_216_jpg, building).
holds(s_216_jpg, feature).
holds(s_216_jpg, cafe).
holds(s_216_jpg, hotel).
holds(s_216_jpg, store).
holds(s_216_jpg, misccommercial).
holds(s_216_jpg, residential).
holds(s_216_jpg, commercial).
holds(s_216_jpg, awning).
holds(s_216_jpg, vendingmachine).
holds(s_216_jpg, chimney).
holds(s_216_jpg, pipe).
holds(s_216_jpg, car).

sample(s_15009_jpg).
holds(s_15009_jpg, building).
holds(s_15009_jpg, feature).
holds(s_15009_jpg, cafe).
holds(s_15009_jpg, hotel).
holds(s_15009_jpg, restaurant).
holds(s_15009_jpg, misccommercial).
holds(s_15009_jpg, residential).
holds(s_15009_jpg, commercial).
holds(s_15009_jpg, awning).
holds(s_15009_jpg, tiledrooftop).
holds(s_15009_jpg, vendingmachine).
holds(s_15009_jpg, pipe).
holds(s_15009_jpg, machine).
holds(s_15009_jpg, car).

sample(s_13683_jpg).
holds(s_13683_jpg, building).
holds(s_13683_jpg, feature).
holds(s_13683_jpg, cafe).
holds(s_13683_jpg, hotel).
holds(s_13683_jpg, restaurant).
holds(s_13683_jpg, misccommercial).
holds(s_13683_jpg, residential).
holds(s_13683_jpg, commercial).
holds(s_13683_jpg, awning).
holds(s_13683_jpg, vendingmachine).
holds(s_13683_jpg, chimney).
holds(s_13683_jpg, car).

sample(s_9968_jpg).
holds(s_9968_jpg, building).
holds(s_9968_jpg, feature).
holds(s_9968_jpg, suburban).
holds(s_9968_jpg, miscresidential).
holds(s_9968_jpg, countryhouse).
holds(s_9968_jpg, commercial).
holds(s_9968_jpg, door).
holds(s_9968_jpg, window).
holds(s_9968_jpg, porch).
holds(s_9968_jpg, sign).
holds(s_9968_jpg, tiledroof).
holds(s_9968_jpg, vendingmachine).
holds(s_9968_jpg, car).

sample(s_10459_jpg).
holds(s_10459_jpg, building).
holds(s_10459_jpg, feature).
holds(s_10459_jpg, constructionsite).
holds(s_10459_jpg, commercial).
holds(s_10459_jpg, door).
holds(s_10459_jpg, awning).
holds(s_10459_jpg, tiledrooftop).
holds(s_10459_jpg, vendingmachine).
holds(s_10459_jpg, chimney).
holds(s_10459_jpg, machine).

sample(s_2843_jpg).
holds(s_2843_jpg, building).
holds(s_2843_jpg, feature).
holds(s_2843_jpg, suburban).
holds(s_2843_jpg, miscresidential).
holds(s_2843_jpg, commercial).
holds(s_2843_jpg, door).
holds(s_2843_jpg, window).
holds(s_2843_jpg, porch).
holds(s_2843_jpg, sign).
holds(s_2843_jpg, tiledroof).
holds(s_2843_jpg, vendingmachine).
holds(s_2843_jpg, car).

sample(s_1771_jpg).
holds(s_1771_jpg, building).
holds(s_1771_jpg, feature).
holds(s_1771_jpg, miscindustrial).
holds(s_1771_jpg, watertreatment).
holds(s_1771_jpg, door).
holds(s_1771_jpg, window).
holds(s_1771_jpg, sign).
holds(s_1771_jpg, tiledrooftop).
holds(s_1771_jpg, vendingmachine).
holds(s_1771_jpg, machine).

sample(s_10227_jpg).
holds(s_10227_jpg, building).
holds(s_10227_jpg, feature).
holds(s_10227_jpg, cafe).
holds(s_10227_jpg, restaurant).
holds(s_10227_jpg, misccommercial).
holds(s_10227_jpg, residential).
holds(s_10227_jpg, commercial).
holds(s_10227_jpg, awning).
holds(s_10227_jpg, tiledrooftop).
holds(s_10227_jpg, vendingmachine).
holds(s_10227_jpg, chimney).
holds(s_10227_jpg, pipe).
holds(s_10227_jpg, car).

sample(s_10044_jpg).
holds(s_10044_jpg, building).
holds(s_10044_jpg, feature).
holds(s_10044_jpg, cafe).
holds(s_10044_jpg, hotel).
holds(s_10044_jpg, restaurant).
holds(s_10044_jpg, residential).
holds(s_10044_jpg, commercial).
holds(s_10044_jpg, tiledrooftop).
holds(s_10044_jpg, vendingmachine).
holds(s_10044_jpg, pipe).
holds(s_10044_jpg, machine).
holds(s_10044_jpg, car).

sample(s_12442_jpg).
holds(s_12442_jpg, building).
holds(s_12442_jpg, feature).
holds(s_12442_jpg, miscindustrial).
holds(s_12442_jpg, watertreatment).
holds(s_12442_jpg, door).
holds(s_12442_jpg, window).
holds(s_12442_jpg, sign).
holds(s_12442_jpg, tiledrooftop).
holds(s_12442_jpg, vendingmachine).
holds(s_12442_jpg, chimney).
holds(s_12442_jpg, machine).

sample(s_8548_jpg).
holds(s_8548_jpg, building).
holds(s_8548_jpg, feature).
holds(s_8548_jpg, constructionsite).
holds(s_8548_jpg, commercial).
holds(s_8548_jpg, door).
holds(s_8548_jpg, awning).
holds(s_8548_jpg, tiledrooftop).
holds(s_8548_jpg, vendingmachine).
holds(s_8548_jpg, chimney).
holds(s_8548_jpg, machine).

sample(s_7563_jpg).
holds(s_7563_jpg, building).
holds(s_7563_jpg, feature).
holds(s_7563_jpg, cafe).
holds(s_7563_jpg, hotel).
holds(s_7563_jpg, restaurant).
holds(s_7563_jpg, misccommercial).
holds(s_7563_jpg, residential).
holds(s_7563_jpg, commercial).
holds(s_7563_jpg, awning).
holds(s_7563_jpg, vendingmachine).
holds(s_7563_jpg, pipe).
holds(s_7563_jpg, car).

sample(s_2077_jpg).
holds(s_2077_jpg, building).
holds(s_2077_jpg, feature).
holds(s_2077_jpg, miscindustrial).
holds(s_2077_jpg, powerplant).
holds(s_2077_jpg, watertreatment).
holds(s_2077_jpg, door).
holds(s_2077_jpg, window).
holds(s_2077_jpg, tiledrooftop).
holds(s_2077_jpg, vendingmachine).
holds(s_2077_jpg, chimney).
holds(s_2077_jpg, machine).

sample(s_12639_jpg).
holds(s_12639_jpg, building).
holds(s_12639_jpg, feature).
holds(s_12639_jpg, cafe).
holds(s_12639_jpg, hotel).
holds(s_12639_jpg, restaurant).
holds(s_12639_jpg, store).
holds(s_12639_jpg, misccommercial).
holds(s_12639_jpg, residential).
holds(s_12639_jpg, commercial).
holds(s_12639_jpg, awning).
holds(s_12639_jpg, vendingmachine).
holds(s_12639_jpg, chimney).
holds(s_12639_jpg, pipe).
holds(s_12639_jpg, car).

sample(s_14828_jpg).
holds(s_14828_jpg, building).
holds(s_14828_jpg, feature).
holds(s_14828_jpg, suburban).
holds(s_14828_jpg, commercial).
holds(s_14828_jpg, door).
holds(s_14828_jpg, sign).
holds(s_14828_jpg, tiledroof).
holds(s_14828_jpg, tiledrooftop).
holds(s_14828_jpg, vendingmachine).

sample(s_3601_jpg).
holds(s_3601_jpg, building).
holds(s_3601_jpg, feature).
holds(s_3601_jpg, miscindustrial).
holds(s_3601_jpg, watertreatment).
holds(s_3601_jpg, door).
holds(s_3601_jpg, window).
holds(s_3601_jpg, sign).
holds(s_3601_jpg, tiledrooftop).
holds(s_3601_jpg, vendingmachine).
holds(s_3601_jpg, chimney).
holds(s_3601_jpg, machine).

sample(s_126_jpg).
holds(s_126_jpg, building).
holds(s_126_jpg, feature).
holds(s_126_jpg, cafe).
holds(s_126_jpg, hotel).
holds(s_126_jpg, store).
holds(s_126_jpg, misccommercial).
holds(s_126_jpg, commercial).
holds(s_126_jpg, door).
holds(s_126_jpg, awning).
holds(s_126_jpg, vendingmachine).
holds(s_126_jpg, chimney).
holds(s_126_jpg, car).

sample(s_10640_jpg).
holds(s_10640_jpg, building).
holds(s_10640_jpg, feature).
holds(s_10640_jpg, suburban).
holds(s_10640_jpg, miscresidential).
holds(s_10640_jpg, countryhouse).
holds(s_10640_jpg, door).
holds(s_10640_jpg, window).
holds(s_10640_jpg, porch).
holds(s_10640_jpg, sign).
holds(s_10640_jpg, tiledroof).
holds(s_10640_jpg, vendingmachine).
holds(s_10640_jpg, car).

sample(s_1878_jpg).
holds(s_1878_jpg, building).
holds(s_1878_jpg, feature).
holds(s_1878_jpg, cafe).
holds(s_1878_jpg, hotel).
holds(s_1878_jpg, restaurant).
holds(s_1878_jpg, store).
holds(s_1878_jpg, misccommercial).
holds(s_1878_jpg, residential).
holds(s_1878_jpg, commercial).
holds(s_1878_jpg, awning).
holds(s_1878_jpg, vendingmachine).
holds(s_1878_jpg, chimney).
holds(s_1878_jpg, pipe).
holds(s_1878_jpg, car).

sample(s_12792_jpg).
holds(s_12792_jpg, building).
holds(s_12792_jpg, feature).
holds(s_12792_jpg, cafe).
holds(s_12792_jpg, hotel).
holds(s_12792_jpg, store).
holds(s_12792_jpg, misccommercial).
holds(s_12792_jpg, commercial).
holds(s_12792_jpg, awning).
holds(s_12792_jpg, vendingmachine).
holds(s_12792_jpg, chimney).
holds(s_12792_jpg, pipe).
holds(s_12792_jpg, car).

sample(s_10181_jpg).
holds(s_10181_jpg, building).
holds(s_10181_jpg, feature).
holds(s_10181_jpg, miscresidential).
holds(s_10181_jpg, door).
holds(s_10181_jpg, window).
holds(s_10181_jpg, porch).
holds(s_10181_jpg, sign).
holds(s_10181_jpg, tiledroof).
holds(s_10181_jpg, vendingmachine).
holds(s_10181_jpg, chimney).
holds(s_10181_jpg, car).

sample(s_4502_jpg).
holds(s_4502_jpg, building).
holds(s_4502_jpg, feature).
holds(s_4502_jpg, miscresidential).
holds(s_4502_jpg, door).
holds(s_4502_jpg, window).
holds(s_4502_jpg, porch).
holds(s_4502_jpg, sign).
holds(s_4502_jpg, tiledroof).
holds(s_4502_jpg, vendingmachine).
holds(s_4502_jpg, chimney).
holds(s_4502_jpg, car).

sample(s_6593_jpg).
holds(s_6593_jpg, building).
holds(s_6593_jpg, feature).
holds(s_6593_jpg, miscresidential).
holds(s_6593_jpg, commercial).
holds(s_6593_jpg, door).
holds(s_6593_jpg, window).
holds(s_6593_jpg, awning).
holds(s_6593_jpg, porch).
holds(s_6593_jpg, sign).
holds(s_6593_jpg, tiledroof).
holds(s_6593_jpg, vendingmachine).
holds(s_6593_jpg, chimney).
holds(s_6593_jpg, car).

sample(s_15746_jpg).
holds(s_15746_jpg, building).
holds(s_15746_jpg, feature).
holds(s_15746_jpg, suburban).
holds(s_15746_jpg, commercial).
holds(s_15746_jpg, door).
holds(s_15746_jpg, window).
holds(s_15746_jpg, porch).
holds(s_15746_jpg, sign).
holds(s_15746_jpg, tiledroof).
holds(s_15746_jpg, tiledrooftop).
holds(s_15746_jpg, vendingmachine).

sample(s_677_jpg).
holds(s_677_jpg, building).
holds(s_677_jpg, feature).
holds(s_677_jpg, miscresidential).
holds(s_677_jpg, door).
holds(s_677_jpg, window).
holds(s_677_jpg, porch).
holds(s_677_jpg, sign).
holds(s_677_jpg, tiledroof).
holds(s_677_jpg, vendingmachine).
holds(s_677_jpg, chimney).
holds(s_677_jpg, car).

sample(s_4421_jpg).
holds(s_4421_jpg, building).
holds(s_4421_jpg, feature).
holds(s_4421_jpg, suburban).
holds(s_4421_jpg, miscresidential).
holds(s_4421_jpg, countryhouse).
holds(s_4421_jpg, commercial).
holds(s_4421_jpg, door).
holds(s_4421_jpg, window).
holds(s_4421_jpg, porch).
holds(s_4421_jpg, sign).
holds(s_4421_jpg, tiledroof).
holds(s_4421_jpg, vendingmachine).
holds(s_4421_jpg, car).

sample(s_14292_jpg).
holds(s_14292_jpg, building).
holds(s_14292_jpg, feature).
holds(s_14292_jpg, cafe).
holds(s_14292_jpg, hotel).
holds(s_14292_jpg, store).
holds(s_14292_jpg, commercial).
holds(s_14292_jpg, awning).
holds(s_14292_jpg, vendingmachine).
holds(s_14292_jpg, chimney).
holds(s_14292_jpg, car).

sample(s_11172_jpg).
holds(s_11172_jpg, building).
holds(s_11172_jpg, feature).
holds(s_11172_jpg, hotel).
holds(s_11172_jpg, restaurant).
holds(s_11172_jpg, store).
holds(s_11172_jpg, misccommercial).
holds(s_11172_jpg, residential).
holds(s_11172_jpg, commercial).
holds(s_11172_jpg, awning).
holds(s_11172_jpg, vendingmachine).
holds(s_11172_jpg, pipe).
holds(s_11172_jpg, car).

sample(s_9214_jpg).
holds(s_9214_jpg, building).
holds(s_9214_jpg, feature).
holds(s_9214_jpg, miscindustrial).
holds(s_9214_jpg, watertreatment).
holds(s_9214_jpg, door).
holds(s_9214_jpg, window).
holds(s_9214_jpg, sign).
holds(s_9214_jpg, tiledrooftop).
holds(s_9214_jpg, vendingmachine).
holds(s_9214_jpg, machine).

sample(s_10671_jpg).
holds(s_10671_jpg, building).
holds(s_10671_jpg, feature).
holds(s_10671_jpg, cafe).
holds(s_10671_jpg, hotel).
holds(s_10671_jpg, store).
holds(s_10671_jpg, misccommercial).
holds(s_10671_jpg, commercial).
holds(s_10671_jpg, awning).
holds(s_10671_jpg, vendingmachine).
holds(s_10671_jpg, chimney).
holds(s_10671_jpg, car).

sample(s_2106_jpg).
holds(s_2106_jpg, building).
holds(s_2106_jpg, feature).
holds(s_2106_jpg, cafe).
holds(s_2106_jpg, hotel).
holds(s_2106_jpg, misccommercial).
holds(s_2106_jpg, commercial).
holds(s_2106_jpg, awning).
holds(s_2106_jpg, vendingmachine).
holds(s_2106_jpg, chimney).
holds(s_2106_jpg, car).

sample(s_7561_jpg).
holds(s_7561_jpg, building).
holds(s_7561_jpg, feature).
holds(s_7561_jpg, constructionsite).
holds(s_7561_jpg, powerplant).
holds(s_7561_jpg, commercial).
holds(s_7561_jpg, door).
holds(s_7561_jpg, window).
holds(s_7561_jpg, awning).
holds(s_7561_jpg, tiledrooftop).
holds(s_7561_jpg, vendingmachine).
holds(s_7561_jpg, chimney).

sample(s_12446_jpg).
holds(s_12446_jpg, building).
holds(s_12446_jpg, feature).
holds(s_12446_jpg, suburban).
holds(s_12446_jpg, miscresidential).
holds(s_12446_jpg, countryhouse).
holds(s_12446_jpg, commercial).
holds(s_12446_jpg, door).
holds(s_12446_jpg, window).
holds(s_12446_jpg, porch).
holds(s_12446_jpg, sign).
holds(s_12446_jpg, tiledroof).
holds(s_12446_jpg, vendingmachine).
holds(s_12446_jpg, car).

sample(s_4917_jpg).
holds(s_4917_jpg, building).
holds(s_4917_jpg, feature).
holds(s_4917_jpg, cafe).
holds(s_4917_jpg, hotel).
holds(s_4917_jpg, store).
holds(s_4917_jpg, misccommercial).
holds(s_4917_jpg, commercial).
holds(s_4917_jpg, window).
holds(s_4917_jpg, awning).
holds(s_4917_jpg, vendingmachine).
holds(s_4917_jpg, chimney).
holds(s_4917_jpg, car).

sample(s_14030_jpg).
holds(s_14030_jpg, building).
holds(s_14030_jpg, feature).
holds(s_14030_jpg, miscresidential).
holds(s_14030_jpg, countryhouse).
holds(s_14030_jpg, door).
holds(s_14030_jpg, window).
holds(s_14030_jpg, porch).
holds(s_14030_jpg, sign).
holds(s_14030_jpg, tiledroof).
holds(s_14030_jpg, chimney).
holds(s_14030_jpg, car).

sample(s_12329_jpg).
holds(s_12329_jpg, building).
holds(s_12329_jpg, feature).
holds(s_12329_jpg, suburban).
holds(s_12329_jpg, miscresidential).
holds(s_12329_jpg, countryhouse).
holds(s_12329_jpg, commercial).
holds(s_12329_jpg, door).
holds(s_12329_jpg, window).
holds(s_12329_jpg, porch).
holds(s_12329_jpg, sign).
holds(s_12329_jpg, tiledroof).
holds(s_12329_jpg, vendingmachine).
holds(s_12329_jpg, car).

sample(s_12675_jpg).
holds(s_12675_jpg, building).
holds(s_12675_jpg, feature).
holds(s_12675_jpg, hotel).
holds(s_12675_jpg, restaurant).
holds(s_12675_jpg, store).
holds(s_12675_jpg, residential).
holds(s_12675_jpg, commercial).
holds(s_12675_jpg, awning).
holds(s_12675_jpg, tiledrooftop).
holds(s_12675_jpg, vendingmachine).
holds(s_12675_jpg, chimney).
holds(s_12675_jpg, pipe).
holds(s_12675_jpg, car).

sample(s_11663_jpg).
holds(s_11663_jpg, building).
holds(s_11663_jpg, feature).
holds(s_11663_jpg, miscresidential).
holds(s_11663_jpg, countryhouse).
holds(s_11663_jpg, door).
holds(s_11663_jpg, window).
holds(s_11663_jpg, porch).
holds(s_11663_jpg, sign).
holds(s_11663_jpg, tiledroof).
holds(s_11663_jpg, chimney).
holds(s_11663_jpg, car).

sample(s_13986_jpg).
holds(s_13986_jpg, building).
holds(s_13986_jpg, feature).
holds(s_13986_jpg, cafe).
holds(s_13986_jpg, hotel).
holds(s_13986_jpg, store).
holds(s_13986_jpg, residential).
holds(s_13986_jpg, window).
holds(s_13986_jpg, awning).
holds(s_13986_jpg, vendingmachine).
holds(s_13986_jpg, chimney).
holds(s_13986_jpg, car).

sample(s_3569_jpg).
holds(s_3569_jpg, building).
holds(s_3569_jpg, feature).
holds(s_3569_jpg, miscresidential).
holds(s_3569_jpg, countryhouse).
holds(s_3569_jpg, door).
holds(s_3569_jpg, window).
holds(s_3569_jpg, sign).
holds(s_3569_jpg, tiledroof).
holds(s_3569_jpg, tiledrooftop).
holds(s_3569_jpg, chimney).
holds(s_3569_jpg, car).

sample(s_6971_jpg).
holds(s_6971_jpg, building).
holds(s_6971_jpg, feature).
holds(s_6971_jpg, suburban).
holds(s_6971_jpg, miscresidential).
holds(s_6971_jpg, commercial).
holds(s_6971_jpg, door).
holds(s_6971_jpg, window).
holds(s_6971_jpg, porch).
holds(s_6971_jpg, sign).
holds(s_6971_jpg, tiledroof).
holds(s_6971_jpg, vendingmachine).
holds(s_6971_jpg, car).

sample(s_15396_jpg).
holds(s_15396_jpg, building).
holds(s_15396_jpg, feature).
holds(s_15396_jpg, cafe).
holds(s_15396_jpg, hotel).
holds(s_15396_jpg, restaurant).
holds(s_15396_jpg, misccommercial).
holds(s_15396_jpg, residential).
holds(s_15396_jpg, commercial).
holds(s_15396_jpg, awning).
holds(s_15396_jpg, tiledrooftop).
holds(s_15396_jpg, vendingmachine).
holds(s_15396_jpg, chimney).
holds(s_15396_jpg, pipe).
holds(s_15396_jpg, car).

sample(s_6050_jpg).
holds(s_6050_jpg, building).
holds(s_6050_jpg, feature).
holds(s_6050_jpg, suburban).
holds(s_6050_jpg, miscresidential).
holds(s_6050_jpg, commercial).
holds(s_6050_jpg, door).
holds(s_6050_jpg, window).
holds(s_6050_jpg, porch).
holds(s_6050_jpg, sign).
holds(s_6050_jpg, tiledroof).
holds(s_6050_jpg, vendingmachine).
holds(s_6050_jpg, car).

sample(s_7184_jpg).
holds(s_7184_jpg, building).
holds(s_7184_jpg, feature).
holds(s_7184_jpg, miscresidential).
holds(s_7184_jpg, door).
holds(s_7184_jpg, window).
holds(s_7184_jpg, awning).
holds(s_7184_jpg, porch).
holds(s_7184_jpg, sign).
holds(s_7184_jpg, tiledroof).
holds(s_7184_jpg, vendingmachine).
holds(s_7184_jpg, chimney).
holds(s_7184_jpg, car).

sample(s_6276_jpg).
holds(s_6276_jpg, building).
holds(s_6276_jpg, feature).
holds(s_6276_jpg, cafe).
holds(s_6276_jpg, hotel).
holds(s_6276_jpg, misccommercial).
holds(s_6276_jpg, residential).
holds(s_6276_jpg, commercial).
holds(s_6276_jpg, awning).
holds(s_6276_jpg, vendingmachine).
holds(s_6276_jpg, chimney).
holds(s_6276_jpg, car).

sample(s_6874_jpg).
holds(s_6874_jpg, building).
holds(s_6874_jpg, feature).
holds(s_6874_jpg, constructionsite).
holds(s_6874_jpg, commercial).
holds(s_6874_jpg, door).
holds(s_6874_jpg, awning).
holds(s_6874_jpg, tiledrooftop).
holds(s_6874_jpg, vendingmachine).
holds(s_6874_jpg, chimney).
holds(s_6874_jpg, machine).

sample(s_15966_jpg).
holds(s_15966_jpg, building).
holds(s_15966_jpg, feature).
holds(s_15966_jpg, cafe).
holds(s_15966_jpg, misccommercial).
holds(s_15966_jpg, commercial).
holds(s_15966_jpg, door).
holds(s_15966_jpg, awning).
holds(s_15966_jpg, tiledrooftop).
holds(s_15966_jpg, vendingmachine).
holds(s_15966_jpg, chimney).
holds(s_15966_jpg, car).

sample(s_2189_jpg).
holds(s_2189_jpg, building).
holds(s_2189_jpg, feature).
holds(s_2189_jpg, miscresidential).
holds(s_2189_jpg, countryhouse).
holds(s_2189_jpg, door).
holds(s_2189_jpg, window).
holds(s_2189_jpg, sign).
holds(s_2189_jpg, tiledroof).
holds(s_2189_jpg, chimney).
holds(s_2189_jpg, car).

sample(s_10659_jpg).
holds(s_10659_jpg, building).
holds(s_10659_jpg, feature).
holds(s_10659_jpg, hotel).
holds(s_10659_jpg, misccommercial).
holds(s_10659_jpg, commercial).
holds(s_10659_jpg, door).
holds(s_10659_jpg, awning).
holds(s_10659_jpg, tiledrooftop).
holds(s_10659_jpg, vendingmachine).
holds(s_10659_jpg, chimney).
holds(s_10659_jpg, car).

sample(s_8995_jpg).
holds(s_8995_jpg, building).
holds(s_8995_jpg, feature).
holds(s_8995_jpg, miscindustrial).
holds(s_8995_jpg, powerplant).
holds(s_8995_jpg, watertreatment).
holds(s_8995_jpg, door).
holds(s_8995_jpg, window).
holds(s_8995_jpg, sign).
holds(s_8995_jpg, tiledrooftop).
holds(s_8995_jpg, vendingmachine).
holds(s_8995_jpg, chimney).
holds(s_8995_jpg, machine).

sample(s_7317_jpg).
holds(s_7317_jpg, building).
holds(s_7317_jpg, feature).
holds(s_7317_jpg, cafe).
holds(s_7317_jpg, hotel).
holds(s_7317_jpg, misccommercial).
holds(s_7317_jpg, commercial).
holds(s_7317_jpg, door).
holds(s_7317_jpg, window).
holds(s_7317_jpg, awning).
holds(s_7317_jpg, tiledrooftop).
holds(s_7317_jpg, vendingmachine).
holds(s_7317_jpg, chimney).
holds(s_7317_jpg, machine).
holds(s_7317_jpg, car).

sample(s_11871_jpg).
holds(s_11871_jpg, building).
holds(s_11871_jpg, feature).
holds(s_11871_jpg, cafe).
holds(s_11871_jpg, hotel).
holds(s_11871_jpg, misccommercial).
holds(s_11871_jpg, commercial).
holds(s_11871_jpg, door).
holds(s_11871_jpg, awning).
holds(s_11871_jpg, vendingmachine).
holds(s_11871_jpg, chimney).
holds(s_11871_jpg, car).

sample(s_12711_jpg).
holds(s_12711_jpg, building).
holds(s_12711_jpg, feature).
holds(s_12711_jpg, cafe).
holds(s_12711_jpg, hotel).
holds(s_12711_jpg, misccommercial).
holds(s_12711_jpg, commercial).
holds(s_12711_jpg, door).
holds(s_12711_jpg, awning).
holds(s_12711_jpg, tiledrooftop).
holds(s_12711_jpg, vendingmachine).
holds(s_12711_jpg, chimney).
holds(s_12711_jpg, car).

sample(s_9875_jpg).
holds(s_9875_jpg, building).
holds(s_9875_jpg, feature).
holds(s_9875_jpg, suburban).
holds(s_9875_jpg, miscresidential).
holds(s_9875_jpg, countryhouse).
holds(s_9875_jpg, commercial).
holds(s_9875_jpg, door).
holds(s_9875_jpg, window).
holds(s_9875_jpg, porch).
holds(s_9875_jpg, sign).
holds(s_9875_jpg, tiledroof).
holds(s_9875_jpg, vendingmachine).
holds(s_9875_jpg, car).

sample(s_10521_jpg).
holds(s_10521_jpg, building).
holds(s_10521_jpg, feature).
holds(s_10521_jpg, cafe).
holds(s_10521_jpg, hotel).
holds(s_10521_jpg, store).
holds(s_10521_jpg, misccommercial).
holds(s_10521_jpg, residential).
holds(s_10521_jpg, commercial).
holds(s_10521_jpg, awning).
holds(s_10521_jpg, vendingmachine).
holds(s_10521_jpg, chimney).
holds(s_10521_jpg, pipe).
holds(s_10521_jpg, car).

sample(s_155_jpg).
holds(s_155_jpg, building).
holds(s_155_jpg, feature).
holds(s_155_jpg, miscresidential).
holds(s_155_jpg, door).
holds(s_155_jpg, window).
holds(s_155_jpg, porch).
holds(s_155_jpg, sign).
holds(s_155_jpg, tiledroof).
holds(s_155_jpg, vendingmachine).
holds(s_155_jpg, chimney).
holds(s_155_jpg, car).

sample(s_13918_jpg).
holds(s_13918_jpg, building).
holds(s_13918_jpg, feature).
holds(s_13918_jpg, miscindustrial).
holds(s_13918_jpg, watertreatment).
holds(s_13918_jpg, door).
holds(s_13918_jpg, window).
holds(s_13918_jpg, sign).
holds(s_13918_jpg, tiledrooftop).
holds(s_13918_jpg, vendingmachine).
holds(s_13918_jpg, chimney).
holds(s_13918_jpg, machine).

sample(s_7729_jpg).
holds(s_7729_jpg, building).
holds(s_7729_jpg, feature).
holds(s_7729_jpg, powerplant).
holds(s_7729_jpg, door).
holds(s_7729_jpg, window).
holds(s_7729_jpg, awning).
holds(s_7729_jpg, sign).
holds(s_7729_jpg, tiledrooftop).
holds(s_7729_jpg, vendingmachine).
holds(s_7729_jpg, chimney).

sample(s_4575_jpg).
holds(s_4575_jpg, building).
holds(s_4575_jpg, feature).
holds(s_4575_jpg, cafe).
holds(s_4575_jpg, hotel).
holds(s_4575_jpg, restaurant).
holds(s_4575_jpg, residential).
holds(s_4575_jpg, commercial).
holds(s_4575_jpg, window).
holds(s_4575_jpg, tiledrooftop).
holds(s_4575_jpg, vendingmachine).
holds(s_4575_jpg, chimney).
holds(s_4575_jpg, pipe).
holds(s_4575_jpg, car).

sample(s_12372_jpg).
holds(s_12372_jpg, building).
holds(s_12372_jpg, feature).
holds(s_12372_jpg, cafe).
holds(s_12372_jpg, hotel).
holds(s_12372_jpg, restaurant).
holds(s_12372_jpg, misccommercial).
holds(s_12372_jpg, residential).
holds(s_12372_jpg, commercial).
holds(s_12372_jpg, awning).
holds(s_12372_jpg, tiledrooftop).
holds(s_12372_jpg, vendingmachine).
holds(s_12372_jpg, chimney).
holds(s_12372_jpg, pipe).
holds(s_12372_jpg, machine).
holds(s_12372_jpg, car).

sample(s_3654_jpg).
holds(s_3654_jpg, building).
holds(s_3654_jpg, feature).
holds(s_3654_jpg, cafe).
holds(s_3654_jpg, hotel).
holds(s_3654_jpg, store).
holds(s_3654_jpg, misccommercial).
holds(s_3654_jpg, commercial).
holds(s_3654_jpg, awning).
holds(s_3654_jpg, vendingmachine).
holds(s_3654_jpg, chimney).
holds(s_3654_jpg, car).

sample(s_14453_jpg).
holds(s_14453_jpg, building).
holds(s_14453_jpg, feature).
holds(s_14453_jpg, suburban).
holds(s_14453_jpg, miscresidential).
holds(s_14453_jpg, commercial).
holds(s_14453_jpg, door).
holds(s_14453_jpg, window).
holds(s_14453_jpg, porch).
holds(s_14453_jpg, sign).
holds(s_14453_jpg, tiledroof).
holds(s_14453_jpg, vendingmachine).
holds(s_14453_jpg, car).

sample(s_7286_jpg).
holds(s_7286_jpg, building).
holds(s_7286_jpg, feature).
holds(s_7286_jpg, miscresidential).
holds(s_7286_jpg, countryhouse).
holds(s_7286_jpg, door).
holds(s_7286_jpg, window).
holds(s_7286_jpg, porch).
holds(s_7286_jpg, sign).
holds(s_7286_jpg, tiledroof).
holds(s_7286_jpg, chimney).
holds(s_7286_jpg, car).

sample(s_9401_jpg).
holds(s_9401_jpg, building).
holds(s_9401_jpg, feature).
holds(s_9401_jpg, suburban).
holds(s_9401_jpg, miscresidential).
holds(s_9401_jpg, countryhouse).
holds(s_9401_jpg, commercial).
holds(s_9401_jpg, door).
holds(s_9401_jpg, window).
holds(s_9401_jpg, porch).
holds(s_9401_jpg, sign).
holds(s_9401_jpg, tiledroof).
holds(s_9401_jpg, vendingmachine).
holds(s_9401_jpg, car).

sample(s_10757_jpg).
holds(s_10757_jpg, building).
holds(s_10757_jpg, feature).
holds(s_10757_jpg, miscresidential).
holds(s_10757_jpg, countryhouse).
holds(s_10757_jpg, door).
holds(s_10757_jpg, window).
holds(s_10757_jpg, porch).
holds(s_10757_jpg, sign).
holds(s_10757_jpg, tiledroof).
holds(s_10757_jpg, chimney).
holds(s_10757_jpg, car).

sample(s_13392_jpg).
holds(s_13392_jpg, building).
holds(s_13392_jpg, feature).
holds(s_13392_jpg, cafe).
holds(s_13392_jpg, hotel).
holds(s_13392_jpg, store).
holds(s_13392_jpg, misccommercial).
holds(s_13392_jpg, residential).
holds(s_13392_jpg, commercial).
holds(s_13392_jpg, awning).
holds(s_13392_jpg, vendingmachine).
holds(s_13392_jpg, chimney).
holds(s_13392_jpg, pipe).
holds(s_13392_jpg, car).

sample(s_9830_jpg).
holds(s_9830_jpg, building).
holds(s_9830_jpg, feature).
holds(s_9830_jpg, suburban).
holds(s_9830_jpg, commercial).
holds(s_9830_jpg, door).
holds(s_9830_jpg, window).
holds(s_9830_jpg, porch).
holds(s_9830_jpg, sign).
holds(s_9830_jpg, tiledroof).
holds(s_9830_jpg, tiledrooftop).
holds(s_9830_jpg, vendingmachine).

sample(s_2029_jpg).
holds(s_2029_jpg, building).
holds(s_2029_jpg, feature).
holds(s_2029_jpg, miscindustrial).
holds(s_2029_jpg, powerplant).
holds(s_2029_jpg, watertreatment).
holds(s_2029_jpg, door).
holds(s_2029_jpg, window).
holds(s_2029_jpg, sign).
holds(s_2029_jpg, tiledrooftop).
holds(s_2029_jpg, vendingmachine).
holds(s_2029_jpg, chimney).
holds(s_2029_jpg, machine).

sample(s_15627_jpg).
holds(s_15627_jpg, building).
holds(s_15627_jpg, feature).
holds(s_15627_jpg, cafe).
holds(s_15627_jpg, hotel).
holds(s_15627_jpg, misccommercial).
holds(s_15627_jpg, residential).
holds(s_15627_jpg, commercial).
holds(s_15627_jpg, awning).
holds(s_15627_jpg, vendingmachine).
holds(s_15627_jpg, chimney).
holds(s_15627_jpg, car).

sample(s_2615_jpg).
holds(s_2615_jpg, building).
holds(s_2615_jpg, feature).
holds(s_2615_jpg, suburban).
holds(s_2615_jpg, miscresidential).
holds(s_2615_jpg, commercial).
holds(s_2615_jpg, door).
holds(s_2615_jpg, window).
holds(s_2615_jpg, porch).
holds(s_2615_jpg, sign).
holds(s_2615_jpg, tiledroof).
holds(s_2615_jpg, tiledrooftop).
holds(s_2615_jpg, vendingmachine).

sample(s_8466_jpg).
holds(s_8466_jpg, building).
holds(s_8466_jpg, feature).
holds(s_8466_jpg, cafe).
holds(s_8466_jpg, hotel).
holds(s_8466_jpg, store).
holds(s_8466_jpg, misccommercial).
holds(s_8466_jpg, residential).
holds(s_8466_jpg, commercial).
holds(s_8466_jpg, awning).
holds(s_8466_jpg, vendingmachine).
holds(s_8466_jpg, chimney).
holds(s_8466_jpg, pipe).
holds(s_8466_jpg, car).

sample(s_1491_jpg).
holds(s_1491_jpg, building).
holds(s_1491_jpg, feature).
holds(s_1491_jpg, cafe).
holds(s_1491_jpg, hotel).
holds(s_1491_jpg, store).
holds(s_1491_jpg, misccommercial).
holds(s_1491_jpg, commercial).
holds(s_1491_jpg, awning).
holds(s_1491_jpg, vendingmachine).
holds(s_1491_jpg, chimney).
holds(s_1491_jpg, car).

sample(s_11629_jpg).
holds(s_11629_jpg, building).
holds(s_11629_jpg, feature).
holds(s_11629_jpg, miscindustrial).
holds(s_11629_jpg, powerplant).
holds(s_11629_jpg, watertreatment).
holds(s_11629_jpg, door).
holds(s_11629_jpg, window).
holds(s_11629_jpg, sign).
holds(s_11629_jpg, tiledrooftop).
holds(s_11629_jpg, chimney).
holds(s_11629_jpg, machine).

sample(s_11444_jpg).
holds(s_11444_jpg, building).
holds(s_11444_jpg, feature).
holds(s_11444_jpg, miscresidential).
holds(s_11444_jpg, door).
holds(s_11444_jpg, window).
holds(s_11444_jpg, awning).
holds(s_11444_jpg, porch).
holds(s_11444_jpg, sign).
holds(s_11444_jpg, tiledroof).
holds(s_11444_jpg, vendingmachine).
holds(s_11444_jpg, chimney).
holds(s_11444_jpg, car).

sample(s_13543_jpg).
holds(s_13543_jpg, building).
holds(s_13543_jpg, feature).
holds(s_13543_jpg, miscindustrial).
holds(s_13543_jpg, watertreatment).
holds(s_13543_jpg, door).
holds(s_13543_jpg, window).
holds(s_13543_jpg, sign).
holds(s_13543_jpg, tiledrooftop).
holds(s_13543_jpg, vendingmachine).
holds(s_13543_jpg, machine).

sample(s_8601_jpg).
holds(s_8601_jpg, building).
holds(s_8601_jpg, feature).
holds(s_8601_jpg, cafe).
holds(s_8601_jpg, hotel).
holds(s_8601_jpg, restaurant).
holds(s_8601_jpg, store).
holds(s_8601_jpg, misccommercial).
holds(s_8601_jpg, residential).
holds(s_8601_jpg, commercial).
holds(s_8601_jpg, awning).
holds(s_8601_jpg, vendingmachine).
holds(s_8601_jpg, chimney).
holds(s_8601_jpg, pipe).
holds(s_8601_jpg, car).

sample(s_9912_jpg).
holds(s_9912_jpg, building).
holds(s_9912_jpg, feature).
holds(s_9912_jpg, cafe).
holds(s_9912_jpg, hotel).
holds(s_9912_jpg, residential).
holds(s_9912_jpg, commercial).
holds(s_9912_jpg, window).
holds(s_9912_jpg, vendingmachine).
holds(s_9912_jpg, chimney).
holds(s_9912_jpg, car).

sample(s_13792_jpg).
holds(s_13792_jpg, building).
holds(s_13792_jpg, feature).
holds(s_13792_jpg, powerplant).
holds(s_13792_jpg, door).
holds(s_13792_jpg, window).
holds(s_13792_jpg, awning).
holds(s_13792_jpg, sign).
holds(s_13792_jpg, tiledrooftop).
holds(s_13792_jpg, vendingmachine).
holds(s_13792_jpg, chimney).
holds(s_13792_jpg, machine).

sample(s_1616_jpg).
holds(s_1616_jpg, building).
holds(s_1616_jpg, feature).
holds(s_1616_jpg, miscresidential).
holds(s_1616_jpg, countryhouse).
holds(s_1616_jpg, door).
holds(s_1616_jpg, window).
holds(s_1616_jpg, porch).
holds(s_1616_jpg, sign).
holds(s_1616_jpg, tiledroof).
holds(s_1616_jpg, chimney).
holds(s_1616_jpg, car).

sample(s_10697_jpg).
holds(s_10697_jpg, building).
holds(s_10697_jpg, feature).
holds(s_10697_jpg, suburban).
holds(s_10697_jpg, miscresidential).
holds(s_10697_jpg, commercial).
holds(s_10697_jpg, door).
holds(s_10697_jpg, window).
holds(s_10697_jpg, porch).
holds(s_10697_jpg, sign).
holds(s_10697_jpg, tiledroof).
holds(s_10697_jpg, vendingmachine).
holds(s_10697_jpg, car).

sample(s_14761_jpg).
holds(s_14761_jpg, building).
holds(s_14761_jpg, feature).
holds(s_14761_jpg, miscindustrial).
holds(s_14761_jpg, watertreatment).
holds(s_14761_jpg, door).
holds(s_14761_jpg, window).
holds(s_14761_jpg, sign).
holds(s_14761_jpg, tiledrooftop).
holds(s_14761_jpg, vendingmachine).
holds(s_14761_jpg, machine).

sample(s_3449_jpg).
holds(s_3449_jpg, building).
holds(s_3449_jpg, feature).
holds(s_3449_jpg, suburban).
holds(s_3449_jpg, residential).
holds(s_3449_jpg, commercial).
holds(s_3449_jpg, sign).
holds(s_3449_jpg, tiledroof).
holds(s_3449_jpg, tiledrooftop).
holds(s_3449_jpg, vendingmachine).

sample(s_8791_jpg).
holds(s_8791_jpg, building).
holds(s_8791_jpg, feature).
holds(s_8791_jpg, miscindustrial).
holds(s_8791_jpg, watertreatment).
holds(s_8791_jpg, door).
holds(s_8791_jpg, window).
holds(s_8791_jpg, awning).
holds(s_8791_jpg, sign).
holds(s_8791_jpg, tiledrooftop).
holds(s_8791_jpg, vendingmachine).
holds(s_8791_jpg, chimney).
holds(s_8791_jpg, machine).

sample(s_864_jpg).
holds(s_864_jpg, building).
holds(s_864_jpg, feature).
holds(s_864_jpg, hotel).
holds(s_864_jpg, restaurant).
holds(s_864_jpg, store).
holds(s_864_jpg, misccommercial).
holds(s_864_jpg, residential).
holds(s_864_jpg, commercial).
holds(s_864_jpg, awning).
holds(s_864_jpg, vendingmachine).
holds(s_864_jpg, chimney).
holds(s_864_jpg, pipe).
holds(s_864_jpg, car).

sample(s_14706_jpg).
holds(s_14706_jpg, building).
holds(s_14706_jpg, feature).
holds(s_14706_jpg, cafe).
holds(s_14706_jpg, hotel).
holds(s_14706_jpg, restaurant).
holds(s_14706_jpg, store).
holds(s_14706_jpg, residential).
holds(s_14706_jpg, commercial).
holds(s_14706_jpg, vendingmachine).
holds(s_14706_jpg, chimney).
holds(s_14706_jpg, pipe).
holds(s_14706_jpg, car).

sample(s_7367_jpg).
holds(s_7367_jpg, building).
holds(s_7367_jpg, feature).
holds(s_7367_jpg, suburban).
holds(s_7367_jpg, miscresidential).
holds(s_7367_jpg, commercial).
holds(s_7367_jpg, door).
holds(s_7367_jpg, window).
holds(s_7367_jpg, porch).
holds(s_7367_jpg, sign).
holds(s_7367_jpg, tiledroof).
holds(s_7367_jpg, vendingmachine).
holds(s_7367_jpg, car).

sample(s_11250_jpg).
holds(s_11250_jpg, building).
holds(s_11250_jpg, feature).
holds(s_11250_jpg, cafe).
holds(s_11250_jpg, hotel).
holds(s_11250_jpg, restaurant).
holds(s_11250_jpg, residential).
holds(s_11250_jpg, commercial).
holds(s_11250_jpg, awning).
holds(s_11250_jpg, tiledrooftop).
holds(s_11250_jpg, vendingmachine).
holds(s_11250_jpg, chimney).
holds(s_11250_jpg, pipe).
holds(s_11250_jpg, machine).
holds(s_11250_jpg, car).

sample(s_9139_jpg).
holds(s_9139_jpg, building).
holds(s_9139_jpg, feature).
holds(s_9139_jpg, constructionsite).
holds(s_9139_jpg, commercial).
holds(s_9139_jpg, door).
holds(s_9139_jpg, awning).
holds(s_9139_jpg, tiledrooftop).
holds(s_9139_jpg, vendingmachine).
holds(s_9139_jpg, chimney).

sample(s_12374_jpg).
holds(s_12374_jpg, building).
holds(s_12374_jpg, feature).
holds(s_12374_jpg, suburban).
holds(s_12374_jpg, miscresidential).
holds(s_12374_jpg, commercial).
holds(s_12374_jpg, door).
holds(s_12374_jpg, window).
holds(s_12374_jpg, porch).
holds(s_12374_jpg, sign).
holds(s_12374_jpg, tiledroof).
holds(s_12374_jpg, vendingmachine).
holds(s_12374_jpg, car).

sample(s_515_jpg).
holds(s_515_jpg, building).
holds(s_515_jpg, feature).
holds(s_515_jpg, miscresidential).
holds(s_515_jpg, countryhouse).
holds(s_515_jpg, door).
holds(s_515_jpg, window).
holds(s_515_jpg, porch).
holds(s_515_jpg, sign).
holds(s_515_jpg, tiledroof).
holds(s_515_jpg, chimney).
holds(s_515_jpg, car).

sample(s_12585_jpg).
holds(s_12585_jpg, building).
holds(s_12585_jpg, feature).
holds(s_12585_jpg, cafe).
holds(s_12585_jpg, hotel).
holds(s_12585_jpg, store).
holds(s_12585_jpg, misccommercial).
holds(s_12585_jpg, residential).
holds(s_12585_jpg, commercial).
holds(s_12585_jpg, awning).
holds(s_12585_jpg, vendingmachine).
holds(s_12585_jpg, chimney).
holds(s_12585_jpg, car).

sample(s_14867_jpg).
holds(s_14867_jpg, building).
holds(s_14867_jpg, feature).
holds(s_14867_jpg, miscresidential).
holds(s_14867_jpg, door).
holds(s_14867_jpg, window).
holds(s_14867_jpg, porch).
holds(s_14867_jpg, sign).
holds(s_14867_jpg, tiledroof).
holds(s_14867_jpg, vendingmachine).
holds(s_14867_jpg, chimney).
holds(s_14867_jpg, car).

sample(s_9263_jpg).
holds(s_9263_jpg, building).
holds(s_9263_jpg, feature).
holds(s_9263_jpg, suburban).
holds(s_9263_jpg, miscresidential).
holds(s_9263_jpg, commercial).
holds(s_9263_jpg, door).
holds(s_9263_jpg, window).
holds(s_9263_jpg, porch).
holds(s_9263_jpg, sign).
holds(s_9263_jpg, tiledroof).
holds(s_9263_jpg, vendingmachine).
holds(s_9263_jpg, car).

sample(s_9244_jpg).
holds(s_9244_jpg, building).
holds(s_9244_jpg, feature).
holds(s_9244_jpg, miscindustrial).
holds(s_9244_jpg, watertreatment).
holds(s_9244_jpg, door).
holds(s_9244_jpg, window).
holds(s_9244_jpg, sign).
holds(s_9244_jpg, tiledrooftop).
holds(s_9244_jpg, vendingmachine).
holds(s_9244_jpg, chimney).
holds(s_9244_jpg, machine).

sample(s_4590_jpg).
holds(s_4590_jpg, building).
holds(s_4590_jpg, feature).
holds(s_4590_jpg, cafe).
holds(s_4590_jpg, hotel).
holds(s_4590_jpg, restaurant).
holds(s_4590_jpg, store).
holds(s_4590_jpg, misccommercial).
holds(s_4590_jpg, residential).
holds(s_4590_jpg, commercial).
holds(s_4590_jpg, vendingmachine).
holds(s_4590_jpg, chimney).
holds(s_4590_jpg, pipe).
holds(s_4590_jpg, car).

sample(s_3839_jpg).
holds(s_3839_jpg, building).
holds(s_3839_jpg, feature).
holds(s_3839_jpg, suburban).
holds(s_3839_jpg, commercial).
holds(s_3839_jpg, door).
holds(s_3839_jpg, window).
holds(s_3839_jpg, awning).
holds(s_3839_jpg, porch).
holds(s_3839_jpg, sign).
holds(s_3839_jpg, tiledroof).
holds(s_3839_jpg, tiledrooftop).
holds(s_3839_jpg, vendingmachine).

sample(s_873_jpg).
holds(s_873_jpg, building).
holds(s_873_jpg, feature).
holds(s_873_jpg, cafe).
holds(s_873_jpg, store).
holds(s_873_jpg, commercial).
holds(s_873_jpg, door).
holds(s_873_jpg, awning).
holds(s_873_jpg, vendingmachine).
holds(s_873_jpg, chimney).
holds(s_873_jpg, car).

sample(s_6272_jpg).
holds(s_6272_jpg, building).
holds(s_6272_jpg, feature).
holds(s_6272_jpg, suburban).
holds(s_6272_jpg, commercial).
holds(s_6272_jpg, door).
holds(s_6272_jpg, window).
holds(s_6272_jpg, porch).
holds(s_6272_jpg, sign).
holds(s_6272_jpg, tiledroof).
holds(s_6272_jpg, tiledrooftop).
holds(s_6272_jpg, vendingmachine).

sample(s_14961_jpg).
holds(s_14961_jpg, building).
holds(s_14961_jpg, feature).
holds(s_14961_jpg, cafe).
holds(s_14961_jpg, hotel).
holds(s_14961_jpg, store).
holds(s_14961_jpg, misccommercial).
holds(s_14961_jpg, residential).
holds(s_14961_jpg, commercial).
holds(s_14961_jpg, awning).
holds(s_14961_jpg, vendingmachine).
holds(s_14961_jpg, chimney).
holds(s_14961_jpg, car).

sample(s_276_jpg).
holds(s_276_jpg, building).
holds(s_276_jpg, feature).
holds(s_276_jpg, cafe).
holds(s_276_jpg, hotel).
holds(s_276_jpg, misccommercial).
holds(s_276_jpg, commercial).
holds(s_276_jpg, door).
holds(s_276_jpg, awning).
holds(s_276_jpg, vendingmachine).
holds(s_276_jpg, chimney).
holds(s_276_jpg, car).

sample(s_5822_jpg).
holds(s_5822_jpg, building).
holds(s_5822_jpg, feature).
holds(s_5822_jpg, miscresidential).
holds(s_5822_jpg, countryhouse).
holds(s_5822_jpg, door).
holds(s_5822_jpg, window).
holds(s_5822_jpg, porch).
holds(s_5822_jpg, sign).
holds(s_5822_jpg, tiledroof).
holds(s_5822_jpg, chimney).
holds(s_5822_jpg, car).

sample(s_14258_jpg).
holds(s_14258_jpg, building).
holds(s_14258_jpg, feature).
holds(s_14258_jpg, suburban).
holds(s_14258_jpg, miscresidential).
holds(s_14258_jpg, countryhouse).
holds(s_14258_jpg, commercial).
holds(s_14258_jpg, door).
holds(s_14258_jpg, window).
holds(s_14258_jpg, porch).
holds(s_14258_jpg, sign).
holds(s_14258_jpg, tiledroof).
holds(s_14258_jpg, vendingmachine).
holds(s_14258_jpg, car).

sample(s_11973_jpg).
holds(s_11973_jpg, building).
holds(s_11973_jpg, feature).
holds(s_11973_jpg, cafe).
holds(s_11973_jpg, hotel).
holds(s_11973_jpg, store).
holds(s_11973_jpg, residential).
holds(s_11973_jpg, commercial).
holds(s_11973_jpg, awning).
holds(s_11973_jpg, vendingmachine).
holds(s_11973_jpg, chimney).
holds(s_11973_jpg, car).

sample(s_8977_jpg).
holds(s_8977_jpg, building).
holds(s_8977_jpg, feature).
holds(s_8977_jpg, miscindustrial).
holds(s_8977_jpg, powerplant).
holds(s_8977_jpg, watertreatment).
holds(s_8977_jpg, door).
holds(s_8977_jpg, window).
holds(s_8977_jpg, sign).
holds(s_8977_jpg, tiledrooftop).
holds(s_8977_jpg, vendingmachine).
holds(s_8977_jpg, chimney).
holds(s_8977_jpg, machine).

sample(s_6488_jpg).
holds(s_6488_jpg, building).
holds(s_6488_jpg, feature).
holds(s_6488_jpg, suburban).
holds(s_6488_jpg, miscresidential).
holds(s_6488_jpg, commercial).
holds(s_6488_jpg, door).
holds(s_6488_jpg, window).
holds(s_6488_jpg, porch).
holds(s_6488_jpg, sign).
holds(s_6488_jpg, tiledroof).
holds(s_6488_jpg, vendingmachine).
holds(s_6488_jpg, car).

sample(s_9753_jpg).
holds(s_9753_jpg, building).
holds(s_9753_jpg, feature).
holds(s_9753_jpg, cafe).
holds(s_9753_jpg, restaurant).
holds(s_9753_jpg, store).
holds(s_9753_jpg, misccommercial).
holds(s_9753_jpg, residential).
holds(s_9753_jpg, commercial).
holds(s_9753_jpg, awning).
holds(s_9753_jpg, vendingmachine).
holds(s_9753_jpg, chimney).
holds(s_9753_jpg, pipe).
holds(s_9753_jpg, car).

sample(s_3684_jpg).
holds(s_3684_jpg, building).
holds(s_3684_jpg, feature).
holds(s_3684_jpg, cafe).
holds(s_3684_jpg, restaurant).
holds(s_3684_jpg, store).
holds(s_3684_jpg, residential).
holds(s_3684_jpg, commercial).
holds(s_3684_jpg, awning).
holds(s_3684_jpg, vendingmachine).
holds(s_3684_jpg, chimney).
holds(s_3684_jpg, pipe).
holds(s_3684_jpg, car).

sample(s_12964_jpg).
holds(s_12964_jpg, building).
holds(s_12964_jpg, feature).
holds(s_12964_jpg, constructionsite).
holds(s_12964_jpg, commercial).
holds(s_12964_jpg, door).
holds(s_12964_jpg, awning).
holds(s_12964_jpg, tiledrooftop).
holds(s_12964_jpg, vendingmachine).
holds(s_12964_jpg, chimney).
holds(s_12964_jpg, machine).

sample(s_1437_jpg).
holds(s_1437_jpg, building).
holds(s_1437_jpg, feature).
holds(s_1437_jpg, cafe).
holds(s_1437_jpg, hotel).
holds(s_1437_jpg, misccommercial).
holds(s_1437_jpg, commercial).
holds(s_1437_jpg, awning).
holds(s_1437_jpg, tiledrooftop).
holds(s_1437_jpg, vendingmachine).
holds(s_1437_jpg, chimney).
holds(s_1437_jpg, car).

sample(s_1117_jpg).
holds(s_1117_jpg, building).
holds(s_1117_jpg, feature).
holds(s_1117_jpg, constructionsite).
holds(s_1117_jpg, commercial).
holds(s_1117_jpg, door).
holds(s_1117_jpg, awning).
holds(s_1117_jpg, tiledrooftop).
holds(s_1117_jpg, vendingmachine).
holds(s_1117_jpg, chimney).
holds(s_1117_jpg, machine).

sample(s_7560_jpg).
holds(s_7560_jpg, building).
holds(s_7560_jpg, feature).
holds(s_7560_jpg, cafe).
holds(s_7560_jpg, hotel).
holds(s_7560_jpg, store).
holds(s_7560_jpg, misccommercial).
holds(s_7560_jpg, residential).
holds(s_7560_jpg, commercial).
holds(s_7560_jpg, awning).
holds(s_7560_jpg, vendingmachine).
holds(s_7560_jpg, chimney).
holds(s_7560_jpg, pipe).
holds(s_7560_jpg, car).

sample(s_1336_jpg).
holds(s_1336_jpg, building).
holds(s_1336_jpg, feature).
holds(s_1336_jpg, powerplant).
holds(s_1336_jpg, door).
holds(s_1336_jpg, window).
holds(s_1336_jpg, tiledrooftop).
holds(s_1336_jpg, vendingmachine).
holds(s_1336_jpg, chimney).
holds(s_1336_jpg, machine).

sample(s_322_jpg).
holds(s_322_jpg, building).
holds(s_322_jpg, feature).
holds(s_322_jpg, miscindustrial).
holds(s_322_jpg, watertreatment).
holds(s_322_jpg, door).
holds(s_322_jpg, window).
holds(s_322_jpg, sign).
holds(s_322_jpg, tiledrooftop).
holds(s_322_jpg, vendingmachine).
holds(s_322_jpg, chimney).
holds(s_322_jpg, machine).

sample(s_15917_jpg).
holds(s_15917_jpg, building).
holds(s_15917_jpg, feature).
holds(s_15917_jpg, miscresidential).
holds(s_15917_jpg, door).
holds(s_15917_jpg, window).
holds(s_15917_jpg, porch).
holds(s_15917_jpg, sign).
holds(s_15917_jpg, tiledroof).
holds(s_15917_jpg, vendingmachine).
holds(s_15917_jpg, chimney).
holds(s_15917_jpg, car).

sample(s_8919_jpg).
holds(s_8919_jpg, building).
holds(s_8919_jpg, feature).
holds(s_8919_jpg, cafe).
holds(s_8919_jpg, hotel).
holds(s_8919_jpg, store).
holds(s_8919_jpg, residential).
holds(s_8919_jpg, commercial).
holds(s_8919_jpg, awning).
holds(s_8919_jpg, vendingmachine).
holds(s_8919_jpg, chimney).
holds(s_8919_jpg, car).

sample(s_12030_jpg).
holds(s_12030_jpg, building).
holds(s_12030_jpg, feature).
holds(s_12030_jpg, cafe).
holds(s_12030_jpg, hotel).
holds(s_12030_jpg, store).
holds(s_12030_jpg, residential).
holds(s_12030_jpg, commercial).
holds(s_12030_jpg, window).
holds(s_12030_jpg, awning).
holds(s_12030_jpg, vendingmachine).
holds(s_12030_jpg, chimney).
holds(s_12030_jpg, car).

sample(s_1119_jpg).
holds(s_1119_jpg, building).
holds(s_1119_jpg, feature).
holds(s_1119_jpg, cafe).
holds(s_1119_jpg, hotel).
holds(s_1119_jpg, restaurant).
holds(s_1119_jpg, misccommercial).
holds(s_1119_jpg, commercial).
holds(s_1119_jpg, door).
holds(s_1119_jpg, awning).
holds(s_1119_jpg, vendingmachine).
holds(s_1119_jpg, chimney).
holds(s_1119_jpg, car).

sample(s_10363_jpg).
holds(s_10363_jpg, building).
holds(s_10363_jpg, feature).
holds(s_10363_jpg, miscindustrial).
holds(s_10363_jpg, powerplant).
holds(s_10363_jpg, watertreatment).
holds(s_10363_jpg, door).
holds(s_10363_jpg, window).
holds(s_10363_jpg, sign).
holds(s_10363_jpg, tiledrooftop).
holds(s_10363_jpg, chimney).
holds(s_10363_jpg, machine).

sample(s_10712_jpg).
holds(s_10712_jpg, building).
holds(s_10712_jpg, feature).
holds(s_10712_jpg, suburban).
holds(s_10712_jpg, miscresidential).
holds(s_10712_jpg, countryhouse).
holds(s_10712_jpg, commercial).
holds(s_10712_jpg, door).
holds(s_10712_jpg, window).
holds(s_10712_jpg, porch).
holds(s_10712_jpg, sign).
holds(s_10712_jpg, tiledroof).
holds(s_10712_jpg, vendingmachine).
holds(s_10712_jpg, car).

sample(s_9084_jpg).
holds(s_9084_jpg, building).
holds(s_9084_jpg, feature).
holds(s_9084_jpg, cafe).
holds(s_9084_jpg, hotel).
holds(s_9084_jpg, misccommercial).
holds(s_9084_jpg, residential).
holds(s_9084_jpg, commercial).
holds(s_9084_jpg, awning).
holds(s_9084_jpg, tiledrooftop).
holds(s_9084_jpg, vendingmachine).
holds(s_9084_jpg, chimney).
holds(s_9084_jpg, car).

sample(s_7204_jpg).
holds(s_7204_jpg, building).
holds(s_7204_jpg, feature).
holds(s_7204_jpg, constructionsite).
holds(s_7204_jpg, powerplant).
holds(s_7204_jpg, commercial).
holds(s_7204_jpg, door).
holds(s_7204_jpg, window).
holds(s_7204_jpg, awning).
holds(s_7204_jpg, tiledrooftop).
holds(s_7204_jpg, vendingmachine).
holds(s_7204_jpg, chimney).
holds(s_7204_jpg, machine).

sample(s_5537_jpg).
holds(s_5537_jpg, building).
holds(s_5537_jpg, feature).
holds(s_5537_jpg, suburban).
holds(s_5537_jpg, miscresidential).
holds(s_5537_jpg, countryhouse).
holds(s_5537_jpg, door).
holds(s_5537_jpg, window).
holds(s_5537_jpg, porch).
holds(s_5537_jpg, sign).
holds(s_5537_jpg, tiledroof).
holds(s_5537_jpg, car).

sample(s_8070_jpg).
holds(s_8070_jpg, building).
holds(s_8070_jpg, feature).
holds(s_8070_jpg, hotel).
holds(s_8070_jpg, restaurant).
holds(s_8070_jpg, store).
holds(s_8070_jpg, residential).
holds(s_8070_jpg, commercial).
holds(s_8070_jpg, awning).
holds(s_8070_jpg, vendingmachine).
holds(s_8070_jpg, chimney).
holds(s_8070_jpg, pipe).
holds(s_8070_jpg, car).

sample(s_10925_jpg).
holds(s_10925_jpg, building).
holds(s_10925_jpg, feature).
holds(s_10925_jpg, miscresidential).
holds(s_10925_jpg, door).
holds(s_10925_jpg, window).
holds(s_10925_jpg, porch).
holds(s_10925_jpg, sign).
holds(s_10925_jpg, tiledroof).
holds(s_10925_jpg, vendingmachine).
holds(s_10925_jpg, chimney).
holds(s_10925_jpg, car).

sample(s_7359_jpg).
holds(s_7359_jpg, building).
holds(s_7359_jpg, feature).
holds(s_7359_jpg, cafe).
holds(s_7359_jpg, hotel).
holds(s_7359_jpg, restaurant).
holds(s_7359_jpg, store).
holds(s_7359_jpg, misccommercial).
holds(s_7359_jpg, residential).
holds(s_7359_jpg, commercial).
holds(s_7359_jpg, awning).
holds(s_7359_jpg, vendingmachine).
holds(s_7359_jpg, chimney).
holds(s_7359_jpg, pipe).
holds(s_7359_jpg, car).

sample(s_2495_jpg).
holds(s_2495_jpg, building).
holds(s_2495_jpg, feature).
holds(s_2495_jpg, suburban).
holds(s_2495_jpg, miscresidential).
holds(s_2495_jpg, commercial).
holds(s_2495_jpg, door).
holds(s_2495_jpg, window).
holds(s_2495_jpg, porch).
holds(s_2495_jpg, sign).
holds(s_2495_jpg, tiledroof).
holds(s_2495_jpg, vendingmachine).
holds(s_2495_jpg, car).

sample(s_4678_jpg).
holds(s_4678_jpg, building).
holds(s_4678_jpg, feature).
holds(s_4678_jpg, miscindustrial).
holds(s_4678_jpg, powerplant).
holds(s_4678_jpg, watertreatment).
holds(s_4678_jpg, door).
holds(s_4678_jpg, window).
holds(s_4678_jpg, sign).
holds(s_4678_jpg, tiledrooftop).
holds(s_4678_jpg, chimney).
holds(s_4678_jpg, machine).

sample(s_4648_jpg).
holds(s_4648_jpg, building).
holds(s_4648_jpg, feature).
holds(s_4648_jpg, miscindustrial).
holds(s_4648_jpg, watertreatment).
holds(s_4648_jpg, door).
holds(s_4648_jpg, window).
holds(s_4648_jpg, sign).
holds(s_4648_jpg, tiledrooftop).
holds(s_4648_jpg, vendingmachine).
holds(s_4648_jpg, machine).

sample(s_486_jpg).
holds(s_486_jpg, building).
holds(s_486_jpg, feature).
holds(s_486_jpg, cafe).
holds(s_486_jpg, hotel).
holds(s_486_jpg, restaurant).
holds(s_486_jpg, residential).
holds(s_486_jpg, commercial).
holds(s_486_jpg, awning).
holds(s_486_jpg, tiledrooftop).
holds(s_486_jpg, vendingmachine).
holds(s_486_jpg, chimney).
holds(s_486_jpg, pipe).
holds(s_486_jpg, machine).
holds(s_486_jpg, car).

sample(s_4536_jpg).
holds(s_4536_jpg, building).
holds(s_4536_jpg, feature).
holds(s_4536_jpg, cafe).
holds(s_4536_jpg, hotel).
holds(s_4536_jpg, restaurant).
holds(s_4536_jpg, residential).
holds(s_4536_jpg, commercial).
holds(s_4536_jpg, awning).
holds(s_4536_jpg, tiledrooftop).
holds(s_4536_jpg, vendingmachine).
holds(s_4536_jpg, pipe).
holds(s_4536_jpg, machine).
holds(s_4536_jpg, car).

sample(s_4585_jpg).
holds(s_4585_jpg, building).
holds(s_4585_jpg, feature).
holds(s_4585_jpg, powerplant).
holds(s_4585_jpg, door).
holds(s_4585_jpg, window).
holds(s_4585_jpg, tiledrooftop).
holds(s_4585_jpg, vendingmachine).
holds(s_4585_jpg, chimney).
holds(s_4585_jpg, machine).

sample(s_340_jpg).
holds(s_340_jpg, building).
holds(s_340_jpg, feature).
holds(s_340_jpg, miscindustrial).
holds(s_340_jpg, watertreatment).
holds(s_340_jpg, door).
holds(s_340_jpg, window).
holds(s_340_jpg, sign).
holds(s_340_jpg, tiledrooftop).
holds(s_340_jpg, vendingmachine).
holds(s_340_jpg, machine).

sample(s_8680_jpg).
holds(s_8680_jpg, building).
holds(s_8680_jpg, feature).
holds(s_8680_jpg, miscindustrial).
holds(s_8680_jpg, watertreatment).
holds(s_8680_jpg, door).
holds(s_8680_jpg, window).
holds(s_8680_jpg, awning).
holds(s_8680_jpg, sign).
holds(s_8680_jpg, tiledrooftop).
holds(s_8680_jpg, vendingmachine).
holds(s_8680_jpg, chimney).
holds(s_8680_jpg, machine).

sample(s_15063_jpg).
holds(s_15063_jpg, building).
holds(s_15063_jpg, feature).
holds(s_15063_jpg, cafe).
holds(s_15063_jpg, hotel).
holds(s_15063_jpg, restaurant).
holds(s_15063_jpg, store).
holds(s_15063_jpg, misccommercial).
holds(s_15063_jpg, residential).
holds(s_15063_jpg, commercial).
holds(s_15063_jpg, awning).
holds(s_15063_jpg, vendingmachine).
holds(s_15063_jpg, chimney).
holds(s_15063_jpg, pipe).
holds(s_15063_jpg, car).

sample(s_11049_jpg).
holds(s_11049_jpg, building).
holds(s_11049_jpg, feature).
holds(s_11049_jpg, cafe).
holds(s_11049_jpg, hotel).
holds(s_11049_jpg, store).
holds(s_11049_jpg, residential).
holds(s_11049_jpg, commercial).
holds(s_11049_jpg, awning).
holds(s_11049_jpg, vendingmachine).
holds(s_11049_jpg, chimney).
holds(s_11049_jpg, car).

sample(s_8467_jpg).
holds(s_8467_jpg, building).
holds(s_8467_jpg, feature).
holds(s_8467_jpg, miscindustrial).
holds(s_8467_jpg, powerplant).
holds(s_8467_jpg, watertreatment).
holds(s_8467_jpg, door).
holds(s_8467_jpg, window).
holds(s_8467_jpg, sign).
holds(s_8467_jpg, tiledrooftop).
holds(s_8467_jpg, chimney).
holds(s_8467_jpg, machine).

sample(s_1968_jpg).
holds(s_1968_jpg, building).
holds(s_1968_jpg, feature).
holds(s_1968_jpg, cafe).
holds(s_1968_jpg, hotel).
holds(s_1968_jpg, restaurant).
holds(s_1968_jpg, misccommercial).
holds(s_1968_jpg, residential).
holds(s_1968_jpg, commercial).
holds(s_1968_jpg, door).
holds(s_1968_jpg, awning).
holds(s_1968_jpg, tiledrooftop).
holds(s_1968_jpg, vendingmachine).
holds(s_1968_jpg, machine).
holds(s_1968_jpg, car).

sample(s_3120_jpg).
holds(s_3120_jpg, building).
holds(s_3120_jpg, feature).
holds(s_3120_jpg, cafe).
holds(s_3120_jpg, hotel).
holds(s_3120_jpg, restaurant).
holds(s_3120_jpg, store).
holds(s_3120_jpg, misccommercial).
holds(s_3120_jpg, residential).
holds(s_3120_jpg, commercial).
holds(s_3120_jpg, awning).
holds(s_3120_jpg, vendingmachine).
holds(s_3120_jpg, chimney).
holds(s_3120_jpg, pipe).
holds(s_3120_jpg, car).

sample(s_1620_jpg).
holds(s_1620_jpg, building).
holds(s_1620_jpg, feature).
holds(s_1620_jpg, cafe).
holds(s_1620_jpg, hotel).
holds(s_1620_jpg, store).
holds(s_1620_jpg, misccommercial).
holds(s_1620_jpg, residential).
holds(s_1620_jpg, commercial).
holds(s_1620_jpg, awning).
holds(s_1620_jpg, vendingmachine).
holds(s_1620_jpg, chimney).
holds(s_1620_jpg, pipe).
holds(s_1620_jpg, car).

sample(s_3576_jpg).
holds(s_3576_jpg, building).
holds(s_3576_jpg, feature).
holds(s_3576_jpg, cafe).
holds(s_3576_jpg, hotel).
holds(s_3576_jpg, restaurant).
holds(s_3576_jpg, misccommercial).
holds(s_3576_jpg, residential).
holds(s_3576_jpg, commercial).
holds(s_3576_jpg, awning).
holds(s_3576_jpg, tiledrooftop).
holds(s_3576_jpg, vendingmachine).
holds(s_3576_jpg, chimney).
holds(s_3576_jpg, car).

sample(s_2108_jpg).
holds(s_2108_jpg, building).
holds(s_2108_jpg, feature).
holds(s_2108_jpg, suburban).
holds(s_2108_jpg, miscresidential).
holds(s_2108_jpg, countryhouse).
holds(s_2108_jpg, door).
holds(s_2108_jpg, window).
holds(s_2108_jpg, porch).
holds(s_2108_jpg, sign).
holds(s_2108_jpg, tiledroof).
holds(s_2108_jpg, vendingmachine).
holds(s_2108_jpg, car).

sample(s_9769_jpg).
holds(s_9769_jpg, building).
holds(s_9769_jpg, feature).
holds(s_9769_jpg, powerplant).
holds(s_9769_jpg, door).
holds(s_9769_jpg, window).
holds(s_9769_jpg, sign).
holds(s_9769_jpg, tiledrooftop).
holds(s_9769_jpg, vendingmachine).
holds(s_9769_jpg, chimney).
holds(s_9769_jpg, machine).

sample(s_4611_jpg).
holds(s_4611_jpg, building).
holds(s_4611_jpg, feature).
holds(s_4611_jpg, cafe).
holds(s_4611_jpg, hotel).
holds(s_4611_jpg, store).
holds(s_4611_jpg, misccommercial).
holds(s_4611_jpg, residential).
holds(s_4611_jpg, commercial).
holds(s_4611_jpg, awning).
holds(s_4611_jpg, vendingmachine).
holds(s_4611_jpg, chimney).
holds(s_4611_jpg, pipe).
holds(s_4611_jpg, car).

sample(s_5239_jpg).
holds(s_5239_jpg, building).
holds(s_5239_jpg, feature).
holds(s_5239_jpg, miscindustrial).
holds(s_5239_jpg, powerplant).
holds(s_5239_jpg, watertreatment).
holds(s_5239_jpg, door).
holds(s_5239_jpg, window).
holds(s_5239_jpg, sign).
holds(s_5239_jpg, tiledrooftop).
holds(s_5239_jpg, vendingmachine).
holds(s_5239_jpg, chimney).
holds(s_5239_jpg, machine).

sample(s_11842_jpg).
holds(s_11842_jpg, building).
holds(s_11842_jpg, feature).
holds(s_11842_jpg, constructionsite).
holds(s_11842_jpg, powerplant).
holds(s_11842_jpg, commercial).
holds(s_11842_jpg, door).
holds(s_11842_jpg, awning).
holds(s_11842_jpg, tiledrooftop).
holds(s_11842_jpg, vendingmachine).
holds(s_11842_jpg, chimney).

sample(s_4338_jpg).
holds(s_4338_jpg, building).
holds(s_4338_jpg, feature).
holds(s_4338_jpg, cafe).
holds(s_4338_jpg, hotel).
holds(s_4338_jpg, restaurant).
holds(s_4338_jpg, store).
holds(s_4338_jpg, residential).
holds(s_4338_jpg, commercial).
holds(s_4338_jpg, vendingmachine).
holds(s_4338_jpg, chimney).
holds(s_4338_jpg, pipe).
holds(s_4338_jpg, car).

sample(s_4480_jpg).
holds(s_4480_jpg, building).
holds(s_4480_jpg, feature).
holds(s_4480_jpg, miscindustrial).
holds(s_4480_jpg, watertreatment).
holds(s_4480_jpg, door).
holds(s_4480_jpg, window).
holds(s_4480_jpg, sign).
holds(s_4480_jpg, tiledrooftop).
holds(s_4480_jpg, vendingmachine).
holds(s_4480_jpg, chimney).
holds(s_4480_jpg, machine).

sample(s_15492_jpg).
holds(s_15492_jpg, building).
holds(s_15492_jpg, feature).
holds(s_15492_jpg, cafe).
holds(s_15492_jpg, hotel).
holds(s_15492_jpg, restaurant).
holds(s_15492_jpg, misccommercial).
holds(s_15492_jpg, residential).
holds(s_15492_jpg, commercial).
holds(s_15492_jpg, awning).
holds(s_15492_jpg, vendingmachine).
holds(s_15492_jpg, chimney).
holds(s_15492_jpg, car).

sample(s_13184_jpg).
holds(s_13184_jpg, building).
holds(s_13184_jpg, feature).
holds(s_13184_jpg, miscresidential).
holds(s_13184_jpg, countryhouse).
holds(s_13184_jpg, door).
holds(s_13184_jpg, window).
holds(s_13184_jpg, porch).
holds(s_13184_jpg, sign).
holds(s_13184_jpg, tiledroof).
holds(s_13184_jpg, chimney).
holds(s_13184_jpg, car).

sample(s_14255_jpg).
holds(s_14255_jpg, building).
holds(s_14255_jpg, feature).
holds(s_14255_jpg, miscresidential).
holds(s_14255_jpg, countryhouse).
holds(s_14255_jpg, door).
holds(s_14255_jpg, window).
holds(s_14255_jpg, porch).
holds(s_14255_jpg, sign).
holds(s_14255_jpg, tiledroof).
holds(s_14255_jpg, chimney).
holds(s_14255_jpg, car).

sample(s_2631_jpg).
holds(s_2631_jpg, building).
holds(s_2631_jpg, feature).
holds(s_2631_jpg, hotel).
holds(s_2631_jpg, store).
holds(s_2631_jpg, misccommercial).
holds(s_2631_jpg, residential).
holds(s_2631_jpg, commercial).
holds(s_2631_jpg, awning).
holds(s_2631_jpg, vendingmachine).
holds(s_2631_jpg, chimney).
holds(s_2631_jpg, pipe).
holds(s_2631_jpg, car).

sample(s_3787_jpg).
holds(s_3787_jpg, building).
holds(s_3787_jpg, feature).
holds(s_3787_jpg, constructionsite).
holds(s_3787_jpg, powerplant).
holds(s_3787_jpg, commercial).
holds(s_3787_jpg, door).
holds(s_3787_jpg, awning).
holds(s_3787_jpg, tiledrooftop).
holds(s_3787_jpg, vendingmachine).
holds(s_3787_jpg, chimney).

sample(s_7383_jpg).
holds(s_7383_jpg, building).
holds(s_7383_jpg, feature).
holds(s_7383_jpg, cafe).
holds(s_7383_jpg, hotel).
holds(s_7383_jpg, store).
holds(s_7383_jpg, residential).
holds(s_7383_jpg, commercial).
holds(s_7383_jpg, awning).
holds(s_7383_jpg, vendingmachine).
holds(s_7383_jpg, chimney).
holds(s_7383_jpg, car).

sample(s_15145_jpg).
holds(s_15145_jpg, building).
holds(s_15145_jpg, feature).
holds(s_15145_jpg, powerplant).
holds(s_15145_jpg, door).
holds(s_15145_jpg, window).
holds(s_15145_jpg, sign).
holds(s_15145_jpg, tiledrooftop).
holds(s_15145_jpg, vendingmachine).
holds(s_15145_jpg, chimney).
holds(s_15145_jpg, machine).

sample(s_14216_jpg).
holds(s_14216_jpg, building).
holds(s_14216_jpg, feature).
holds(s_14216_jpg, suburban).
holds(s_14216_jpg, miscresidential).
holds(s_14216_jpg, commercial).
holds(s_14216_jpg, door).
holds(s_14216_jpg, window).
holds(s_14216_jpg, porch).
holds(s_14216_jpg, sign).
holds(s_14216_jpg, tiledroof).
holds(s_14216_jpg, vendingmachine).
holds(s_14216_jpg, car).

sample(s_12631_jpg).
holds(s_12631_jpg, building).
holds(s_12631_jpg, feature).
holds(s_12631_jpg, constructionsite).
holds(s_12631_jpg, powerplant).
holds(s_12631_jpg, commercial).
holds(s_12631_jpg, door).
holds(s_12631_jpg, window).
holds(s_12631_jpg, awning).
holds(s_12631_jpg, tiledrooftop).
holds(s_12631_jpg, vendingmachine).
holds(s_12631_jpg, chimney).
holds(s_12631_jpg, machine).

sample(s_1647_jpg).
holds(s_1647_jpg, building).
holds(s_1647_jpg, feature).
holds(s_1647_jpg, cafe).
holds(s_1647_jpg, hotel).
holds(s_1647_jpg, restaurant).
holds(s_1647_jpg, store).
holds(s_1647_jpg, misccommercial).
holds(s_1647_jpg, residential).
holds(s_1647_jpg, commercial).
holds(s_1647_jpg, awning).
holds(s_1647_jpg, vendingmachine).
holds(s_1647_jpg, chimney).
holds(s_1647_jpg, pipe).
holds(s_1647_jpg, car).

sample(s_11557_jpg).
holds(s_11557_jpg, building).
holds(s_11557_jpg, feature).
holds(s_11557_jpg, constructionsite).
holds(s_11557_jpg, powerplant).
holds(s_11557_jpg, commercial).
holds(s_11557_jpg, door).
holds(s_11557_jpg, window).
holds(s_11557_jpg, awning).
holds(s_11557_jpg, tiledrooftop).
holds(s_11557_jpg, vendingmachine).
holds(s_11557_jpg, chimney).
holds(s_11557_jpg, machine).

sample(s_12451_jpg).
holds(s_12451_jpg, building).
holds(s_12451_jpg, feature).
holds(s_12451_jpg, constructionsite).
holds(s_12451_jpg, powerplant).
holds(s_12451_jpg, commercial).
holds(s_12451_jpg, door).
holds(s_12451_jpg, window).
holds(s_12451_jpg, tiledrooftop).
holds(s_12451_jpg, vendingmachine).
holds(s_12451_jpg, chimney).
holds(s_12451_jpg, machine).

sample(s_13674_jpg).
holds(s_13674_jpg, building).
holds(s_13674_jpg, feature).
holds(s_13674_jpg, hotel).
holds(s_13674_jpg, misccommercial).
holds(s_13674_jpg, commercial).
holds(s_13674_jpg, door).
holds(s_13674_jpg, window).
holds(s_13674_jpg, awning).
holds(s_13674_jpg, tiledrooftop).
holds(s_13674_jpg, vendingmachine).
holds(s_13674_jpg, chimney).
holds(s_13674_jpg, car).

sample(s_9323_jpg).
holds(s_9323_jpg, building).
holds(s_9323_jpg, feature).
holds(s_9323_jpg, suburban).
holds(s_9323_jpg, miscresidential).
holds(s_9323_jpg, commercial).
holds(s_9323_jpg, door).
holds(s_9323_jpg, window).
holds(s_9323_jpg, porch).
holds(s_9323_jpg, sign).
holds(s_9323_jpg, tiledroof).
holds(s_9323_jpg, vendingmachine).
holds(s_9323_jpg, car).

sample(s_2167_jpg).
holds(s_2167_jpg, building).
holds(s_2167_jpg, feature).
holds(s_2167_jpg, miscindustrial).
holds(s_2167_jpg, powerplant).
holds(s_2167_jpg, watertreatment).
holds(s_2167_jpg, door).
holds(s_2167_jpg, window).
holds(s_2167_jpg, sign).
holds(s_2167_jpg, tiledrooftop).
holds(s_2167_jpg, vendingmachine).
holds(s_2167_jpg, chimney).
holds(s_2167_jpg, machine).

sample(s_9286_jpg).
holds(s_9286_jpg, building).
holds(s_9286_jpg, feature).
holds(s_9286_jpg, constructionsite).
holds(s_9286_jpg, powerplant).
holds(s_9286_jpg, commercial).
holds(s_9286_jpg, door).
holds(s_9286_jpg, awning).
holds(s_9286_jpg, tiledrooftop).
holds(s_9286_jpg, vendingmachine).
holds(s_9286_jpg, chimney).

sample(s_11710_jpg).
holds(s_11710_jpg, building).
holds(s_11710_jpg, feature).
holds(s_11710_jpg, constructionsite).
holds(s_11710_jpg, powerplant).
holds(s_11710_jpg, commercial).
holds(s_11710_jpg, door).
holds(s_11710_jpg, window).
holds(s_11710_jpg, awning).
holds(s_11710_jpg, tiledrooftop).
holds(s_11710_jpg, vendingmachine).
holds(s_11710_jpg, chimney).
holds(s_11710_jpg, machine).

sample(s_2988_jpg).
holds(s_2988_jpg, building).
holds(s_2988_jpg, feature).
holds(s_2988_jpg, cafe).
holds(s_2988_jpg, hotel).
holds(s_2988_jpg, restaurant).
holds(s_2988_jpg, store).
holds(s_2988_jpg, misccommercial).
holds(s_2988_jpg, residential).
holds(s_2988_jpg, commercial).
holds(s_2988_jpg, awning).
holds(s_2988_jpg, vendingmachine).
holds(s_2988_jpg, chimney).
holds(s_2988_jpg, pipe).
holds(s_2988_jpg, car).

sample(s_219_jpg).
holds(s_219_jpg, building).
holds(s_219_jpg, feature).
holds(s_219_jpg, cafe).
holds(s_219_jpg, hotel).
holds(s_219_jpg, store).
holds(s_219_jpg, misccommercial).
holds(s_219_jpg, residential).
holds(s_219_jpg, commercial).
holds(s_219_jpg, awning).
holds(s_219_jpg, vendingmachine).
holds(s_219_jpg, chimney).
holds(s_219_jpg, car).

sample(s_13627_jpg).
holds(s_13627_jpg, building).
holds(s_13627_jpg, feature).
holds(s_13627_jpg, miscindustrial).
holds(s_13627_jpg, watertreatment).
holds(s_13627_jpg, door).
holds(s_13627_jpg, window).
holds(s_13627_jpg, sign).
holds(s_13627_jpg, tiledrooftop).
holds(s_13627_jpg, vendingmachine).
holds(s_13627_jpg, chimney).
holds(s_13627_jpg, machine).

sample(s_8188_jpg).
holds(s_8188_jpg, building).
holds(s_8188_jpg, feature).
holds(s_8188_jpg, miscindustrial).
holds(s_8188_jpg, watertreatment).
holds(s_8188_jpg, door).
holds(s_8188_jpg, window).
holds(s_8188_jpg, sign).
holds(s_8188_jpg, tiledrooftop).
holds(s_8188_jpg, vendingmachine).
holds(s_8188_jpg, machine).

sample(s_2246_jpg).
holds(s_2246_jpg, building).
holds(s_2246_jpg, feature).
holds(s_2246_jpg, misccommercial).
holds(s_2246_jpg, miscresidential).
holds(s_2246_jpg, commercial).
holds(s_2246_jpg, door).
holds(s_2246_jpg, window).
holds(s_2246_jpg, sign).
holds(s_2246_jpg, tiledroof).
holds(s_2246_jpg, car).

sample(s_2257_jpg).
holds(s_2257_jpg, building).
holds(s_2257_jpg, feature).
holds(s_2257_jpg, miscindustrial).
holds(s_2257_jpg, powerplant).
holds(s_2257_jpg, watertreatment).
holds(s_2257_jpg, door).
holds(s_2257_jpg, window).
holds(s_2257_jpg, sign).
holds(s_2257_jpg, tiledrooftop).
holds(s_2257_jpg, chimney).
holds(s_2257_jpg, machine).

sample(s_5985_jpg).
holds(s_5985_jpg, building).
holds(s_5985_jpg, feature).
holds(s_5985_jpg, cafe).
holds(s_5985_jpg, hotel).
holds(s_5985_jpg, restaurant).
holds(s_5985_jpg, misccommercial).
holds(s_5985_jpg, residential).
holds(s_5985_jpg, commercial).
holds(s_5985_jpg, awning).
holds(s_5985_jpg, tiledrooftop).
holds(s_5985_jpg, vendingmachine).
holds(s_5985_jpg, pipe).
holds(s_5985_jpg, car).

sample(s_12580_jpg).
holds(s_12580_jpg, building).
holds(s_12580_jpg, feature).
holds(s_12580_jpg, miscindustrial).
holds(s_12580_jpg, powerplant).
holds(s_12580_jpg, watertreatment).
holds(s_12580_jpg, door).
holds(s_12580_jpg, window).
holds(s_12580_jpg, tiledrooftop).
holds(s_12580_jpg, vendingmachine).
holds(s_12580_jpg, chimney).
holds(s_12580_jpg, machine).

sample(s_7120_jpg).
holds(s_7120_jpg, building).
holds(s_7120_jpg, feature).
holds(s_7120_jpg, powerplant).
holds(s_7120_jpg, door).
holds(s_7120_jpg, window).
holds(s_7120_jpg, tiledrooftop).
holds(s_7120_jpg, vendingmachine).
holds(s_7120_jpg, chimney).
holds(s_7120_jpg, machine).

sample(s_1311_jpg).
holds(s_1311_jpg, building).
holds(s_1311_jpg, feature).
holds(s_1311_jpg, cafe).
holds(s_1311_jpg, hotel).
holds(s_1311_jpg, store).
holds(s_1311_jpg, residential).
holds(s_1311_jpg, commercial).
holds(s_1311_jpg, awning).
holds(s_1311_jpg, vendingmachine).
holds(s_1311_jpg, chimney).
holds(s_1311_jpg, pipe).
holds(s_1311_jpg, car).

sample(s_5890_jpg).
holds(s_5890_jpg, building).
holds(s_5890_jpg, feature).
holds(s_5890_jpg, constructionsite).
holds(s_5890_jpg, powerplant).
holds(s_5890_jpg, commercial).
holds(s_5890_jpg, door).
holds(s_5890_jpg, window).
holds(s_5890_jpg, awning).
holds(s_5890_jpg, tiledrooftop).
holds(s_5890_jpg, vendingmachine).
holds(s_5890_jpg, chimney).
holds(s_5890_jpg, machine).

sample(s_10172_jpg).
holds(s_10172_jpg, building).
holds(s_10172_jpg, feature).
holds(s_10172_jpg, miscresidential).
holds(s_10172_jpg, countryhouse).
holds(s_10172_jpg, door).
holds(s_10172_jpg, window).
holds(s_10172_jpg, sign).
holds(s_10172_jpg, tiledroof).
holds(s_10172_jpg, chimney).
holds(s_10172_jpg, car).

sample(s_6081_jpg).
holds(s_6081_jpg, building).
holds(s_6081_jpg, feature).
holds(s_6081_jpg, cafe).
holds(s_6081_jpg, hotel).
holds(s_6081_jpg, restaurant).
holds(s_6081_jpg, store).
holds(s_6081_jpg, misccommercial).
holds(s_6081_jpg, residential).
holds(s_6081_jpg, commercial).
holds(s_6081_jpg, awning).
holds(s_6081_jpg, vendingmachine).
holds(s_6081_jpg, chimney).
holds(s_6081_jpg, pipe).
holds(s_6081_jpg, car).

sample(s_2233_jpg).
holds(s_2233_jpg, building).
holds(s_2233_jpg, feature).
holds(s_2233_jpg, miscindustrial).
holds(s_2233_jpg, powerplant).
holds(s_2233_jpg, watertreatment).
holds(s_2233_jpg, door).
holds(s_2233_jpg, window).
holds(s_2233_jpg, awning).
holds(s_2233_jpg, sign).
holds(s_2233_jpg, tiledrooftop).
holds(s_2233_jpg, vendingmachine).
holds(s_2233_jpg, chimney).
holds(s_2233_jpg, machine).

sample(s_1423_jpg).
holds(s_1423_jpg, building).
holds(s_1423_jpg, feature).
holds(s_1423_jpg, miscindustrial).
holds(s_1423_jpg, watertreatment).
holds(s_1423_jpg, door).
holds(s_1423_jpg, window).
holds(s_1423_jpg, awning).
holds(s_1423_jpg, sign).
holds(s_1423_jpg, tiledrooftop).
holds(s_1423_jpg, vendingmachine).
holds(s_1423_jpg, chimney).
holds(s_1423_jpg, machine).

sample(s_9038_jpg).
holds(s_9038_jpg, building).
holds(s_9038_jpg, feature).
holds(s_9038_jpg, miscresidential).
holds(s_9038_jpg, door).
holds(s_9038_jpg, window).
holds(s_9038_jpg, porch).
holds(s_9038_jpg, sign).
holds(s_9038_jpg, tiledroof).
holds(s_9038_jpg, vendingmachine).
holds(s_9038_jpg, chimney).
holds(s_9038_jpg, car).

sample(s_1785_jpg).
holds(s_1785_jpg, building).
holds(s_1785_jpg, feature).
holds(s_1785_jpg, cafe).
holds(s_1785_jpg, hotel).
holds(s_1785_jpg, store).
holds(s_1785_jpg, misccommercial).
holds(s_1785_jpg, commercial).
holds(s_1785_jpg, awning).
holds(s_1785_jpg, vendingmachine).
holds(s_1785_jpg, chimney).
holds(s_1785_jpg, car).

sample(s_10999_jpg).
holds(s_10999_jpg, building).
holds(s_10999_jpg, feature).
holds(s_10999_jpg, constructionsite).
holds(s_10999_jpg, powerplant).
holds(s_10999_jpg, commercial).
holds(s_10999_jpg, door).
holds(s_10999_jpg, window).
holds(s_10999_jpg, awning).
holds(s_10999_jpg, tiledrooftop).
holds(s_10999_jpg, vendingmachine).
holds(s_10999_jpg, chimney).
holds(s_10999_jpg, machine).

sample(s_9409_jpg).
holds(s_9409_jpg, building).
holds(s_9409_jpg, feature).
holds(s_9409_jpg, miscindustrial).
holds(s_9409_jpg, watertreatment).
holds(s_9409_jpg, door).
holds(s_9409_jpg, window).
holds(s_9409_jpg, awning).
holds(s_9409_jpg, sign).
holds(s_9409_jpg, tiledrooftop).
holds(s_9409_jpg, vendingmachine).
holds(s_9409_jpg, machine).

sample(s_14731_jpg).
holds(s_14731_jpg, building).
holds(s_14731_jpg, feature).
holds(s_14731_jpg, miscindustrial).
holds(s_14731_jpg, powerplant).
holds(s_14731_jpg, watertreatment).
holds(s_14731_jpg, door).
holds(s_14731_jpg, window).
holds(s_14731_jpg, sign).
holds(s_14731_jpg, tiledrooftop).
holds(s_14731_jpg, vendingmachine).
holds(s_14731_jpg, chimney).
holds(s_14731_jpg, machine).

sample(s_185_jpg).
holds(s_185_jpg, building).
holds(s_185_jpg, feature).
holds(s_185_jpg, suburban).
holds(s_185_jpg, miscresidential).
holds(s_185_jpg, commercial).
holds(s_185_jpg, door).
holds(s_185_jpg, window).
holds(s_185_jpg, porch).
holds(s_185_jpg, sign).
holds(s_185_jpg, tiledroof).
holds(s_185_jpg, vendingmachine).
holds(s_185_jpg, car).

sample(s_14952_jpg).
holds(s_14952_jpg, building).
holds(s_14952_jpg, feature).
holds(s_14952_jpg, cafe).
holds(s_14952_jpg, hotel).
holds(s_14952_jpg, store).
holds(s_14952_jpg, misccommercial).
holds(s_14952_jpg, commercial).
holds(s_14952_jpg, awning).
holds(s_14952_jpg, vendingmachine).
holds(s_14952_jpg, chimney).
holds(s_14952_jpg, pipe).
holds(s_14952_jpg, car).

sample(s_1931_jpg).
holds(s_1931_jpg, building).
holds(s_1931_jpg, feature).
holds(s_1931_jpg, suburban).
holds(s_1931_jpg, miscresidential).
holds(s_1931_jpg, countryhouse).
holds(s_1931_jpg, commercial).
holds(s_1931_jpg, door).
holds(s_1931_jpg, window).
holds(s_1931_jpg, porch).
holds(s_1931_jpg, sign).
holds(s_1931_jpg, tiledroof).
holds(s_1931_jpg, vendingmachine).
holds(s_1931_jpg, car).

sample(s_13363_jpg).
holds(s_13363_jpg, building).
holds(s_13363_jpg, feature).
holds(s_13363_jpg, constructionsite).
holds(s_13363_jpg, commercial).
holds(s_13363_jpg, door).
holds(s_13363_jpg, awning).
holds(s_13363_jpg, tiledrooftop).
holds(s_13363_jpg, vendingmachine).
holds(s_13363_jpg, chimney).
holds(s_13363_jpg, machine).

sample(s_2105_jpg).
holds(s_2105_jpg, building).
holds(s_2105_jpg, feature).
holds(s_2105_jpg, suburban).
holds(s_2105_jpg, commercial).
holds(s_2105_jpg, door).
holds(s_2105_jpg, window).
holds(s_2105_jpg, sign).
holds(s_2105_jpg, tiledroof).
holds(s_2105_jpg, tiledrooftop).
holds(s_2105_jpg, vendingmachine).

sample(s_4497_jpg).
holds(s_4497_jpg, building).
holds(s_4497_jpg, feature).
holds(s_4497_jpg, cafe).
holds(s_4497_jpg, hotel).
holds(s_4497_jpg, restaurant).
holds(s_4497_jpg, residential).
holds(s_4497_jpg, commercial).
holds(s_4497_jpg, tiledrooftop).
holds(s_4497_jpg, vendingmachine).
holds(s_4497_jpg, chimney).
holds(s_4497_jpg, pipe).
holds(s_4497_jpg, machine).
holds(s_4497_jpg, car).

sample(s_15839_jpg).
holds(s_15839_jpg, building).
holds(s_15839_jpg, feature).
holds(s_15839_jpg, miscresidential).
holds(s_15839_jpg, countryhouse).
holds(s_15839_jpg, door).
holds(s_15839_jpg, window).
holds(s_15839_jpg, porch).
holds(s_15839_jpg, sign).
holds(s_15839_jpg, tiledroof).
holds(s_15839_jpg, chimney).
holds(s_15839_jpg, car).

sample(s_5001_jpg).
holds(s_5001_jpg, building).
holds(s_5001_jpg, feature).
holds(s_5001_jpg, cafe).
holds(s_5001_jpg, hotel).
holds(s_5001_jpg, restaurant).
holds(s_5001_jpg, misccommercial).
holds(s_5001_jpg, residential).
holds(s_5001_jpg, commercial).
holds(s_5001_jpg, awning).
holds(s_5001_jpg, tiledrooftop).
holds(s_5001_jpg, vendingmachine).
holds(s_5001_jpg, chimney).
holds(s_5001_jpg, pipe).
holds(s_5001_jpg, car).

sample(s_6295_jpg).
holds(s_6295_jpg, building).
holds(s_6295_jpg, feature).
holds(s_6295_jpg, miscindustrial).
holds(s_6295_jpg, watertreatment).
holds(s_6295_jpg, door).
holds(s_6295_jpg, window).
holds(s_6295_jpg, sign).
holds(s_6295_jpg, tiledrooftop).
holds(s_6295_jpg, vendingmachine).
holds(s_6295_jpg, machine).

sample(s_8080_jpg).
holds(s_8080_jpg, building).
holds(s_8080_jpg, feature).
holds(s_8080_jpg, powerplant).
holds(s_8080_jpg, door).
holds(s_8080_jpg, window).
holds(s_8080_jpg, sign).
holds(s_8080_jpg, tiledrooftop).
holds(s_8080_jpg, vendingmachine).
holds(s_8080_jpg, chimney).
holds(s_8080_jpg, machine).

sample(s_11451_jpg).
holds(s_11451_jpg, building).
holds(s_11451_jpg, feature).
holds(s_11451_jpg, cafe).
holds(s_11451_jpg, hotel).
holds(s_11451_jpg, restaurant).
holds(s_11451_jpg, misccommercial).
holds(s_11451_jpg, residential).
holds(s_11451_jpg, commercial).
holds(s_11451_jpg, awning).
holds(s_11451_jpg, tiledrooftop).
holds(s_11451_jpg, vendingmachine).
holds(s_11451_jpg, chimney).
holds(s_11451_jpg, pipe).
holds(s_11451_jpg, machine).
holds(s_11451_jpg, car).

sample(s_1700_jpg).
holds(s_1700_jpg, building).
holds(s_1700_jpg, feature).
holds(s_1700_jpg, suburban).
holds(s_1700_jpg, miscresidential).
holds(s_1700_jpg, countryhouse).
holds(s_1700_jpg, commercial).
holds(s_1700_jpg, door).
holds(s_1700_jpg, window).
holds(s_1700_jpg, porch).
holds(s_1700_jpg, sign).
holds(s_1700_jpg, tiledroof).
holds(s_1700_jpg, vendingmachine).
holds(s_1700_jpg, car).

sample(s_15936_jpg).
holds(s_15936_jpg, building).
holds(s_15936_jpg, feature).
holds(s_15936_jpg, cafe).
holds(s_15936_jpg, hotel).
holds(s_15936_jpg, restaurant).
holds(s_15936_jpg, misccommercial).
holds(s_15936_jpg, residential).
holds(s_15936_jpg, commercial).
holds(s_15936_jpg, awning).
holds(s_15936_jpg, vendingmachine).
holds(s_15936_jpg, chimney).
holds(s_15936_jpg, pipe).
holds(s_15936_jpg, car).

sample(s_11275_jpg).
holds(s_11275_jpg, building).
holds(s_11275_jpg, feature).
holds(s_11275_jpg, constructionsite).
holds(s_11275_jpg, powerplant).
holds(s_11275_jpg, commercial).
holds(s_11275_jpg, door).
holds(s_11275_jpg, awning).
holds(s_11275_jpg, tiledrooftop).
holds(s_11275_jpg, vendingmachine).
holds(s_11275_jpg, chimney).

sample(s_12626_jpg).
holds(s_12626_jpg, building).
holds(s_12626_jpg, feature).
holds(s_12626_jpg, miscresidential).
holds(s_12626_jpg, commercial).
holds(s_12626_jpg, door).
holds(s_12626_jpg, window).
holds(s_12626_jpg, awning).
holds(s_12626_jpg, porch).
holds(s_12626_jpg, sign).
holds(s_12626_jpg, tiledroof).
holds(s_12626_jpg, vendingmachine).
holds(s_12626_jpg, chimney).
holds(s_12626_jpg, car).

sample(s_3385_jpg).
holds(s_3385_jpg, building).
holds(s_3385_jpg, feature).
holds(s_3385_jpg, constructionsite).
holds(s_3385_jpg, powerplant).
holds(s_3385_jpg, commercial).
holds(s_3385_jpg, door).
holds(s_3385_jpg, awning).
holds(s_3385_jpg, tiledrooftop).
holds(s_3385_jpg, vendingmachine).
holds(s_3385_jpg, chimney).
holds(s_3385_jpg, machine).

sample(s_12844_jpg).
holds(s_12844_jpg, building).
holds(s_12844_jpg, feature).
holds(s_12844_jpg, miscindustrial).
holds(s_12844_jpg, powerplant).
holds(s_12844_jpg, watertreatment).
holds(s_12844_jpg, door).
holds(s_12844_jpg, window).
holds(s_12844_jpg, sign).
holds(s_12844_jpg, tiledrooftop).
holds(s_12844_jpg, vendingmachine).
holds(s_12844_jpg, chimney).
holds(s_12844_jpg, machine).

sample(s_20_jpg).
holds(s_20_jpg, building).
holds(s_20_jpg, feature).
holds(s_20_jpg, miscresidential).
holds(s_20_jpg, countryhouse).
holds(s_20_jpg, door).
holds(s_20_jpg, window).
holds(s_20_jpg, porch).
holds(s_20_jpg, sign).
holds(s_20_jpg, tiledroof).
holds(s_20_jpg, chimney).
holds(s_20_jpg, car).

sample(s_14713_jpg).
holds(s_14713_jpg, building).
holds(s_14713_jpg, feature).
holds(s_14713_jpg, miscindustrial).
holds(s_14713_jpg, powerplant).
holds(s_14713_jpg, watertreatment).
holds(s_14713_jpg, door).
holds(s_14713_jpg, window).
holds(s_14713_jpg, sign).
holds(s_14713_jpg, tiledrooftop).
holds(s_14713_jpg, vendingmachine).
holds(s_14713_jpg, chimney).
holds(s_14713_jpg, machine).

sample(s_7973_jpg).
holds(s_7973_jpg, building).
holds(s_7973_jpg, feature).
holds(s_7973_jpg, miscresidential).
holds(s_7973_jpg, countryhouse).
holds(s_7973_jpg, door).
holds(s_7973_jpg, window).
holds(s_7973_jpg, porch).
holds(s_7973_jpg, sign).
holds(s_7973_jpg, tiledroof).
holds(s_7973_jpg, chimney).
holds(s_7973_jpg, car).

sample(s_7569_jpg).
holds(s_7569_jpg, building).
holds(s_7569_jpg, feature).
holds(s_7569_jpg, cafe).
holds(s_7569_jpg, restaurant).
holds(s_7569_jpg, store).
holds(s_7569_jpg, misccommercial).
holds(s_7569_jpg, residential).
holds(s_7569_jpg, commercial).
holds(s_7569_jpg, awning).
holds(s_7569_jpg, vendingmachine).
holds(s_7569_jpg, chimney).
holds(s_7569_jpg, pipe).
holds(s_7569_jpg, car).

sample(s_10855_jpg).
holds(s_10855_jpg, building).
holds(s_10855_jpg, feature).
holds(s_10855_jpg, powerplant).
holds(s_10855_jpg, door).
holds(s_10855_jpg, window).
holds(s_10855_jpg, sign).
holds(s_10855_jpg, tiledrooftop).
holds(s_10855_jpg, chimney).
holds(s_10855_jpg, machine).

sample(s_2621_jpg).
holds(s_2621_jpg, building).
holds(s_2621_jpg, feature).
holds(s_2621_jpg, suburban).
holds(s_2621_jpg, commercial).
holds(s_2621_jpg, door).
holds(s_2621_jpg, porch).
holds(s_2621_jpg, sign).
holds(s_2621_jpg, tiledroof).
holds(s_2621_jpg, tiledrooftop).
holds(s_2621_jpg, vendingmachine).

sample(s_3265_jpg).
holds(s_3265_jpg, building).
holds(s_3265_jpg, feature).
holds(s_3265_jpg, miscindustrial).
holds(s_3265_jpg, powerplant).
holds(s_3265_jpg, watertreatment).
holds(s_3265_jpg, door).
holds(s_3265_jpg, window).
holds(s_3265_jpg, sign).
holds(s_3265_jpg, tiledrooftop).
holds(s_3265_jpg, vendingmachine).
holds(s_3265_jpg, chimney).
holds(s_3265_jpg, machine).

sample(s_12749_jpg).
holds(s_12749_jpg, building).
holds(s_12749_jpg, feature).
holds(s_12749_jpg, suburban).
holds(s_12749_jpg, commercial).
holds(s_12749_jpg, door).
holds(s_12749_jpg, window).
holds(s_12749_jpg, porch).
holds(s_12749_jpg, sign).
holds(s_12749_jpg, tiledroof).
holds(s_12749_jpg, tiledrooftop).
holds(s_12749_jpg, vendingmachine).

sample(s_15019_jpg).
holds(s_15019_jpg, building).
holds(s_15019_jpg, feature).
holds(s_15019_jpg, miscindustrial).
holds(s_15019_jpg, powerplant).
holds(s_15019_jpg, watertreatment).
holds(s_15019_jpg, door).
holds(s_15019_jpg, window).
holds(s_15019_jpg, sign).
holds(s_15019_jpg, tiledrooftop).
holds(s_15019_jpg, vendingmachine).
holds(s_15019_jpg, chimney).
holds(s_15019_jpg, machine).

sample(s_6151_jpg).
holds(s_6151_jpg, building).
holds(s_6151_jpg, feature).
holds(s_6151_jpg, powerplant).
holds(s_6151_jpg, door).
holds(s_6151_jpg, window).
holds(s_6151_jpg, awning).
holds(s_6151_jpg, tiledrooftop).
holds(s_6151_jpg, vendingmachine).
holds(s_6151_jpg, chimney).
holds(s_6151_jpg, machine).

sample(s_10068_jpg).
holds(s_10068_jpg, building).
holds(s_10068_jpg, feature).
holds(s_10068_jpg, cafe).
holds(s_10068_jpg, hotel).
holds(s_10068_jpg, store).
holds(s_10068_jpg, misccommercial).
holds(s_10068_jpg, residential).
holds(s_10068_jpg, commercial).
holds(s_10068_jpg, awning).
holds(s_10068_jpg, vendingmachine).
holds(s_10068_jpg, chimney).
holds(s_10068_jpg, car).

sample(s_735_jpg).
holds(s_735_jpg, building).
holds(s_735_jpg, feature).
holds(s_735_jpg, cafe).
holds(s_735_jpg, hotel).
holds(s_735_jpg, restaurant).
holds(s_735_jpg, residential).
holds(s_735_jpg, commercial).
holds(s_735_jpg, tiledrooftop).
holds(s_735_jpg, vendingmachine).
holds(s_735_jpg, pipe).
holds(s_735_jpg, machine).
holds(s_735_jpg, car).

sample(s_5591_jpg).
holds(s_5591_jpg, building).
holds(s_5591_jpg, feature).
holds(s_5591_jpg, suburban).
holds(s_5591_jpg, miscresidential).
holds(s_5591_jpg, commercial).
holds(s_5591_jpg, door).
holds(s_5591_jpg, window).
holds(s_5591_jpg, porch).
holds(s_5591_jpg, sign).
holds(s_5591_jpg, tiledroof).
holds(s_5591_jpg, vendingmachine).
holds(s_5591_jpg, car).

sample(s_7791_jpg).
holds(s_7791_jpg, building).
holds(s_7791_jpg, feature).
holds(s_7791_jpg, hotel).
holds(s_7791_jpg, store).
holds(s_7791_jpg, residential).
holds(s_7791_jpg, commercial).
holds(s_7791_jpg, awning).
holds(s_7791_jpg, vendingmachine).
holds(s_7791_jpg, chimney).
holds(s_7791_jpg, pipe).
holds(s_7791_jpg, car).

sample(s_4127_jpg).
holds(s_4127_jpg, building).
holds(s_4127_jpg, feature).
holds(s_4127_jpg, suburban).
holds(s_4127_jpg, miscresidential).
holds(s_4127_jpg, countryhouse).
holds(s_4127_jpg, door).
holds(s_4127_jpg, window).
holds(s_4127_jpg, porch).
holds(s_4127_jpg, sign).
holds(s_4127_jpg, tiledroof).
holds(s_4127_jpg, car).

sample(s_7806_jpg).
holds(s_7806_jpg, building).
holds(s_7806_jpg, feature).
holds(s_7806_jpg, cafe).
holds(s_7806_jpg, hotel).
holds(s_7806_jpg, misccommercial).
holds(s_7806_jpg, commercial).
holds(s_7806_jpg, door).
holds(s_7806_jpg, awning).
holds(s_7806_jpg, vendingmachine).
holds(s_7806_jpg, chimney).
holds(s_7806_jpg, car).

sample(s_9402_jpg).
holds(s_9402_jpg, building).
holds(s_9402_jpg, feature).
holds(s_9402_jpg, cafe).
holds(s_9402_jpg, hotel).
holds(s_9402_jpg, restaurant).
holds(s_9402_jpg, misccommercial).
holds(s_9402_jpg, residential).
holds(s_9402_jpg, commercial).
holds(s_9402_jpg, vendingmachine).
holds(s_9402_jpg, chimney).
holds(s_9402_jpg, car).

sample(s_7541_jpg).
holds(s_7541_jpg, building).
holds(s_7541_jpg, feature).
holds(s_7541_jpg, suburban).
holds(s_7541_jpg, miscresidential).
holds(s_7541_jpg, commercial).
holds(s_7541_jpg, door).
holds(s_7541_jpg, window).
holds(s_7541_jpg, porch).
holds(s_7541_jpg, sign).
holds(s_7541_jpg, tiledroof).
holds(s_7541_jpg, vendingmachine).
holds(s_7541_jpg, car).

sample(s_12151_jpg).
holds(s_12151_jpg, building).
holds(s_12151_jpg, feature).
holds(s_12151_jpg, miscindustrial).
holds(s_12151_jpg, watertreatment).
holds(s_12151_jpg, door).
holds(s_12151_jpg, window).
holds(s_12151_jpg, awning).
holds(s_12151_jpg, sign).
holds(s_12151_jpg, tiledrooftop).
holds(s_12151_jpg, vendingmachine).
holds(s_12151_jpg, chimney).
holds(s_12151_jpg, machine).

sample(s_14571_jpg).
holds(s_14571_jpg, building).
holds(s_14571_jpg, feature).
holds(s_14571_jpg, hotel).
holds(s_14571_jpg, restaurant).
holds(s_14571_jpg, store).
holds(s_14571_jpg, misccommercial).
holds(s_14571_jpg, residential).
holds(s_14571_jpg, commercial).
holds(s_14571_jpg, awning).
holds(s_14571_jpg, vendingmachine).
holds(s_14571_jpg, chimney).
holds(s_14571_jpg, pipe).
holds(s_14571_jpg, car).

sample(s_2699_jpg).
holds(s_2699_jpg, building).
holds(s_2699_jpg, feature).
holds(s_2699_jpg, suburban).
holds(s_2699_jpg, miscresidential).
holds(s_2699_jpg, countryhouse).
holds(s_2699_jpg, door).
holds(s_2699_jpg, window).
holds(s_2699_jpg, porch).
holds(s_2699_jpg, sign).
holds(s_2699_jpg, tiledroof).
holds(s_2699_jpg, car).

sample(s_2740_jpg).
holds(s_2740_jpg, building).
holds(s_2740_jpg, feature).
holds(s_2740_jpg, miscindustrial).
holds(s_2740_jpg, watertreatment).
holds(s_2740_jpg, door).
holds(s_2740_jpg, window).
holds(s_2740_jpg, sign).
holds(s_2740_jpg, tiledrooftop).
holds(s_2740_jpg, vendingmachine).
holds(s_2740_jpg, machine).

sample(s_2771_jpg).
holds(s_2771_jpg, building).
holds(s_2771_jpg, feature).
holds(s_2771_jpg, suburban).
holds(s_2771_jpg, miscresidential).
holds(s_2771_jpg, commercial).
holds(s_2771_jpg, door).
holds(s_2771_jpg, window).
holds(s_2771_jpg, porch).
holds(s_2771_jpg, sign).
holds(s_2771_jpg, tiledroof).
holds(s_2771_jpg, vendingmachine).
holds(s_2771_jpg, car).

sample(s_15498_jpg).
holds(s_15498_jpg, building).
holds(s_15498_jpg, feature).
holds(s_15498_jpg, hotel).
holds(s_15498_jpg, restaurant).
holds(s_15498_jpg, store).
holds(s_15498_jpg, residential).
holds(s_15498_jpg, commercial).
holds(s_15498_jpg, billboard).
holds(s_15498_jpg, vendingmachine).
holds(s_15498_jpg, chimney).
holds(s_15498_jpg, pipe).
holds(s_15498_jpg, car).

sample(s_2584_jpg).
holds(s_2584_jpg, building).
holds(s_2584_jpg, feature).
holds(s_2584_jpg, constructionsite).
holds(s_2584_jpg, powerplant).
holds(s_2584_jpg, commercial).
holds(s_2584_jpg, door).
holds(s_2584_jpg, awning).
holds(s_2584_jpg, tiledrooftop).
holds(s_2584_jpg, vendingmachine).
holds(s_2584_jpg, chimney).
holds(s_2584_jpg, machine).

sample(s_4377_jpg).
holds(s_4377_jpg, building).
holds(s_4377_jpg, feature).
holds(s_4377_jpg, cafe).
holds(s_4377_jpg, hotel).
holds(s_4377_jpg, restaurant).
holds(s_4377_jpg, misccommercial).
holds(s_4377_jpg, residential).
holds(s_4377_jpg, commercial).
holds(s_4377_jpg, vendingmachine).
holds(s_4377_jpg, chimney).
holds(s_4377_jpg, car).

sample(s_10663_jpg).
holds(s_10663_jpg, building).
holds(s_10663_jpg, feature).
holds(s_10663_jpg, miscindustrial).
holds(s_10663_jpg, powerplant).
holds(s_10663_jpg, watertreatment).
holds(s_10663_jpg, door).
holds(s_10663_jpg, window).
holds(s_10663_jpg, sign).
holds(s_10663_jpg, tiledrooftop).
holds(s_10663_jpg, vendingmachine).
holds(s_10663_jpg, chimney).
holds(s_10663_jpg, machine).

sample(s_14814_jpg).
holds(s_14814_jpg, building).
holds(s_14814_jpg, feature).
holds(s_14814_jpg, cafe).
holds(s_14814_jpg, hotel).
holds(s_14814_jpg, restaurant).
holds(s_14814_jpg, store).
holds(s_14814_jpg, misccommercial).
holds(s_14814_jpg, residential).
holds(s_14814_jpg, commercial).
holds(s_14814_jpg, awning).
holds(s_14814_jpg, vendingmachine).
holds(s_14814_jpg, chimney).
holds(s_14814_jpg, pipe).
holds(s_14814_jpg, car).

sample(s_6527_jpg).
holds(s_6527_jpg, building).
holds(s_6527_jpg, feature).
holds(s_6527_jpg, miscresidential).
holds(s_6527_jpg, countryhouse).
holds(s_6527_jpg, door).
holds(s_6527_jpg, window).
holds(s_6527_jpg, sign).
holds(s_6527_jpg, tiledroof).
holds(s_6527_jpg, chimney).
holds(s_6527_jpg, car).

sample(s_4896_jpg).
holds(s_4896_jpg, building).
holds(s_4896_jpg, feature).
holds(s_4896_jpg, cafe).
holds(s_4896_jpg, hotel).
holds(s_4896_jpg, store).
holds(s_4896_jpg, misccommercial).
holds(s_4896_jpg, commercial).
holds(s_4896_jpg, awning).
holds(s_4896_jpg, vendingmachine).
holds(s_4896_jpg, chimney).
holds(s_4896_jpg, car).

sample(s_4213_jpg).
holds(s_4213_jpg, building).
holds(s_4213_jpg, feature).
holds(s_4213_jpg, miscindustrial).
holds(s_4213_jpg, powerplant).
holds(s_4213_jpg, watertreatment).
holds(s_4213_jpg, door).
holds(s_4213_jpg, window).
holds(s_4213_jpg, sign).
holds(s_4213_jpg, tiledrooftop).
holds(s_4213_jpg, chimney).
holds(s_4213_jpg, machine).

sample(s_1877_jpg).
holds(s_1877_jpg, building).
holds(s_1877_jpg, feature).
holds(s_1877_jpg, suburban).
holds(s_1877_jpg, residential).
holds(s_1877_jpg, commercial).
holds(s_1877_jpg, porch).
holds(s_1877_jpg, sign).
holds(s_1877_jpg, tiledroof).
holds(s_1877_jpg, tiledrooftop).
holds(s_1877_jpg, vendingmachine).

sample(s_6093_jpg).
holds(s_6093_jpg, building).
holds(s_6093_jpg, feature).
holds(s_6093_jpg, cafe).
holds(s_6093_jpg, store).
holds(s_6093_jpg, residential).
holds(s_6093_jpg, commercial).
holds(s_6093_jpg, window).
holds(s_6093_jpg, awning).
holds(s_6093_jpg, vendingmachine).
holds(s_6093_jpg, chimney).
holds(s_6093_jpg, car).

sample(s_10518_jpg).
holds(s_10518_jpg, building).
holds(s_10518_jpg, feature).
holds(s_10518_jpg, cafe).
holds(s_10518_jpg, hotel).
holds(s_10518_jpg, restaurant).
holds(s_10518_jpg, store).
holds(s_10518_jpg, misccommercial).
holds(s_10518_jpg, residential).
holds(s_10518_jpg, commercial).
holds(s_10518_jpg, awning).
holds(s_10518_jpg, vendingmachine).
holds(s_10518_jpg, chimney).
holds(s_10518_jpg, pipe).
holds(s_10518_jpg, car).

sample(s_11386_jpg).
holds(s_11386_jpg, building).
holds(s_11386_jpg, feature).
holds(s_11386_jpg, miscindustrial).
holds(s_11386_jpg, powerplant).
holds(s_11386_jpg, watertreatment).
holds(s_11386_jpg, door).
holds(s_11386_jpg, window).
holds(s_11386_jpg, sign).
holds(s_11386_jpg, tiledrooftop).
holds(s_11386_jpg, chimney).
holds(s_11386_jpg, machine).

sample(s_3627_jpg).
holds(s_3627_jpg, building).
holds(s_3627_jpg, feature).
holds(s_3627_jpg, cafe).
holds(s_3627_jpg, hotel).
holds(s_3627_jpg, store).
holds(s_3627_jpg, misccommercial).
holds(s_3627_jpg, commercial).
holds(s_3627_jpg, awning).
holds(s_3627_jpg, vendingmachine).
holds(s_3627_jpg, chimney).
holds(s_3627_jpg, car).

sample(s_15027_jpg).
holds(s_15027_jpg, building).
holds(s_15027_jpg, feature).
holds(s_15027_jpg, cafe).
holds(s_15027_jpg, restaurant).
holds(s_15027_jpg, store).
holds(s_15027_jpg, residential).
holds(s_15027_jpg, commercial).
holds(s_15027_jpg, awning).
holds(s_15027_jpg, vendingmachine).
holds(s_15027_jpg, chimney).
holds(s_15027_jpg, pipe).
holds(s_15027_jpg, car).

sample(s_7361_jpg).
holds(s_7361_jpg, building).
holds(s_7361_jpg, feature).
holds(s_7361_jpg, miscresidential).
holds(s_7361_jpg, door).
holds(s_7361_jpg, window).
holds(s_7361_jpg, porch).
holds(s_7361_jpg, sign).
holds(s_7361_jpg, tiledroof).
holds(s_7361_jpg, vendingmachine).
holds(s_7361_jpg, chimney).
holds(s_7361_jpg, car).

sample(s_10069_jpg).
holds(s_10069_jpg, building).
holds(s_10069_jpg, feature).
holds(s_10069_jpg, miscindustrial).
holds(s_10069_jpg, powerplant).
holds(s_10069_jpg, watertreatment).
holds(s_10069_jpg, door).
holds(s_10069_jpg, window).
holds(s_10069_jpg, sign).
holds(s_10069_jpg, tiledrooftop).
holds(s_10069_jpg, vendingmachine).
holds(s_10069_jpg, chimney).
holds(s_10069_jpg, machine).

sample(s_12588_jpg).
holds(s_12588_jpg, building).
holds(s_12588_jpg, feature).
holds(s_12588_jpg, cafe).
holds(s_12588_jpg, hotel).
holds(s_12588_jpg, restaurant).
holds(s_12588_jpg, store).
holds(s_12588_jpg, misccommercial).
holds(s_12588_jpg, residential).
holds(s_12588_jpg, commercial).
holds(s_12588_jpg, awning).
holds(s_12588_jpg, vendingmachine).
holds(s_12588_jpg, chimney).
holds(s_12588_jpg, pipe).
holds(s_12588_jpg, car).

sample(s_13245_jpg).
holds(s_13245_jpg, building).
holds(s_13245_jpg, feature).
holds(s_13245_jpg, cafe).
holds(s_13245_jpg, hotel).
holds(s_13245_jpg, restaurant).
holds(s_13245_jpg, misccommercial).
holds(s_13245_jpg, residential).
holds(s_13245_jpg, commercial).
holds(s_13245_jpg, awning).
holds(s_13245_jpg, tiledroof).
holds(s_13245_jpg, vendingmachine).
holds(s_13245_jpg, pipe).
holds(s_13245_jpg, car).

sample(s_600_jpg).
holds(s_600_jpg, building).
holds(s_600_jpg, feature).
holds(s_600_jpg, cafe).
holds(s_600_jpg, hotel).
holds(s_600_jpg, misccommercial).
holds(s_600_jpg, commercial).
holds(s_600_jpg, door).
holds(s_600_jpg, awning).
holds(s_600_jpg, tiledrooftop).
holds(s_600_jpg, vendingmachine).
holds(s_600_jpg, chimney).
holds(s_600_jpg, car).

sample(s_15123_jpg).
holds(s_15123_jpg, building).
holds(s_15123_jpg, feature).
holds(s_15123_jpg, cafe).
holds(s_15123_jpg, hotel).
holds(s_15123_jpg, restaurant).
holds(s_15123_jpg, misccommercial).
holds(s_15123_jpg, residential).
holds(s_15123_jpg, commercial).
holds(s_15123_jpg, awning).
holds(s_15123_jpg, vendingmachine).
holds(s_15123_jpg, chimney).
holds(s_15123_jpg, car).

sample(s_14915_jpg).
holds(s_14915_jpg, building).
holds(s_14915_jpg, feature).
holds(s_14915_jpg, miscresidential).
holds(s_14915_jpg, countryhouse).
holds(s_14915_jpg, door).
holds(s_14915_jpg, window).
holds(s_14915_jpg, porch).
holds(s_14915_jpg, sign).
holds(s_14915_jpg, tiledroof).
holds(s_14915_jpg, chimney).
holds(s_14915_jpg, car).

sample(s_2075_jpg).
holds(s_2075_jpg, building).
holds(s_2075_jpg, feature).
holds(s_2075_jpg, suburban).
holds(s_2075_jpg, miscresidential).
holds(s_2075_jpg, commercial).
holds(s_2075_jpg, door).
holds(s_2075_jpg, window).
holds(s_2075_jpg, porch).
holds(s_2075_jpg, sign).
holds(s_2075_jpg, tiledroof).
holds(s_2075_jpg, vendingmachine).
holds(s_2075_jpg, car).

sample(s_7363_jpg).
holds(s_7363_jpg, building).
holds(s_7363_jpg, feature).
holds(s_7363_jpg, constructionsite).
holds(s_7363_jpg, powerplant).
holds(s_7363_jpg, commercial).
holds(s_7363_jpg, door).
holds(s_7363_jpg, awning).
holds(s_7363_jpg, tiledrooftop).
holds(s_7363_jpg, vendingmachine).
holds(s_7363_jpg, chimney).
holds(s_7363_jpg, machine).

sample(s_13091_jpg).
holds(s_13091_jpg, building).
holds(s_13091_jpg, feature).
holds(s_13091_jpg, suburban).
holds(s_13091_jpg, miscresidential).
holds(s_13091_jpg, countryhouse).
holds(s_13091_jpg, commercial).
holds(s_13091_jpg, door).
holds(s_13091_jpg, window).
holds(s_13091_jpg, porch).
holds(s_13091_jpg, sign).
holds(s_13091_jpg, tiledroof).
holds(s_13091_jpg, vendingmachine).
holds(s_13091_jpg, car).

sample(s_12075_jpg).
holds(s_12075_jpg, building).
holds(s_12075_jpg, feature).
holds(s_12075_jpg, cafe).
holds(s_12075_jpg, hotel).
holds(s_12075_jpg, store).
holds(s_12075_jpg, misccommercial).
holds(s_12075_jpg, residential).
holds(s_12075_jpg, commercial).
holds(s_12075_jpg, awning).
holds(s_12075_jpg, vendingmachine).
holds(s_12075_jpg, chimney).
holds(s_12075_jpg, car).

sample(s_7412_jpg).
holds(s_7412_jpg, building).
holds(s_7412_jpg, feature).
holds(s_7412_jpg, miscresidential).
holds(s_7412_jpg, countryhouse).
holds(s_7412_jpg, door).
holds(s_7412_jpg, window).
holds(s_7412_jpg, porch).
holds(s_7412_jpg, sign).
holds(s_7412_jpg, tiledroof).
holds(s_7412_jpg, chimney).
holds(s_7412_jpg, car).

sample(s_5365_jpg).
holds(s_5365_jpg, building).
holds(s_5365_jpg, feature).
holds(s_5365_jpg, miscindustrial).
holds(s_5365_jpg, watertreatment).
holds(s_5365_jpg, door).
holds(s_5365_jpg, window).
holds(s_5365_jpg, awning).
holds(s_5365_jpg, sign).
holds(s_5365_jpg, tiledrooftop).
holds(s_5365_jpg, vendingmachine).
holds(s_5365_jpg, chimney).
holds(s_5365_jpg, machine).

sample(s_10674_jpg).
holds(s_10674_jpg, building).
holds(s_10674_jpg, feature).
holds(s_10674_jpg, cafe).
holds(s_10674_jpg, hotel).
holds(s_10674_jpg, store).
holds(s_10674_jpg, residential).
holds(s_10674_jpg, commercial).
holds(s_10674_jpg, awning).
holds(s_10674_jpg, vendingmachine).
holds(s_10674_jpg, chimney).
holds(s_10674_jpg, car).

sample(s_10903_jpg).
holds(s_10903_jpg, building).
holds(s_10903_jpg, feature).
holds(s_10903_jpg, constructionsite).
holds(s_10903_jpg, commercial).
holds(s_10903_jpg, door).
holds(s_10903_jpg, awning).
holds(s_10903_jpg, tiledrooftop).
holds(s_10903_jpg, vendingmachine).
holds(s_10903_jpg, chimney).
holds(s_10903_jpg, machine).

sample(s_1585_jpg).
holds(s_1585_jpg, building).
holds(s_1585_jpg, feature).
holds(s_1585_jpg, constructionsite).
holds(s_1585_jpg, powerplant).
holds(s_1585_jpg, commercial).
holds(s_1585_jpg, door).
holds(s_1585_jpg, awning).
holds(s_1585_jpg, tiledrooftop).
holds(s_1585_jpg, vendingmachine).
holds(s_1585_jpg, chimney).
holds(s_1585_jpg, machine).

sample(s_12412_jpg).
holds(s_12412_jpg, building).
holds(s_12412_jpg, feature).
holds(s_12412_jpg, constructionsite).
holds(s_12412_jpg, powerplant).
holds(s_12412_jpg, commercial).
holds(s_12412_jpg, door).
holds(s_12412_jpg, awning).
holds(s_12412_jpg, tiledrooftop).
holds(s_12412_jpg, vendingmachine).
holds(s_12412_jpg, chimney).

sample(s_4659_jpg).
holds(s_4659_jpg, building).
holds(s_4659_jpg, feature).
holds(s_4659_jpg, cafe).
holds(s_4659_jpg, hotel).
holds(s_4659_jpg, misccommercial).
holds(s_4659_jpg, commercial).
holds(s_4659_jpg, door).
holds(s_4659_jpg, awning).
holds(s_4659_jpg, vendingmachine).
holds(s_4659_jpg, chimney).
holds(s_4659_jpg, car).

sample(s_2279_jpg).
holds(s_2279_jpg, building).
holds(s_2279_jpg, feature).
holds(s_2279_jpg, suburban).
holds(s_2279_jpg, miscresidential).
holds(s_2279_jpg, countryhouse).
holds(s_2279_jpg, commercial).
holds(s_2279_jpg, door).
holds(s_2279_jpg, window).
holds(s_2279_jpg, porch).
holds(s_2279_jpg, sign).
holds(s_2279_jpg, tiledroof).
holds(s_2279_jpg, vendingmachine).
holds(s_2279_jpg, car).

sample(s_11154_jpg).
holds(s_11154_jpg, building).
holds(s_11154_jpg, feature).
holds(s_11154_jpg, cafe).
holds(s_11154_jpg, hotel).
holds(s_11154_jpg, store).
holds(s_11154_jpg, misccommercial).
holds(s_11154_jpg, commercial).
holds(s_11154_jpg, awning).
holds(s_11154_jpg, vendingmachine).
holds(s_11154_jpg, chimney).
holds(s_11154_jpg, car).

sample(s_2823_jpg).
holds(s_2823_jpg, building).
holds(s_2823_jpg, feature).
holds(s_2823_jpg, cafe).
holds(s_2823_jpg, hotel).
holds(s_2823_jpg, store).
holds(s_2823_jpg, misccommercial).
holds(s_2823_jpg, commercial).
holds(s_2823_jpg, awning).
holds(s_2823_jpg, vendingmachine).
holds(s_2823_jpg, chimney).
holds(s_2823_jpg, car).

sample(s_1032_jpg).
holds(s_1032_jpg, building).
holds(s_1032_jpg, feature).
holds(s_1032_jpg, cafe).
holds(s_1032_jpg, hotel).
holds(s_1032_jpg, restaurant).
holds(s_1032_jpg, store).
holds(s_1032_jpg, residential).
holds(s_1032_jpg, commercial).
holds(s_1032_jpg, awning).
holds(s_1032_jpg, vendingmachine).
holds(s_1032_jpg, chimney).
holds(s_1032_jpg, pipe).
holds(s_1032_jpg, car).

sample(s_8253_jpg).
holds(s_8253_jpg, building).
holds(s_8253_jpg, feature).
holds(s_8253_jpg, cafe).
holds(s_8253_jpg, hotel).
holds(s_8253_jpg, restaurant).
holds(s_8253_jpg, store).
holds(s_8253_jpg, misccommercial).
holds(s_8253_jpg, residential).
holds(s_8253_jpg, commercial).
holds(s_8253_jpg, tiledrooftop).
holds(s_8253_jpg, vendingmachine).
holds(s_8253_jpg, chimney).
holds(s_8253_jpg, pipe).
holds(s_8253_jpg, car).

sample(s_6399_jpg).
holds(s_6399_jpg, building).
holds(s_6399_jpg, feature).
holds(s_6399_jpg, cafe).
holds(s_6399_jpg, hotel).
holds(s_6399_jpg, store).
holds(s_6399_jpg, misccommercial).
holds(s_6399_jpg, commercial).
holds(s_6399_jpg, window).
holds(s_6399_jpg, awning).
holds(s_6399_jpg, vendingmachine).
holds(s_6399_jpg, chimney).
holds(s_6399_jpg, car).

sample(s_10443_jpg).
holds(s_10443_jpg, building).
holds(s_10443_jpg, feature).
holds(s_10443_jpg, cafe).
holds(s_10443_jpg, store).
holds(s_10443_jpg, misccommercial).
holds(s_10443_jpg, residential).
holds(s_10443_jpg, commercial).
holds(s_10443_jpg, awning).
holds(s_10443_jpg, vendingmachine).
holds(s_10443_jpg, chimney).
holds(s_10443_jpg, car).

sample(s_12436_jpg).
holds(s_12436_jpg, building).
holds(s_12436_jpg, feature).
holds(s_12436_jpg, constructionsite).
holds(s_12436_jpg, commercial).
holds(s_12436_jpg, door).
holds(s_12436_jpg, awning).
holds(s_12436_jpg, tiledrooftop).
holds(s_12436_jpg, vendingmachine).
holds(s_12436_jpg, chimney).
holds(s_12436_jpg, machine).

sample(s_5078_jpg).
holds(s_5078_jpg, building).
holds(s_5078_jpg, feature).
holds(s_5078_jpg, suburban).
holds(s_5078_jpg, commercial).
holds(s_5078_jpg, door).
holds(s_5078_jpg, window).
holds(s_5078_jpg, porch).
holds(s_5078_jpg, sign).
holds(s_5078_jpg, tiledroof).
holds(s_5078_jpg, tiledrooftop).
holds(s_5078_jpg, vendingmachine).

sample(s_493_jpg).
holds(s_493_jpg, building).
holds(s_493_jpg, feature).
holds(s_493_jpg, powerplant).
holds(s_493_jpg, door).
holds(s_493_jpg, window).
holds(s_493_jpg, sign).
holds(s_493_jpg, tiledrooftop).
holds(s_493_jpg, vendingmachine).
holds(s_493_jpg, chimney).
holds(s_493_jpg, machine).

sample(s_12356_jpg).
holds(s_12356_jpg, building).
holds(s_12356_jpg, feature).
holds(s_12356_jpg, suburban).
holds(s_12356_jpg, miscresidential).
holds(s_12356_jpg, commercial).
holds(s_12356_jpg, door).
holds(s_12356_jpg, window).
holds(s_12356_jpg, porch).
holds(s_12356_jpg, sign).
holds(s_12356_jpg, tiledroof).
holds(s_12356_jpg, vendingmachine).
holds(s_12356_jpg, car).

sample(s_582_jpg).
holds(s_582_jpg, building).
holds(s_582_jpg, feature).
holds(s_582_jpg, cafe).
holds(s_582_jpg, hotel).
holds(s_582_jpg, restaurant).
holds(s_582_jpg, store).
holds(s_582_jpg, residential).
holds(s_582_jpg, commercial).
holds(s_582_jpg, awning).
holds(s_582_jpg, vendingmachine).
holds(s_582_jpg, chimney).
holds(s_582_jpg, pipe).
holds(s_582_jpg, car).

sample(s_4918_jpg).
holds(s_4918_jpg, building).
holds(s_4918_jpg, feature).
holds(s_4918_jpg, miscindustrial).
holds(s_4918_jpg, watertreatment).
holds(s_4918_jpg, door).
holds(s_4918_jpg, window).
holds(s_4918_jpg, sign).
holds(s_4918_jpg, tiledrooftop).
holds(s_4918_jpg, vendingmachine).
holds(s_4918_jpg, machine).

sample(s_10980_jpg).
holds(s_10980_jpg, building).
holds(s_10980_jpg, feature).
holds(s_10980_jpg, cafe).
holds(s_10980_jpg, hotel).
holds(s_10980_jpg, residential).
holds(s_10980_jpg, commercial).
holds(s_10980_jpg, awning).
holds(s_10980_jpg, tiledrooftop).
holds(s_10980_jpg, vendingmachine).
holds(s_10980_jpg, chimney).
holds(s_10980_jpg, car).

sample(s_2595_jpg).
holds(s_2595_jpg, building).
holds(s_2595_jpg, feature).
holds(s_2595_jpg, cafe).
holds(s_2595_jpg, hotel).
holds(s_2595_jpg, restaurant).
holds(s_2595_jpg, misccommercial).
holds(s_2595_jpg, residential).
holds(s_2595_jpg, commercial).
holds(s_2595_jpg, awning).
holds(s_2595_jpg, tiledrooftop).
holds(s_2595_jpg, vendingmachine).
holds(s_2595_jpg, chimney).
holds(s_2595_jpg, pipe).
holds(s_2595_jpg, car).

sample(s_4519_jpg).
holds(s_4519_jpg, building).
holds(s_4519_jpg, feature).
holds(s_4519_jpg, miscindustrial).
holds(s_4519_jpg, watertreatment).
holds(s_4519_jpg, door).
holds(s_4519_jpg, window).
holds(s_4519_jpg, awning).
holds(s_4519_jpg, sign).
holds(s_4519_jpg, tiledrooftop).
holds(s_4519_jpg, vendingmachine).
holds(s_4519_jpg, machine).

sample(s_11352_jpg).
holds(s_11352_jpg, building).
holds(s_11352_jpg, feature).
holds(s_11352_jpg, cafe).
holds(s_11352_jpg, hotel).
holds(s_11352_jpg, store).
holds(s_11352_jpg, misccommercial).
holds(s_11352_jpg, residential).
holds(s_11352_jpg, commercial).
holds(s_11352_jpg, awning).
holds(s_11352_jpg, vendingmachine).
holds(s_11352_jpg, chimney).
holds(s_11352_jpg, car).

sample(s_69_jpg).
holds(s_69_jpg, building).
holds(s_69_jpg, feature).
holds(s_69_jpg, cafe).
holds(s_69_jpg, hotel).
holds(s_69_jpg, restaurant).
holds(s_69_jpg, misccommercial).
holds(s_69_jpg, residential).
holds(s_69_jpg, commercial).
holds(s_69_jpg, awning).
holds(s_69_jpg, tiledrooftop).
holds(s_69_jpg, vendingmachine).
holds(s_69_jpg, chimney).
holds(s_69_jpg, pipe).
holds(s_69_jpg, car).

sample(s_3338_jpg).
holds(s_3338_jpg, building).
holds(s_3338_jpg, feature).
holds(s_3338_jpg, miscresidential).
holds(s_3338_jpg, countryhouse).
holds(s_3338_jpg, door).
holds(s_3338_jpg, window).
holds(s_3338_jpg, porch).
holds(s_3338_jpg, sign).
holds(s_3338_jpg, tiledroof).
holds(s_3338_jpg, chimney).
holds(s_3338_jpg, car).

sample(s_6596_jpg).
holds(s_6596_jpg, building).
holds(s_6596_jpg, feature).
holds(s_6596_jpg, suburban).
holds(s_6596_jpg, miscresidential).
holds(s_6596_jpg, countryhouse).
holds(s_6596_jpg, commercial).
holds(s_6596_jpg, door).
holds(s_6596_jpg, window).
holds(s_6596_jpg, porch).
holds(s_6596_jpg, sign).
holds(s_6596_jpg, tiledroof).
holds(s_6596_jpg, vendingmachine).
holds(s_6596_jpg, car).

sample(s_13355_jpg).
holds(s_13355_jpg, building).
holds(s_13355_jpg, feature).
holds(s_13355_jpg, miscresidential).
holds(s_13355_jpg, door).
holds(s_13355_jpg, window).
holds(s_13355_jpg, porch).
holds(s_13355_jpg, sign).
holds(s_13355_jpg, tiledroof).
holds(s_13355_jpg, vendingmachine).
holds(s_13355_jpg, chimney).
holds(s_13355_jpg, car).

sample(s_3877_jpg).
holds(s_3877_jpg, building).
holds(s_3877_jpg, feature).
holds(s_3877_jpg, constructionsite).
holds(s_3877_jpg, commercial).
holds(s_3877_jpg, door).
holds(s_3877_jpg, awning).
holds(s_3877_jpg, tiledrooftop).
holds(s_3877_jpg, vendingmachine).
holds(s_3877_jpg, chimney).
holds(s_3877_jpg, machine).

sample(s_4508_jpg).
holds(s_4508_jpg, building).
holds(s_4508_jpg, feature).
holds(s_4508_jpg, miscresidential).
holds(s_4508_jpg, countryhouse).
holds(s_4508_jpg, door).
holds(s_4508_jpg, window).
holds(s_4508_jpg, sign).
holds(s_4508_jpg, tiledroof).
holds(s_4508_jpg, chimney).
holds(s_4508_jpg, car).

sample(s_4357_jpg).
holds(s_4357_jpg, building).
holds(s_4357_jpg, feature).
holds(s_4357_jpg, miscindustrial).
holds(s_4357_jpg, powerplant).
holds(s_4357_jpg, watertreatment).
holds(s_4357_jpg, door).
holds(s_4357_jpg, window).
holds(s_4357_jpg, sign).
holds(s_4357_jpg, tiledrooftop).
holds(s_4357_jpg, vendingmachine).
holds(s_4357_jpg, chimney).
holds(s_4357_jpg, machine).

sample(s_2702_jpg).
holds(s_2702_jpg, building).
holds(s_2702_jpg, feature).
holds(s_2702_jpg, miscresidential).
holds(s_2702_jpg, countryhouse).
holds(s_2702_jpg, door).
holds(s_2702_jpg, window).
holds(s_2702_jpg, porch).
holds(s_2702_jpg, sign).
holds(s_2702_jpg, tiledroof).
holds(s_2702_jpg, chimney).
holds(s_2702_jpg, car).

sample(s_12718_jpg).
holds(s_12718_jpg, building).
holds(s_12718_jpg, feature).
holds(s_12718_jpg, miscindustrial).
holds(s_12718_jpg, watertreatment).
holds(s_12718_jpg, door).
holds(s_12718_jpg, window).
holds(s_12718_jpg, sign).
holds(s_12718_jpg, tiledrooftop).
holds(s_12718_jpg, vendingmachine).
holds(s_12718_jpg, machine).

sample(s_1660_jpg).
holds(s_1660_jpg, building).
holds(s_1660_jpg, feature).
holds(s_1660_jpg, constructionsite).
holds(s_1660_jpg, commercial).
holds(s_1660_jpg, door).
holds(s_1660_jpg, awning).
holds(s_1660_jpg, tiledrooftop).
holds(s_1660_jpg, vendingmachine).
holds(s_1660_jpg, chimney).
holds(s_1660_jpg, machine).

sample(s_9976_jpg).
holds(s_9976_jpg, building).
holds(s_9976_jpg, feature).
holds(s_9976_jpg, miscindustrial).
holds(s_9976_jpg, watertreatment).
holds(s_9976_jpg, door).
holds(s_9976_jpg, window).
holds(s_9976_jpg, sign).
holds(s_9976_jpg, tiledrooftop).
holds(s_9976_jpg, vendingmachine).
holds(s_9976_jpg, machine).

sample(s_6634_jpg).
holds(s_6634_jpg, building).
holds(s_6634_jpg, feature).
holds(s_6634_jpg, miscindustrial).
holds(s_6634_jpg, watertreatment).
holds(s_6634_jpg, door).
holds(s_6634_jpg, window).
holds(s_6634_jpg, sign).
holds(s_6634_jpg, tiledrooftop).
holds(s_6634_jpg, vendingmachine).
holds(s_6634_jpg, machine).

sample(s_11368_jpg).
holds(s_11368_jpg, building).
holds(s_11368_jpg, feature).
holds(s_11368_jpg, miscindustrial).
holds(s_11368_jpg, watertreatment).
holds(s_11368_jpg, door).
holds(s_11368_jpg, window).
holds(s_11368_jpg, awning).
holds(s_11368_jpg, sign).
holds(s_11368_jpg, tiledrooftop).
holds(s_11368_jpg, vendingmachine).
holds(s_11368_jpg, chimney).
holds(s_11368_jpg, machine).

sample(s_5398_jpg).
holds(s_5398_jpg, building).
holds(s_5398_jpg, feature).
holds(s_5398_jpg, constructionsite).
holds(s_5398_jpg, powerplant).
holds(s_5398_jpg, commercial).
holds(s_5398_jpg, door).
holds(s_5398_jpg, awning).
holds(s_5398_jpg, tiledrooftop).
holds(s_5398_jpg, vendingmachine).
holds(s_5398_jpg, chimney).
holds(s_5398_jpg, machine).

sample(s_7683_jpg).
holds(s_7683_jpg, building).
holds(s_7683_jpg, feature).
holds(s_7683_jpg, cafe).
holds(s_7683_jpg, hotel).
holds(s_7683_jpg, misccommercial).
holds(s_7683_jpg, commercial).
holds(s_7683_jpg, door).
holds(s_7683_jpg, window).
holds(s_7683_jpg, awning).
holds(s_7683_jpg, tiledrooftop).
holds(s_7683_jpg, vendingmachine).
holds(s_7683_jpg, chimney).
holds(s_7683_jpg, car).

sample(s_6647_jpg).
holds(s_6647_jpg, building).
holds(s_6647_jpg, feature).
holds(s_6647_jpg, miscresidential).
holds(s_6647_jpg, countryhouse).
holds(s_6647_jpg, door).
holds(s_6647_jpg, window).
holds(s_6647_jpg, porch).
holds(s_6647_jpg, sign).
holds(s_6647_jpg, tiledroof).
holds(s_6647_jpg, chimney).
holds(s_6647_jpg, car).

sample(s_802_jpg).
holds(s_802_jpg, building).
holds(s_802_jpg, feature).
holds(s_802_jpg, miscindustrial).
holds(s_802_jpg, watertreatment).
holds(s_802_jpg, door).
holds(s_802_jpg, window).
holds(s_802_jpg, awning).
holds(s_802_jpg, sign).
holds(s_802_jpg, tiledrooftop).
holds(s_802_jpg, vendingmachine).
holds(s_802_jpg, machine).

sample(s_9864_jpg).
holds(s_9864_jpg, building).
holds(s_9864_jpg, feature).
holds(s_9864_jpg, cafe).
holds(s_9864_jpg, hotel).
holds(s_9864_jpg, restaurant).
holds(s_9864_jpg, misccommercial).
holds(s_9864_jpg, residential).
holds(s_9864_jpg, commercial).
holds(s_9864_jpg, tiledrooftop).
holds(s_9864_jpg, vendingmachine).
holds(s_9864_jpg, chimney).
holds(s_9864_jpg, pipe).
holds(s_9864_jpg, machine).
holds(s_9864_jpg, car).

sample(s_7626_jpg).
holds(s_7626_jpg, building).
holds(s_7626_jpg, feature).
holds(s_7626_jpg, cafe).
holds(s_7626_jpg, hotel).
holds(s_7626_jpg, misccommercial).
holds(s_7626_jpg, commercial).
holds(s_7626_jpg, awning).
holds(s_7626_jpg, vendingmachine).
holds(s_7626_jpg, chimney).
holds(s_7626_jpg, car).

sample(s_10756_jpg).
holds(s_10756_jpg, building).
holds(s_10756_jpg, feature).
holds(s_10756_jpg, constructionsite).
holds(s_10756_jpg, powerplant).
holds(s_10756_jpg, commercial).
holds(s_10756_jpg, door).
holds(s_10756_jpg, awning).
holds(s_10756_jpg, tiledrooftop).
holds(s_10756_jpg, vendingmachine).
holds(s_10756_jpg, chimney).

sample(s_7516_jpg).
holds(s_7516_jpg, building).
holds(s_7516_jpg, feature).
holds(s_7516_jpg, miscindustrial).
holds(s_7516_jpg, powerplant).
holds(s_7516_jpg, watertreatment).
holds(s_7516_jpg, door).
holds(s_7516_jpg, window).
holds(s_7516_jpg, sign).
holds(s_7516_jpg, tiledrooftop).
holds(s_7516_jpg, vendingmachine).
holds(s_7516_jpg, chimney).
holds(s_7516_jpg, machine).

sample(s_3538_jpg).
holds(s_3538_jpg, building).
holds(s_3538_jpg, feature).
holds(s_3538_jpg, powerplant).
holds(s_3538_jpg, door).
holds(s_3538_jpg, window).
holds(s_3538_jpg, sign).
holds(s_3538_jpg, tiledrooftop).
holds(s_3538_jpg, vendingmachine).
holds(s_3538_jpg, chimney).
holds(s_3538_jpg, machine).

sample(s_2319_jpg).
holds(s_2319_jpg, building).
holds(s_2319_jpg, feature).
holds(s_2319_jpg, cafe).
holds(s_2319_jpg, hotel).
holds(s_2319_jpg, store).
holds(s_2319_jpg, misccommercial).
holds(s_2319_jpg, commercial).
holds(s_2319_jpg, door).
holds(s_2319_jpg, awning).
holds(s_2319_jpg, vendingmachine).
holds(s_2319_jpg, chimney).
holds(s_2319_jpg, car).

sample(s_12341_jpg).
holds(s_12341_jpg, building).
holds(s_12341_jpg, feature).
holds(s_12341_jpg, suburban).
holds(s_12341_jpg, miscresidential).
holds(s_12341_jpg, commercial).
holds(s_12341_jpg, door).
holds(s_12341_jpg, window).
holds(s_12341_jpg, porch).
holds(s_12341_jpg, sign).
holds(s_12341_jpg, tiledroof).
holds(s_12341_jpg, vendingmachine).
holds(s_12341_jpg, car).

sample(s_15563_jpg).
holds(s_15563_jpg, building).
holds(s_15563_jpg, feature).
holds(s_15563_jpg, suburban).
holds(s_15563_jpg, miscresidential).
holds(s_15563_jpg, commercial).
holds(s_15563_jpg, door).
holds(s_15563_jpg, window).
holds(s_15563_jpg, porch).
holds(s_15563_jpg, sign).
holds(s_15563_jpg, tiledroof).
holds(s_15563_jpg, vendingmachine).
holds(s_15563_jpg, car).

sample(s_10248_jpg).
holds(s_10248_jpg, building).
holds(s_10248_jpg, feature).
holds(s_10248_jpg, cafe).
holds(s_10248_jpg, hotel).
holds(s_10248_jpg, store).
holds(s_10248_jpg, misccommercial).
holds(s_10248_jpg, residential).
holds(s_10248_jpg, commercial).
holds(s_10248_jpg, awning).
holds(s_10248_jpg, vendingmachine).
holds(s_10248_jpg, chimney).
holds(s_10248_jpg, car).

sample(s_13216_jpg).
holds(s_13216_jpg, building).
holds(s_13216_jpg, feature).
holds(s_13216_jpg, miscindustrial).
holds(s_13216_jpg, powerplant).
holds(s_13216_jpg, watertreatment).
holds(s_13216_jpg, door).
holds(s_13216_jpg, window).
holds(s_13216_jpg, sign).
holds(s_13216_jpg, tiledrooftop).
holds(s_13216_jpg, chimney).
holds(s_13216_jpg, machine).

sample(s_11562_jpg).
holds(s_11562_jpg, building).
holds(s_11562_jpg, feature).
holds(s_11562_jpg, cafe).
holds(s_11562_jpg, hotel).
holds(s_11562_jpg, misccommercial).
holds(s_11562_jpg, commercial).
holds(s_11562_jpg, door).
holds(s_11562_jpg, awning).
holds(s_11562_jpg, vendingmachine).
holds(s_11562_jpg, chimney).
holds(s_11562_jpg, car).

sample(s_13880_jpg).
holds(s_13880_jpg, building).
holds(s_13880_jpg, feature).
holds(s_13880_jpg, suburban).
holds(s_13880_jpg, residential).
holds(s_13880_jpg, window).
holds(s_13880_jpg, sign).
holds(s_13880_jpg, tiledroof).
holds(s_13880_jpg, tiledrooftop).
holds(s_13880_jpg, vendingmachine).

sample(s_5704_jpg).
holds(s_5704_jpg, building).
holds(s_5704_jpg, feature).
holds(s_5704_jpg, powerplant).
holds(s_5704_jpg, door).
holds(s_5704_jpg, window).
holds(s_5704_jpg, sign).
holds(s_5704_jpg, tiledrooftop).
holds(s_5704_jpg, vendingmachine).
holds(s_5704_jpg, chimney).
holds(s_5704_jpg, machine).

sample(s_2360_jpg).
holds(s_2360_jpg, building).
holds(s_2360_jpg, feature).
holds(s_2360_jpg, suburban).
holds(s_2360_jpg, miscresidential).
holds(s_2360_jpg, commercial).
holds(s_2360_jpg, door).
holds(s_2360_jpg, window).
holds(s_2360_jpg, porch).
holds(s_2360_jpg, sign).
holds(s_2360_jpg, tiledroof).
holds(s_2360_jpg, vendingmachine).
holds(s_2360_jpg, car).

sample(s_11943_jpg).
holds(s_11943_jpg, building).
holds(s_11943_jpg, feature).
holds(s_11943_jpg, cafe).
holds(s_11943_jpg, hotel).
holds(s_11943_jpg, store).
holds(s_11943_jpg, misccommercial).
holds(s_11943_jpg, residential).
holds(s_11943_jpg, commercial).
holds(s_11943_jpg, awning).
holds(s_11943_jpg, vendingmachine).
holds(s_11943_jpg, chimney).
holds(s_11943_jpg, pipe).
holds(s_11943_jpg, car).

sample(s_10377_jpg).
holds(s_10377_jpg, building).
holds(s_10377_jpg, feature).
holds(s_10377_jpg, hotel).
holds(s_10377_jpg, store).
holds(s_10377_jpg, misccommercial).
holds(s_10377_jpg, commercial).
holds(s_10377_jpg, door).
holds(s_10377_jpg, awning).
holds(s_10377_jpg, vendingmachine).
holds(s_10377_jpg, chimney).
holds(s_10377_jpg, car).

sample(s_3891_jpg).
holds(s_3891_jpg, building).
holds(s_3891_jpg, feature).
holds(s_3891_jpg, cafe).
holds(s_3891_jpg, restaurant).
holds(s_3891_jpg, store).
holds(s_3891_jpg, residential).
holds(s_3891_jpg, commercial).
holds(s_3891_jpg, awning).
holds(s_3891_jpg, vendingmachine).
holds(s_3891_jpg, chimney).
holds(s_3891_jpg, pipe).
holds(s_3891_jpg, car).

sample(s_2576_jpg).
holds(s_2576_jpg, building).
holds(s_2576_jpg, feature).
holds(s_2576_jpg, suburban).
holds(s_2576_jpg, commercial).
holds(s_2576_jpg, door).
holds(s_2576_jpg, sign).
holds(s_2576_jpg, tiledroof).
holds(s_2576_jpg, tiledrooftop).
holds(s_2576_jpg, vendingmachine).

sample(s_4135_jpg).
holds(s_4135_jpg, building).
holds(s_4135_jpg, feature).
holds(s_4135_jpg, constructionsite).
holds(s_4135_jpg, powerplant).
holds(s_4135_jpg, commercial).
holds(s_4135_jpg, door).
holds(s_4135_jpg, awning).
holds(s_4135_jpg, tiledrooftop).
holds(s_4135_jpg, vendingmachine).
holds(s_4135_jpg, chimney).
holds(s_4135_jpg, machine).

sample(s_8190_jpg).
holds(s_8190_jpg, building).
holds(s_8190_jpg, feature).
holds(s_8190_jpg, cafe).
holds(s_8190_jpg, hotel).
holds(s_8190_jpg, store).
holds(s_8190_jpg, misccommercial).
holds(s_8190_jpg, residential).
holds(s_8190_jpg, commercial).
holds(s_8190_jpg, awning).
holds(s_8190_jpg, vendingmachine).
holds(s_8190_jpg, chimney).
holds(s_8190_jpg, car).

sample(s_10511_jpg).
holds(s_10511_jpg, building).
holds(s_10511_jpg, feature).
holds(s_10511_jpg, suburban).
holds(s_10511_jpg, commercial).
holds(s_10511_jpg, door).
holds(s_10511_jpg, window).
holds(s_10511_jpg, porch).
holds(s_10511_jpg, sign).
holds(s_10511_jpg, tiledroof).
holds(s_10511_jpg, tiledrooftop).
holds(s_10511_jpg, vendingmachine).

sample(s_8733_jpg).
holds(s_8733_jpg, building).
holds(s_8733_jpg, feature).
holds(s_8733_jpg, cafe).
holds(s_8733_jpg, hotel).
holds(s_8733_jpg, store).
holds(s_8733_jpg, misccommercial).
holds(s_8733_jpg, residential).
holds(s_8733_jpg, commercial).
holds(s_8733_jpg, awning).
holds(s_8733_jpg, vendingmachine).
holds(s_8733_jpg, chimney).
holds(s_8733_jpg, car).

sample(s_6513_jpg).
holds(s_6513_jpg, building).
holds(s_6513_jpg, feature).
holds(s_6513_jpg, cafe).
holds(s_6513_jpg, hotel).
holds(s_6513_jpg, restaurant).
holds(s_6513_jpg, store).
holds(s_6513_jpg, misccommercial).
holds(s_6513_jpg, residential).
holds(s_6513_jpg, commercial).
holds(s_6513_jpg, awning).
holds(s_6513_jpg, vendingmachine).
holds(s_6513_jpg, chimney).
holds(s_6513_jpg, pipe).
holds(s_6513_jpg, car).

sample(s_2410_jpg).
holds(s_2410_jpg, building).
holds(s_2410_jpg, feature).
holds(s_2410_jpg, powerplant).
holds(s_2410_jpg, door).
holds(s_2410_jpg, window).
holds(s_2410_jpg, sign).
holds(s_2410_jpg, tiledrooftop).
holds(s_2410_jpg, chimney).
holds(s_2410_jpg, machine).

sample(s_7992_jpg).
holds(s_7992_jpg, building).
holds(s_7992_jpg, feature).
holds(s_7992_jpg, cafe).
holds(s_7992_jpg, hotel).
holds(s_7992_jpg, store).
holds(s_7992_jpg, misccommercial).
holds(s_7992_jpg, residential).
holds(s_7992_jpg, commercial).
holds(s_7992_jpg, awning).
holds(s_7992_jpg, vendingmachine).
holds(s_7992_jpg, chimney).
holds(s_7992_jpg, pipe).
holds(s_7992_jpg, car).

sample(s_6005_jpg).
holds(s_6005_jpg, building).
holds(s_6005_jpg, feature).
holds(s_6005_jpg, suburban).
holds(s_6005_jpg, commercial).
holds(s_6005_jpg, door).
holds(s_6005_jpg, window).
holds(s_6005_jpg, porch).
holds(s_6005_jpg, sign).
holds(s_6005_jpg, tiledroof).
holds(s_6005_jpg, tiledrooftop).
holds(s_6005_jpg, vendingmachine).

sample(s_7606_jpg).
holds(s_7606_jpg, building).
holds(s_7606_jpg, feature).
holds(s_7606_jpg, miscindustrial).
holds(s_7606_jpg, powerplant).
holds(s_7606_jpg, watertreatment).
holds(s_7606_jpg, door).
holds(s_7606_jpg, window).
holds(s_7606_jpg, sign).
holds(s_7606_jpg, tiledrooftop).
holds(s_7606_jpg, chimney).
holds(s_7606_jpg, machine).

sample(s_2275_jpg).
holds(s_2275_jpg, building).
holds(s_2275_jpg, feature).
holds(s_2275_jpg, miscindustrial).
holds(s_2275_jpg, powerplant).
holds(s_2275_jpg, watertreatment).
holds(s_2275_jpg, door).
holds(s_2275_jpg, window).
holds(s_2275_jpg, sign).
holds(s_2275_jpg, tiledrooftop).
holds(s_2275_jpg, vendingmachine).
holds(s_2275_jpg, chimney).
holds(s_2275_jpg, machine).

sample(s_14990_jpg).
holds(s_14990_jpg, building).
holds(s_14990_jpg, feature).
holds(s_14990_jpg, suburban).
holds(s_14990_jpg, miscresidential).
holds(s_14990_jpg, commercial).
holds(s_14990_jpg, door).
holds(s_14990_jpg, window).
holds(s_14990_jpg, porch).
holds(s_14990_jpg, sign).
holds(s_14990_jpg, tiledroof).
holds(s_14990_jpg, vendingmachine).
holds(s_14990_jpg, car).

sample(s_7305_jpg).
holds(s_7305_jpg, building).
holds(s_7305_jpg, feature).
holds(s_7305_jpg, cafe).
holds(s_7305_jpg, hotel).
holds(s_7305_jpg, misccommercial).
holds(s_7305_jpg, commercial).
holds(s_7305_jpg, door).
holds(s_7305_jpg, awning).
holds(s_7305_jpg, vendingmachine).
holds(s_7305_jpg, chimney).
holds(s_7305_jpg, car).

sample(s_13122_jpg).
holds(s_13122_jpg, building).
holds(s_13122_jpg, feature).
holds(s_13122_jpg, cafe).
holds(s_13122_jpg, hotel).
holds(s_13122_jpg, restaurant).
holds(s_13122_jpg, store).
holds(s_13122_jpg, residential).
holds(s_13122_jpg, commercial).
holds(s_13122_jpg, tiledrooftop).
holds(s_13122_jpg, vendingmachine).
holds(s_13122_jpg, pipe).
holds(s_13122_jpg, car).

sample(s_8811_jpg).
holds(s_8811_jpg, building).
holds(s_8811_jpg, feature).
holds(s_8811_jpg, cafe).
holds(s_8811_jpg, hotel).
holds(s_8811_jpg, store).
holds(s_8811_jpg, misccommercial).
holds(s_8811_jpg, commercial).
holds(s_8811_jpg, door).
holds(s_8811_jpg, awning).
holds(s_8811_jpg, vendingmachine).
holds(s_8811_jpg, chimney).
holds(s_8811_jpg, car).

sample(s_1553_jpg).
holds(s_1553_jpg, building).
holds(s_1553_jpg, feature).
holds(s_1553_jpg, miscresidential).
holds(s_1553_jpg, countryhouse).
holds(s_1553_jpg, door).
holds(s_1553_jpg, window).
holds(s_1553_jpg, porch).
holds(s_1553_jpg, sign).
holds(s_1553_jpg, tiledroof).
holds(s_1553_jpg, chimney).
holds(s_1553_jpg, car).

sample(s_1750_jpg).
holds(s_1750_jpg, building).
holds(s_1750_jpg, feature).
holds(s_1750_jpg, miscindustrial).
holds(s_1750_jpg, powerplant).
holds(s_1750_jpg, watertreatment).
holds(s_1750_jpg, door).
holds(s_1750_jpg, window).
holds(s_1750_jpg, awning).
holds(s_1750_jpg, sign).
holds(s_1750_jpg, tiledrooftop).
holds(s_1750_jpg, vendingmachine).
holds(s_1750_jpg, chimney).
holds(s_1750_jpg, machine).

sample(s_8055_jpg).
holds(s_8055_jpg, building).
holds(s_8055_jpg, feature).
holds(s_8055_jpg, cafe).
holds(s_8055_jpg, hotel).
holds(s_8055_jpg, store).
holds(s_8055_jpg, misccommercial).
holds(s_8055_jpg, commercial).
holds(s_8055_jpg, awning).
holds(s_8055_jpg, vendingmachine).
holds(s_8055_jpg, chimney).
holds(s_8055_jpg, car).

sample(s_4032_jpg).
holds(s_4032_jpg, building).
holds(s_4032_jpg, feature).
holds(s_4032_jpg, cafe).
holds(s_4032_jpg, hotel).
holds(s_4032_jpg, restaurant).
holds(s_4032_jpg, residential).
holds(s_4032_jpg, commercial).
holds(s_4032_jpg, tiledrooftop).
holds(s_4032_jpg, vendingmachine).
holds(s_4032_jpg, pipe).
holds(s_4032_jpg, car).

sample(s_10868_jpg).
holds(s_10868_jpg, building).
holds(s_10868_jpg, feature).
holds(s_10868_jpg, suburban).
holds(s_10868_jpg, miscresidential).
holds(s_10868_jpg, commercial).
holds(s_10868_jpg, door).
holds(s_10868_jpg, window).
holds(s_10868_jpg, porch).
holds(s_10868_jpg, sign).
holds(s_10868_jpg, tiledroof).
holds(s_10868_jpg, vendingmachine).
holds(s_10868_jpg, car).

sample(s_7964_jpg).
holds(s_7964_jpg, building).
holds(s_7964_jpg, feature).
holds(s_7964_jpg, miscresidential).
holds(s_7964_jpg, door).
holds(s_7964_jpg, window).
holds(s_7964_jpg, awning).
holds(s_7964_jpg, porch).
holds(s_7964_jpg, sign).
holds(s_7964_jpg, tiledroof).
holds(s_7964_jpg, vendingmachine).
holds(s_7964_jpg, chimney).
holds(s_7964_jpg, car).

sample(s_1741_jpg).
holds(s_1741_jpg, building).
holds(s_1741_jpg, feature).
holds(s_1741_jpg, miscindustrial).
holds(s_1741_jpg, powerplant).
holds(s_1741_jpg, watertreatment).
holds(s_1741_jpg, door).
holds(s_1741_jpg, window).
holds(s_1741_jpg, sign).
holds(s_1741_jpg, tiledrooftop).
holds(s_1741_jpg, chimney).
holds(s_1741_jpg, machine).

sample(s_1898_jpg).
holds(s_1898_jpg, building).
holds(s_1898_jpg, feature).
holds(s_1898_jpg, suburban).
holds(s_1898_jpg, commercial).
holds(s_1898_jpg, door).
holds(s_1898_jpg, window).
holds(s_1898_jpg, porch).
holds(s_1898_jpg, sign).
holds(s_1898_jpg, tiledroof).
holds(s_1898_jpg, tiledrooftop).
holds(s_1898_jpg, vendingmachine).

sample(s_1500_jpg).
holds(s_1500_jpg, building).
holds(s_1500_jpg, feature).
holds(s_1500_jpg, cafe).
holds(s_1500_jpg, hotel).
holds(s_1500_jpg, restaurant).
holds(s_1500_jpg, store).
holds(s_1500_jpg, residential).
holds(s_1500_jpg, commercial).
holds(s_1500_jpg, awning).
holds(s_1500_jpg, vendingmachine).
holds(s_1500_jpg, chimney).
holds(s_1500_jpg, pipe).
holds(s_1500_jpg, car).

sample(s_7961_jpg).
holds(s_7961_jpg, building).
holds(s_7961_jpg, feature).
holds(s_7961_jpg, suburban).
holds(s_7961_jpg, miscresidential).
holds(s_7961_jpg, countryhouse).
holds(s_7961_jpg, commercial).
holds(s_7961_jpg, door).
holds(s_7961_jpg, window).
holds(s_7961_jpg, porch).
holds(s_7961_jpg, sign).
holds(s_7961_jpg, tiledroof).
holds(s_7961_jpg, vendingmachine).
holds(s_7961_jpg, car).

sample(s_7860_jpg).
holds(s_7860_jpg, building).
holds(s_7860_jpg, feature).
holds(s_7860_jpg, cafe).
holds(s_7860_jpg, hotel).
holds(s_7860_jpg, restaurant).
holds(s_7860_jpg, store).
holds(s_7860_jpg, misccommercial).
holds(s_7860_jpg, residential).
holds(s_7860_jpg, commercial).
holds(s_7860_jpg, awning).
holds(s_7860_jpg, vendingmachine).
holds(s_7860_jpg, chimney).
holds(s_7860_jpg, pipe).
holds(s_7860_jpg, car).

sample(s_4880_jpg).
holds(s_4880_jpg, building).
holds(s_4880_jpg, feature).
holds(s_4880_jpg, miscresidential).
holds(s_4880_jpg, countryhouse).
holds(s_4880_jpg, door).
holds(s_4880_jpg, window).
holds(s_4880_jpg, porch).
holds(s_4880_jpg, sign).
holds(s_4880_jpg, tiledroof).
holds(s_4880_jpg, chimney).
holds(s_4880_jpg, car).

sample(s_14945_jpg).
holds(s_14945_jpg, building).
holds(s_14945_jpg, feature).
holds(s_14945_jpg, suburban).
holds(s_14945_jpg, miscresidential).
holds(s_14945_jpg, commercial).
holds(s_14945_jpg, door).
holds(s_14945_jpg, window).
holds(s_14945_jpg, porch).
holds(s_14945_jpg, sign).
holds(s_14945_jpg, tiledroof).
holds(s_14945_jpg, vendingmachine).
holds(s_14945_jpg, car).

sample(s_2726_jpg).
holds(s_2726_jpg, building).
holds(s_2726_jpg, feature).
holds(s_2726_jpg, suburban).
holds(s_2726_jpg, miscresidential).
holds(s_2726_jpg, countryhouse).
holds(s_2726_jpg, door).
holds(s_2726_jpg, window).
holds(s_2726_jpg, porch).
holds(s_2726_jpg, sign).
holds(s_2726_jpg, tiledroof).
holds(s_2726_jpg, car).

sample(s_2724_jpg).
holds(s_2724_jpg, building).
holds(s_2724_jpg, feature).
holds(s_2724_jpg, hotel).
holds(s_2724_jpg, misccommercial).
holds(s_2724_jpg, commercial).
holds(s_2724_jpg, door).
holds(s_2724_jpg, awning).
holds(s_2724_jpg, tiledrooftop).
holds(s_2724_jpg, vendingmachine).
holds(s_2724_jpg, chimney).
holds(s_2724_jpg, car).

sample(s_9377_jpg).
holds(s_9377_jpg, building).
holds(s_9377_jpg, feature).
holds(s_9377_jpg, suburban).
holds(s_9377_jpg, commercial).
holds(s_9377_jpg, door).
holds(s_9377_jpg, window).
holds(s_9377_jpg, porch).
holds(s_9377_jpg, sign).
holds(s_9377_jpg, tiledroof).
holds(s_9377_jpg, tiledrooftop).
holds(s_9377_jpg, vendingmachine).

sample(s_15749_jpg).
holds(s_15749_jpg, building).
holds(s_15749_jpg, feature).
holds(s_15749_jpg, miscresidential).
holds(s_15749_jpg, commercial).
holds(s_15749_jpg, door).
holds(s_15749_jpg, window).
holds(s_15749_jpg, awning).
holds(s_15749_jpg, porch).
holds(s_15749_jpg, sign).
holds(s_15749_jpg, tiledroof).
holds(s_15749_jpg, vendingmachine).
holds(s_15749_jpg, chimney).
holds(s_15749_jpg, car).

sample(s_7170_jpg).
holds(s_7170_jpg, building).
holds(s_7170_jpg, feature).
holds(s_7170_jpg, cafe).
holds(s_7170_jpg, hotel).
holds(s_7170_jpg, restaurant).
holds(s_7170_jpg, residential).
holds(s_7170_jpg, commercial).
holds(s_7170_jpg, tiledrooftop).
holds(s_7170_jpg, vendingmachine).
holds(s_7170_jpg, chimney).
holds(s_7170_jpg, pipe).
holds(s_7170_jpg, car).

sample(s_2737_jpg).
holds(s_2737_jpg, building).
holds(s_2737_jpg, feature).
holds(s_2737_jpg, constructionsite).
holds(s_2737_jpg, powerplant).
holds(s_2737_jpg, commercial).
holds(s_2737_jpg, door).
holds(s_2737_jpg, window).
holds(s_2737_jpg, awning).
holds(s_2737_jpg, tiledrooftop).
holds(s_2737_jpg, vendingmachine).
holds(s_2737_jpg, chimney).
holds(s_2737_jpg, machine).

sample(s_830_jpg).
holds(s_830_jpg, building).
holds(s_830_jpg, feature).
holds(s_830_jpg, suburban).
holds(s_830_jpg, miscresidential).
holds(s_830_jpg, commercial).
holds(s_830_jpg, door).
holds(s_830_jpg, window).
holds(s_830_jpg, porch).
holds(s_830_jpg, sign).
holds(s_830_jpg, tiledroof).
holds(s_830_jpg, vendingmachine).
holds(s_830_jpg, car).

sample(s_1110_jpg).
holds(s_1110_jpg, building).
holds(s_1110_jpg, feature).
holds(s_1110_jpg, cafe).
holds(s_1110_jpg, hotel).
holds(s_1110_jpg, store).
holds(s_1110_jpg, misccommercial).
holds(s_1110_jpg, residential).
holds(s_1110_jpg, commercial).
holds(s_1110_jpg, awning).
holds(s_1110_jpg, vendingmachine).
holds(s_1110_jpg, chimney).
holds(s_1110_jpg, pipe).
holds(s_1110_jpg, car).

sample(s_11148_jpg).
holds(s_11148_jpg, building).
holds(s_11148_jpg, feature).
holds(s_11148_jpg, cafe).
holds(s_11148_jpg, hotel).
holds(s_11148_jpg, restaurant).
holds(s_11148_jpg, misccommercial).
holds(s_11148_jpg, residential).
holds(s_11148_jpg, commercial).
holds(s_11148_jpg, awning).
holds(s_11148_jpg, tiledrooftop).
holds(s_11148_jpg, vendingmachine).
holds(s_11148_jpg, chimney).
holds(s_11148_jpg, pipe).
holds(s_11148_jpg, car).

sample(s_12821_jpg).
holds(s_12821_jpg, building).
holds(s_12821_jpg, feature).
holds(s_12821_jpg, suburban).
holds(s_12821_jpg, miscresidential).
holds(s_12821_jpg, commercial).
holds(s_12821_jpg, door).
holds(s_12821_jpg, window).
holds(s_12821_jpg, porch).
holds(s_12821_jpg, sign).
holds(s_12821_jpg, tiledroof).
holds(s_12821_jpg, vendingmachine).
holds(s_12821_jpg, car).

sample(s_5002_jpg).
holds(s_5002_jpg, building).
holds(s_5002_jpg, feature).
holds(s_5002_jpg, miscindustrial).
holds(s_5002_jpg, watertreatment).
holds(s_5002_jpg, door).
holds(s_5002_jpg, window).
holds(s_5002_jpg, awning).
holds(s_5002_jpg, sign).
holds(s_5002_jpg, tiledrooftop).
holds(s_5002_jpg, vendingmachine).
holds(s_5002_jpg, machine).

sample(s_4107_jpg).
holds(s_4107_jpg, building).
holds(s_4107_jpg, feature).
holds(s_4107_jpg, cafe).
holds(s_4107_jpg, hotel).
holds(s_4107_jpg, restaurant).
holds(s_4107_jpg, store).
holds(s_4107_jpg, misccommercial).
holds(s_4107_jpg, commercial).
holds(s_4107_jpg, awning).
holds(s_4107_jpg, vendingmachine).
holds(s_4107_jpg, chimney).
holds(s_4107_jpg, pipe).
holds(s_4107_jpg, car).

sample(s_5825_jpg).
holds(s_5825_jpg, building).
holds(s_5825_jpg, feature).
holds(s_5825_jpg, suburban).
holds(s_5825_jpg, miscresidential).
holds(s_5825_jpg, commercial).
holds(s_5825_jpg, door).
holds(s_5825_jpg, window).
holds(s_5825_jpg, porch).
holds(s_5825_jpg, sign).
holds(s_5825_jpg, tiledroof).
holds(s_5825_jpg, vendingmachine).
holds(s_5825_jpg, car).

sample(s_13331_jpg).
holds(s_13331_jpg, building).
holds(s_13331_jpg, feature).
holds(s_13331_jpg, miscresidential).
holds(s_13331_jpg, countryhouse).
holds(s_13331_jpg, door).
holds(s_13331_jpg, window).
holds(s_13331_jpg, porch).
holds(s_13331_jpg, sign).
holds(s_13331_jpg, tiledroof).
holds(s_13331_jpg, chimney).
holds(s_13331_jpg, car).

sample(s_11399_jpg).
holds(s_11399_jpg, building).
holds(s_11399_jpg, feature).
holds(s_11399_jpg, suburban).
holds(s_11399_jpg, miscresidential).
holds(s_11399_jpg, countryhouse).
holds(s_11399_jpg, commercial).
holds(s_11399_jpg, door).
holds(s_11399_jpg, window).
holds(s_11399_jpg, porch).
holds(s_11399_jpg, sign).
holds(s_11399_jpg, tiledroof).
holds(s_11399_jpg, vendingmachine).
holds(s_11399_jpg, car).

sample(s_8789_jpg).
holds(s_8789_jpg, building).
holds(s_8789_jpg, feature).
holds(s_8789_jpg, suburban).
holds(s_8789_jpg, commercial).
holds(s_8789_jpg, door).
holds(s_8789_jpg, window).
holds(s_8789_jpg, porch).
holds(s_8789_jpg, sign).
holds(s_8789_jpg, tiledroof).
holds(s_8789_jpg, tiledrooftop).
holds(s_8789_jpg, vendingmachine).

sample(s_10683_jpg).
holds(s_10683_jpg, building).
holds(s_10683_jpg, feature).
holds(s_10683_jpg, hotel).
holds(s_10683_jpg, store).
holds(s_10683_jpg, commercial).
holds(s_10683_jpg, door).
holds(s_10683_jpg, awning).
holds(s_10683_jpg, vendingmachine).
holds(s_10683_jpg, chimney).
holds(s_10683_jpg, car).

sample(s_7543_jpg).
holds(s_7543_jpg, building).
holds(s_7543_jpg, feature).
holds(s_7543_jpg, miscindustrial).
holds(s_7543_jpg, watertreatment).
holds(s_7543_jpg, door).
holds(s_7543_jpg, window).
holds(s_7543_jpg, sign).
holds(s_7543_jpg, tiledrooftop).
holds(s_7543_jpg, vendingmachine).
holds(s_7543_jpg, chimney).
holds(s_7543_jpg, machine).

sample(s_5153_jpg).
holds(s_5153_jpg, building).
holds(s_5153_jpg, feature).
holds(s_5153_jpg, suburban).
holds(s_5153_jpg, miscresidential).
holds(s_5153_jpg, countryhouse).
holds(s_5153_jpg, commercial).
holds(s_5153_jpg, door).
holds(s_5153_jpg, window).
holds(s_5153_jpg, porch).
holds(s_5153_jpg, sign).
holds(s_5153_jpg, tiledroof).
holds(s_5153_jpg, car).

sample(s_7146_jpg).
holds(s_7146_jpg, building).
holds(s_7146_jpg, feature).
holds(s_7146_jpg, cafe).
holds(s_7146_jpg, hotel).
holds(s_7146_jpg, restaurant).
holds(s_7146_jpg, residential).
holds(s_7146_jpg, commercial).
holds(s_7146_jpg, tiledrooftop).
holds(s_7146_jpg, vendingmachine).
holds(s_7146_jpg, pipe).
holds(s_7146_jpg, car).

sample(s_6478_jpg).
holds(s_6478_jpg, building).
holds(s_6478_jpg, feature).
holds(s_6478_jpg, miscindustrial).
holds(s_6478_jpg, watertreatment).
holds(s_6478_jpg, door).
holds(s_6478_jpg, window).
holds(s_6478_jpg, sign).
holds(s_6478_jpg, tiledrooftop).
holds(s_6478_jpg, vendingmachine).
holds(s_6478_jpg, machine).

sample(s_9478_jpg).
holds(s_9478_jpg, building).
holds(s_9478_jpg, feature).
holds(s_9478_jpg, constructionsite).
holds(s_9478_jpg, commercial).
holds(s_9478_jpg, door).
holds(s_9478_jpg, awning).
holds(s_9478_jpg, tiledrooftop).
holds(s_9478_jpg, vendingmachine).
holds(s_9478_jpg, chimney).
holds(s_9478_jpg, machine).

sample(s_11895_jpg).
holds(s_11895_jpg, building).
holds(s_11895_jpg, feature).
holds(s_11895_jpg, hotel).
holds(s_11895_jpg, misccommercial).
holds(s_11895_jpg, commercial).
holds(s_11895_jpg, door).
holds(s_11895_jpg, awning).
holds(s_11895_jpg, tiledrooftop).
holds(s_11895_jpg, vendingmachine).
holds(s_11895_jpg, chimney).
holds(s_11895_jpg, car).

sample(s_15289_jpg).
holds(s_15289_jpg, building).
holds(s_15289_jpg, feature).
holds(s_15289_jpg, powerplant).
holds(s_15289_jpg, door).
holds(s_15289_jpg, window).
holds(s_15289_jpg, sign).
holds(s_15289_jpg, tiledrooftop).
holds(s_15289_jpg, vendingmachine).
holds(s_15289_jpg, chimney).
holds(s_15289_jpg, machine).

sample(s_5600_jpg).
holds(s_5600_jpg, building).
holds(s_5600_jpg, feature).
holds(s_5600_jpg, miscresidential).
holds(s_5600_jpg, countryhouse).
holds(s_5600_jpg, door).
holds(s_5600_jpg, window).
holds(s_5600_jpg, porch).
holds(s_5600_jpg, sign).
holds(s_5600_jpg, tiledroof).
holds(s_5600_jpg, chimney).
holds(s_5600_jpg, car).

sample(s_10658_jpg).
holds(s_10658_jpg, building).
holds(s_10658_jpg, feature).
holds(s_10658_jpg, suburban).
holds(s_10658_jpg, commercial).
holds(s_10658_jpg, door).
holds(s_10658_jpg, window).
holds(s_10658_jpg, porch).
holds(s_10658_jpg, sign).
holds(s_10658_jpg, tiledroof).
holds(s_10658_jpg, tiledrooftop).
holds(s_10658_jpg, vendingmachine).

sample(s_8329_jpg).
holds(s_8329_jpg, building).
holds(s_8329_jpg, feature).
holds(s_8329_jpg, constructionsite).
holds(s_8329_jpg, commercial).
holds(s_8329_jpg, door).
holds(s_8329_jpg, awning).
holds(s_8329_jpg, tiledrooftop).
holds(s_8329_jpg, vendingmachine).
holds(s_8329_jpg, chimney).
holds(s_8329_jpg, machine).

sample(s_11927_jpg).
holds(s_11927_jpg, building).
holds(s_11927_jpg, feature).
holds(s_11927_jpg, suburban).
holds(s_11927_jpg, miscresidential).
holds(s_11927_jpg, commercial).
holds(s_11927_jpg, door).
holds(s_11927_jpg, window).
holds(s_11927_jpg, porch).
holds(s_11927_jpg, sign).
holds(s_11927_jpg, tiledroof).
holds(s_11927_jpg, vendingmachine).
holds(s_11927_jpg, car).

sample(s_2736_jpg).
holds(s_2736_jpg, building).
holds(s_2736_jpg, feature).
holds(s_2736_jpg, cafe).
holds(s_2736_jpg, hotel).
holds(s_2736_jpg, restaurant).
holds(s_2736_jpg, store).
holds(s_2736_jpg, residential).
holds(s_2736_jpg, commercial).
holds(s_2736_jpg, vendingmachine).
holds(s_2736_jpg, chimney).
holds(s_2736_jpg, pipe).
holds(s_2736_jpg, car).

sample(s_8011_jpg).
holds(s_8011_jpg, building).
holds(s_8011_jpg, feature).
holds(s_8011_jpg, constructionsite).
holds(s_8011_jpg, commercial).
holds(s_8011_jpg, door).
holds(s_8011_jpg, awning).
holds(s_8011_jpg, tiledrooftop).
holds(s_8011_jpg, vendingmachine).
holds(s_8011_jpg, chimney).
holds(s_8011_jpg, machine).

sample(s_4563_jpg).
holds(s_4563_jpg, building).
holds(s_4563_jpg, feature).
holds(s_4563_jpg, cafe).
holds(s_4563_jpg, restaurant).
holds(s_4563_jpg, store).
holds(s_4563_jpg, misccommercial).
holds(s_4563_jpg, residential).
holds(s_4563_jpg, commercial).
holds(s_4563_jpg, awning).
holds(s_4563_jpg, vendingmachine).
holds(s_4563_jpg, chimney).
holds(s_4563_jpg, pipe).
holds(s_4563_jpg, car).

sample(s_7758_jpg).
holds(s_7758_jpg, building).
holds(s_7758_jpg, feature).
holds(s_7758_jpg, cafe).
holds(s_7758_jpg, hotel).
holds(s_7758_jpg, store).
holds(s_7758_jpg, misccommercial).
holds(s_7758_jpg, residential).
holds(s_7758_jpg, commercial).
holds(s_7758_jpg, awning).
holds(s_7758_jpg, vendingmachine).
holds(s_7758_jpg, chimney).
holds(s_7758_jpg, pipe).
holds(s_7758_jpg, car).

sample(s_11359_jpg).
holds(s_11359_jpg, building).
holds(s_11359_jpg, feature).
holds(s_11359_jpg, miscindustrial).
holds(s_11359_jpg, watertreatment).
holds(s_11359_jpg, door).
holds(s_11359_jpg, window).
holds(s_11359_jpg, sign).
holds(s_11359_jpg, tiledrooftop).
holds(s_11359_jpg, vendingmachine).
holds(s_11359_jpg, machine).

sample(s_1489_jpg).
holds(s_1489_jpg, building).
holds(s_1489_jpg, feature).
holds(s_1489_jpg, miscindustrial).
holds(s_1489_jpg, powerplant).
holds(s_1489_jpg, watertreatment).
holds(s_1489_jpg, door).
holds(s_1489_jpg, window).
holds(s_1489_jpg, sign).
holds(s_1489_jpg, tiledrooftop).
holds(s_1489_jpg, chimney).
holds(s_1489_jpg, machine).

sample(s_15974_jpg).
holds(s_15974_jpg, building).
holds(s_15974_jpg, feature).
holds(s_15974_jpg, miscresidential).
holds(s_15974_jpg, commercial).
holds(s_15974_jpg, door).
holds(s_15974_jpg, window).
holds(s_15974_jpg, awning).
holds(s_15974_jpg, porch).
holds(s_15974_jpg, sign).
holds(s_15974_jpg, tiledroof).
holds(s_15974_jpg, vendingmachine).
holds(s_15974_jpg, chimney).
holds(s_15974_jpg, car).

sample(s_7749_jpg).
holds(s_7749_jpg, building).
holds(s_7749_jpg, feature).
holds(s_7749_jpg, cafe).
holds(s_7749_jpg, hotel).
holds(s_7749_jpg, misccommercial).
holds(s_7749_jpg, residential).
holds(s_7749_jpg, commercial).
holds(s_7749_jpg, awning).
holds(s_7749_jpg, tiledrooftop).
holds(s_7749_jpg, vendingmachine).
holds(s_7749_jpg, car).

sample(s_2694_jpg).
holds(s_2694_jpg, building).
holds(s_2694_jpg, feature).
holds(s_2694_jpg, store).
holds(s_2694_jpg, misccommercial).
holds(s_2694_jpg, residential).
holds(s_2694_jpg, commercial).
holds(s_2694_jpg, door).
holds(s_2694_jpg, awning).
holds(s_2694_jpg, vendingmachine).
holds(s_2694_jpg, chimney).
holds(s_2694_jpg, pipe).
holds(s_2694_jpg, car).

sample(s_1160_jpg).
holds(s_1160_jpg, building).
holds(s_1160_jpg, feature).
holds(s_1160_jpg, suburban).
holds(s_1160_jpg, miscresidential).
holds(s_1160_jpg, commercial).
holds(s_1160_jpg, door).
holds(s_1160_jpg, window).
holds(s_1160_jpg, porch).
holds(s_1160_jpg, sign).
holds(s_1160_jpg, tiledroof).
holds(s_1160_jpg, vendingmachine).
holds(s_1160_jpg, car).

sample(s_1957_jpg).
holds(s_1957_jpg, building).
holds(s_1957_jpg, feature).
holds(s_1957_jpg, miscindustrial).
holds(s_1957_jpg, powerplant).
holds(s_1957_jpg, watertreatment).
holds(s_1957_jpg, door).
holds(s_1957_jpg, window).
holds(s_1957_jpg, awning).
holds(s_1957_jpg, sign).
holds(s_1957_jpg, tiledrooftop).
holds(s_1957_jpg, vendingmachine).
holds(s_1957_jpg, chimney).
holds(s_1957_jpg, machine).

sample(s_7709_jpg).
holds(s_7709_jpg, building).
holds(s_7709_jpg, feature).
holds(s_7709_jpg, suburban).
holds(s_7709_jpg, commercial).
holds(s_7709_jpg, door).
holds(s_7709_jpg, window).
holds(s_7709_jpg, porch).
holds(s_7709_jpg, sign).
holds(s_7709_jpg, tiledroof).
holds(s_7709_jpg, tiledrooftop).
holds(s_7709_jpg, vendingmachine).

sample(s_8716_jpg).
holds(s_8716_jpg, building).
holds(s_8716_jpg, feature).
holds(s_8716_jpg, miscindustrial).
holds(s_8716_jpg, watertreatment).
holds(s_8716_jpg, door).
holds(s_8716_jpg, window).
holds(s_8716_jpg, sign).
holds(s_8716_jpg, tiledrooftop).
holds(s_8716_jpg, vendingmachine).
holds(s_8716_jpg, machine).

sample(s_10009_jpg).
holds(s_10009_jpg, building).
holds(s_10009_jpg, feature).
holds(s_10009_jpg, miscindustrial).
holds(s_10009_jpg, watertreatment).
holds(s_10009_jpg, door).
holds(s_10009_jpg, window).
holds(s_10009_jpg, sign).
holds(s_10009_jpg, tiledrooftop).
holds(s_10009_jpg, vendingmachine).
holds(s_10009_jpg, machine).

sample(s_5993_jpg).
holds(s_5993_jpg, building).
holds(s_5993_jpg, feature).
holds(s_5993_jpg, miscresidential).
holds(s_5993_jpg, countryhouse).
holds(s_5993_jpg, door).
holds(s_5993_jpg, window).
holds(s_5993_jpg, sign).
holds(s_5993_jpg, tiledroof).
holds(s_5993_jpg, chimney).
holds(s_5993_jpg, car).

sample(s_12233_jpg).
holds(s_12233_jpg, building).
holds(s_12233_jpg, feature).
holds(s_12233_jpg, miscresidential).
holds(s_12233_jpg, countryhouse).
holds(s_12233_jpg, door).
holds(s_12233_jpg, window).
holds(s_12233_jpg, sign).
holds(s_12233_jpg, tiledroof).
holds(s_12233_jpg, chimney).
holds(s_12233_jpg, car).

sample(s_1632_jpg).
holds(s_1632_jpg, building).
holds(s_1632_jpg, feature).
holds(s_1632_jpg, cafe).
holds(s_1632_jpg, hotel).
holds(s_1632_jpg, misccommercial).
holds(s_1632_jpg, commercial).
holds(s_1632_jpg, door).
holds(s_1632_jpg, awning).
holds(s_1632_jpg, tiledrooftop).
holds(s_1632_jpg, vendingmachine).
holds(s_1632_jpg, chimney).
holds(s_1632_jpg, car).

sample(s_11923_jpg).
holds(s_11923_jpg, building).
holds(s_11923_jpg, feature).
holds(s_11923_jpg, constructionsite).
holds(s_11923_jpg, powerplant).
holds(s_11923_jpg, commercial).
holds(s_11923_jpg, door).
holds(s_11923_jpg, awning).
holds(s_11923_jpg, tiledrooftop).
holds(s_11923_jpg, vendingmachine).
holds(s_11923_jpg, chimney).
holds(s_11923_jpg, machine).

sample(s_11620_jpg).
holds(s_11620_jpg, building).
holds(s_11620_jpg, feature).
holds(s_11620_jpg, constructionsite).
holds(s_11620_jpg, powerplant).
holds(s_11620_jpg, commercial).
holds(s_11620_jpg, door).
holds(s_11620_jpg, awning).
holds(s_11620_jpg, tiledrooftop).
holds(s_11620_jpg, vendingmachine).
holds(s_11620_jpg, chimney).
holds(s_11620_jpg, machine).

sample(s_12258_jpg).
holds(s_12258_jpg, building).
holds(s_12258_jpg, feature).
holds(s_12258_jpg, cafe).
holds(s_12258_jpg, hotel).
holds(s_12258_jpg, store).
holds(s_12258_jpg, misccommercial).
holds(s_12258_jpg, residential).
holds(s_12258_jpg, commercial).
holds(s_12258_jpg, awning).
holds(s_12258_jpg, vendingmachine).
holds(s_12258_jpg, chimney).
holds(s_12258_jpg, car).

sample(s_1810_jpg).
holds(s_1810_jpg, building).
holds(s_1810_jpg, feature).
holds(s_1810_jpg, miscindustrial).
holds(s_1810_jpg, powerplant).
holds(s_1810_jpg, watertreatment).
holds(s_1810_jpg, door).
holds(s_1810_jpg, window).
holds(s_1810_jpg, sign).
holds(s_1810_jpg, tiledrooftop).
holds(s_1810_jpg, vendingmachine).
holds(s_1810_jpg, chimney).
holds(s_1810_jpg, machine).

sample(s_8003_jpg).
holds(s_8003_jpg, building).
holds(s_8003_jpg, feature).
holds(s_8003_jpg, suburban).
holds(s_8003_jpg, commercial).
holds(s_8003_jpg, door).
holds(s_8003_jpg, window).
holds(s_8003_jpg, porch).
holds(s_8003_jpg, sign).
holds(s_8003_jpg, tiledroof).
holds(s_8003_jpg, tiledrooftop).
holds(s_8003_jpg, vendingmachine).

sample(s_9647_jpg).
holds(s_9647_jpg, building).
holds(s_9647_jpg, feature).
holds(s_9647_jpg, suburban).
holds(s_9647_jpg, miscresidential).
holds(s_9647_jpg, commercial).
holds(s_9647_jpg, door).
holds(s_9647_jpg, window).
holds(s_9647_jpg, porch).
holds(s_9647_jpg, sign).
holds(s_9647_jpg, tiledroof).
holds(s_9647_jpg, vendingmachine).
holds(s_9647_jpg, chimney).
holds(s_9647_jpg, car).

sample(s_15107_jpg).
holds(s_15107_jpg, building).
holds(s_15107_jpg, feature).
holds(s_15107_jpg, suburban).
holds(s_15107_jpg, commercial).
holds(s_15107_jpg, door).
holds(s_15107_jpg, window).
holds(s_15107_jpg, porch).
holds(s_15107_jpg, sign).
holds(s_15107_jpg, tiledroof).
holds(s_15107_jpg, tiledrooftop).
holds(s_15107_jpg, vendingmachine).

sample(s_3510_jpg).
holds(s_3510_jpg, building).
holds(s_3510_jpg, feature).
holds(s_3510_jpg, hotel).
holds(s_3510_jpg, restaurant).
holds(s_3510_jpg, store).
holds(s_3510_jpg, misccommercial).
holds(s_3510_jpg, residential).
holds(s_3510_jpg, commercial).
holds(s_3510_jpg, awning).
holds(s_3510_jpg, vendingmachine).
holds(s_3510_jpg, chimney).
holds(s_3510_jpg, pipe).
holds(s_3510_jpg, car).

sample(s_1088_jpg).
holds(s_1088_jpg, building).
holds(s_1088_jpg, feature).
holds(s_1088_jpg, miscresidential).
holds(s_1088_jpg, commercial).
holds(s_1088_jpg, door).
holds(s_1088_jpg, window).
holds(s_1088_jpg, awning).
holds(s_1088_jpg, porch).
holds(s_1088_jpg, sign).
holds(s_1088_jpg, tiledroof).
holds(s_1088_jpg, vendingmachine).
holds(s_1088_jpg, chimney).
holds(s_1088_jpg, car).

sample(s_9334_jpg).
holds(s_9334_jpg, building).
holds(s_9334_jpg, feature).
holds(s_9334_jpg, constructionsite).
holds(s_9334_jpg, commercial).
holds(s_9334_jpg, door).
holds(s_9334_jpg, awning).
holds(s_9334_jpg, tiledrooftop).
holds(s_9334_jpg, vendingmachine).
holds(s_9334_jpg, chimney).
holds(s_9334_jpg, machine).

sample(s_12686_jpg).
holds(s_12686_jpg, building).
holds(s_12686_jpg, feature).
holds(s_12686_jpg, miscresidential).
holds(s_12686_jpg, countryhouse).
holds(s_12686_jpg, door).
holds(s_12686_jpg, window).
holds(s_12686_jpg, porch).
holds(s_12686_jpg, sign).
holds(s_12686_jpg, tiledroof).
holds(s_12686_jpg, chimney).
holds(s_12686_jpg, car).

sample(s_1297_jpg).
holds(s_1297_jpg, building).
holds(s_1297_jpg, feature).
holds(s_1297_jpg, powerplant).
holds(s_1297_jpg, door).
holds(s_1297_jpg, window).
holds(s_1297_jpg, tiledrooftop).
holds(s_1297_jpg, vendingmachine).
holds(s_1297_jpg, chimney).
holds(s_1297_jpg, machine).

sample(s_6656_jpg).
holds(s_6656_jpg, building).
holds(s_6656_jpg, feature).
holds(s_6656_jpg, suburban).
holds(s_6656_jpg, miscresidential).
holds(s_6656_jpg, commercial).
holds(s_6656_jpg, door).
holds(s_6656_jpg, window).
holds(s_6656_jpg, porch).
holds(s_6656_jpg, sign).
holds(s_6656_jpg, tiledroof).
holds(s_6656_jpg, vendingmachine).
holds(s_6656_jpg, car).

sample(s_13572_jpg).
holds(s_13572_jpg, building).
holds(s_13572_jpg, feature).
holds(s_13572_jpg, cafe).
holds(s_13572_jpg, hotel).
holds(s_13572_jpg, restaurant).
holds(s_13572_jpg, misccommercial).
holds(s_13572_jpg, residential).
holds(s_13572_jpg, commercial).
holds(s_13572_jpg, awning).
holds(s_13572_jpg, vendingmachine).
holds(s_13572_jpg, chimney).
holds(s_13572_jpg, car).

sample(s_6571_jpg).
holds(s_6571_jpg, building).
holds(s_6571_jpg, feature).
holds(s_6571_jpg, constructionsite).
holds(s_6571_jpg, commercial).
holds(s_6571_jpg, door).
holds(s_6571_jpg, awning).
holds(s_6571_jpg, tiledrooftop).
holds(s_6571_jpg, vendingmachine).
holds(s_6571_jpg, chimney).
holds(s_6571_jpg, machine).

sample(s_3592_jpg).
holds(s_3592_jpg, building).
holds(s_3592_jpg, feature).
holds(s_3592_jpg, powerplant).
holds(s_3592_jpg, commercial).
holds(s_3592_jpg, door).
holds(s_3592_jpg, window).
holds(s_3592_jpg, sign).
holds(s_3592_jpg, tiledrooftop).
holds(s_3592_jpg, vendingmachine).
holds(s_3592_jpg, chimney).
holds(s_3592_jpg, machine).

sample(s_15657_jpg).
holds(s_15657_jpg, building).
holds(s_15657_jpg, feature).
holds(s_15657_jpg, cafe).
holds(s_15657_jpg, store).
holds(s_15657_jpg, misccommercial).
holds(s_15657_jpg, residential).
holds(s_15657_jpg, commercial).
holds(s_15657_jpg, awning).
holds(s_15657_jpg, vendingmachine).
holds(s_15657_jpg, chimney).
holds(s_15657_jpg, pipe).
holds(s_15657_jpg, car).

sample(s_4406_jpg).
holds(s_4406_jpg, building).
holds(s_4406_jpg, feature).
holds(s_4406_jpg, miscresidential).
holds(s_4406_jpg, countryhouse).
holds(s_4406_jpg, door).
holds(s_4406_jpg, window).
holds(s_4406_jpg, sign).
holds(s_4406_jpg, tiledroof).
holds(s_4406_jpg, chimney).
holds(s_4406_jpg, car).

sample(s_14918_jpg).
holds(s_14918_jpg, building).
holds(s_14918_jpg, feature).
holds(s_14918_jpg, miscresidential).
holds(s_14918_jpg, commercial).
holds(s_14918_jpg, door).
holds(s_14918_jpg, window).
holds(s_14918_jpg, awning).
holds(s_14918_jpg, porch).
holds(s_14918_jpg, sign).
holds(s_14918_jpg, tiledroof).
holds(s_14918_jpg, vendingmachine).
holds(s_14918_jpg, chimney).
holds(s_14918_jpg, car).

sample(s_4396_jpg).
holds(s_4396_jpg, building).
holds(s_4396_jpg, feature).
holds(s_4396_jpg, powerplant).
holds(s_4396_jpg, door).
holds(s_4396_jpg, window).
holds(s_4396_jpg, tiledrooftop).
holds(s_4396_jpg, vendingmachine).
holds(s_4396_jpg, chimney).
holds(s_4396_jpg, machine).

sample(s_6300_jpg).
holds(s_6300_jpg, building).
holds(s_6300_jpg, feature).
holds(s_6300_jpg, cafe).
holds(s_6300_jpg, hotel).
holds(s_6300_jpg, restaurant).
holds(s_6300_jpg, store).
holds(s_6300_jpg, residential).
holds(s_6300_jpg, commercial).
holds(s_6300_jpg, awning).
holds(s_6300_jpg, vendingmachine).
holds(s_6300_jpg, chimney).
holds(s_6300_jpg, pipe).
holds(s_6300_jpg, car).

sample(s_13226_jpg).
holds(s_13226_jpg, building).
holds(s_13226_jpg, feature).
holds(s_13226_jpg, suburban).
holds(s_13226_jpg, miscresidential).
holds(s_13226_jpg, commercial).
holds(s_13226_jpg, door).
holds(s_13226_jpg, window).
holds(s_13226_jpg, porch).
holds(s_13226_jpg, sign).
holds(s_13226_jpg, tiledroof).
holds(s_13226_jpg, tiledrooftop).
holds(s_13226_jpg, vendingmachine).
holds(s_13226_jpg, car).

sample(s_13554_jpg).
holds(s_13554_jpg, building).
holds(s_13554_jpg, feature).
holds(s_13554_jpg, cafe).
holds(s_13554_jpg, hotel).
holds(s_13554_jpg, store).
holds(s_13554_jpg, misccommercial).
holds(s_13554_jpg, residential).
holds(s_13554_jpg, commercial).
holds(s_13554_jpg, awning).
holds(s_13554_jpg, vendingmachine).
holds(s_13554_jpg, chimney).
holds(s_13554_jpg, car).

sample(s_6457_jpg).
holds(s_6457_jpg, building).
holds(s_6457_jpg, feature).
holds(s_6457_jpg, miscindustrial).
holds(s_6457_jpg, powerplant).
holds(s_6457_jpg, watertreatment).
holds(s_6457_jpg, door).
holds(s_6457_jpg, window).
holds(s_6457_jpg, sign).
holds(s_6457_jpg, tiledrooftop).
holds(s_6457_jpg, chimney).
holds(s_6457_jpg, machine).

sample(s_10642_jpg).
holds(s_10642_jpg, building).
holds(s_10642_jpg, feature).
holds(s_10642_jpg, constructionsite).
holds(s_10642_jpg, powerplant).
holds(s_10642_jpg, commercial).
holds(s_10642_jpg, door).
holds(s_10642_jpg, awning).
holds(s_10642_jpg, tiledrooftop).
holds(s_10642_jpg, vendingmachine).
holds(s_10642_jpg, chimney).

sample(s_11948_jpg).
holds(s_11948_jpg, building).
holds(s_11948_jpg, feature).
holds(s_11948_jpg, suburban).
holds(s_11948_jpg, miscresidential).
holds(s_11948_jpg, countryhouse).
holds(s_11948_jpg, door).
holds(s_11948_jpg, window).
holds(s_11948_jpg, porch).
holds(s_11948_jpg, sign).
holds(s_11948_jpg, tiledroof).
holds(s_11948_jpg, vendingmachine).
holds(s_11948_jpg, car).

sample(s_4587_jpg).
holds(s_4587_jpg, building).
holds(s_4587_jpg, feature).
holds(s_4587_jpg, cafe).
holds(s_4587_jpg, hotel).
holds(s_4587_jpg, store).
holds(s_4587_jpg, misccommercial).
holds(s_4587_jpg, residential).
holds(s_4587_jpg, commercial).
holds(s_4587_jpg, awning).
holds(s_4587_jpg, vendingmachine).
holds(s_4587_jpg, chimney).
holds(s_4587_jpg, car).

sample(s_10861_jpg).
holds(s_10861_jpg, building).
holds(s_10861_jpg, feature).
holds(s_10861_jpg, constructionsite).
holds(s_10861_jpg, commercial).
holds(s_10861_jpg, door).
holds(s_10861_jpg, awning).
holds(s_10861_jpg, tiledrooftop).
holds(s_10861_jpg, vendingmachine).
holds(s_10861_jpg, chimney).
holds(s_10861_jpg, machine).

sample(s_205_jpg).
holds(s_205_jpg, building).
holds(s_205_jpg, feature).
holds(s_205_jpg, miscindustrial).
holds(s_205_jpg, powerplant).
holds(s_205_jpg, watertreatment).
holds(s_205_jpg, door).
holds(s_205_jpg, window).
holds(s_205_jpg, sign).
holds(s_205_jpg, tiledrooftop).
holds(s_205_jpg, chimney).
holds(s_205_jpg, machine).

sample(s_12224_jpg).
holds(s_12224_jpg, building).
holds(s_12224_jpg, feature).
holds(s_12224_jpg, suburban).
holds(s_12224_jpg, miscresidential).
holds(s_12224_jpg, countryhouse).
holds(s_12224_jpg, door).
holds(s_12224_jpg, window).
holds(s_12224_jpg, porch).
holds(s_12224_jpg, sign).
holds(s_12224_jpg, tiledroof).
holds(s_12224_jpg, vendingmachine).
holds(s_12224_jpg, chimney).
holds(s_12224_jpg, car).

sample(s_6931_jpg).
holds(s_6931_jpg, building).
holds(s_6931_jpg, feature).
holds(s_6931_jpg, constructionsite).
holds(s_6931_jpg, powerplant).
holds(s_6931_jpg, commercial).
holds(s_6931_jpg, door).
holds(s_6931_jpg, window).
holds(s_6931_jpg, awning).
holds(s_6931_jpg, tiledrooftop).
holds(s_6931_jpg, vendingmachine).
holds(s_6931_jpg, chimney).
holds(s_6931_jpg, machine).

sample(s_10708_jpg).
holds(s_10708_jpg, building).
holds(s_10708_jpg, feature).
holds(s_10708_jpg, constructionsite).
holds(s_10708_jpg, commercial).
holds(s_10708_jpg, door).
holds(s_10708_jpg, awning).
holds(s_10708_jpg, tiledrooftop).
holds(s_10708_jpg, vendingmachine).
holds(s_10708_jpg, chimney).
holds(s_10708_jpg, machine).

sample(s_4780_jpg).
holds(s_4780_jpg, building).
holds(s_4780_jpg, feature).
holds(s_4780_jpg, miscindustrial).
holds(s_4780_jpg, watertreatment).
holds(s_4780_jpg, door).
holds(s_4780_jpg, window).
holds(s_4780_jpg, sign).
holds(s_4780_jpg, tiledrooftop).
holds(s_4780_jpg, vendingmachine).
holds(s_4780_jpg, machine).

sample(s_8025_jpg).
holds(s_8025_jpg, building).
holds(s_8025_jpg, feature).
holds(s_8025_jpg, cafe).
holds(s_8025_jpg, hotel).
holds(s_8025_jpg, store).
holds(s_8025_jpg, residential).
holds(s_8025_jpg, commercial).
holds(s_8025_jpg, window).
holds(s_8025_jpg, awning).
holds(s_8025_jpg, vendingmachine).
holds(s_8025_jpg, chimney).
holds(s_8025_jpg, car).

sample(s_700_jpg).
holds(s_700_jpg, building).
holds(s_700_jpg, feature).
holds(s_700_jpg, powerplant).
holds(s_700_jpg, commercial).
holds(s_700_jpg, door).
holds(s_700_jpg, window).
holds(s_700_jpg, tiledrooftop).
holds(s_700_jpg, vendingmachine).
holds(s_700_jpg, chimney).
holds(s_700_jpg, machine).

sample(s_13108_jpg).
holds(s_13108_jpg, building).
holds(s_13108_jpg, feature).
holds(s_13108_jpg, miscindustrial).
holds(s_13108_jpg, watertreatment).
holds(s_13108_jpg, door).
holds(s_13108_jpg, window).
holds(s_13108_jpg, sign).
holds(s_13108_jpg, tiledrooftop).
holds(s_13108_jpg, vendingmachine).
holds(s_13108_jpg, chimney).
holds(s_13108_jpg, machine).

sample(s_13948_jpg).
holds(s_13948_jpg, building).
holds(s_13948_jpg, feature).
holds(s_13948_jpg, constructionsite).
holds(s_13948_jpg, powerplant).
holds(s_13948_jpg, commercial).
holds(s_13948_jpg, door).
holds(s_13948_jpg, window).
holds(s_13948_jpg, tiledrooftop).
holds(s_13948_jpg, vendingmachine).
holds(s_13948_jpg, chimney).
holds(s_13948_jpg, machine).

sample(s_11239_jpg).
holds(s_11239_jpg, building).
holds(s_11239_jpg, feature).
holds(s_11239_jpg, powerplant).
holds(s_11239_jpg, door).
holds(s_11239_jpg, window).
holds(s_11239_jpg, awning).
holds(s_11239_jpg, sign).
holds(s_11239_jpg, tiledrooftop).
holds(s_11239_jpg, vendingmachine).
holds(s_11239_jpg, chimney).
holds(s_11239_jpg, machine).

sample(s_14193_jpg).
holds(s_14193_jpg, building).
holds(s_14193_jpg, feature).
holds(s_14193_jpg, cafe).
holds(s_14193_jpg, hotel).
holds(s_14193_jpg, misccommercial).
holds(s_14193_jpg, residential).
holds(s_14193_jpg, commercial).
holds(s_14193_jpg, window).
holds(s_14193_jpg, awning).
holds(s_14193_jpg, vendingmachine).
holds(s_14193_jpg, chimney).
holds(s_14193_jpg, car).

sample(s_12214_jpg).
holds(s_12214_jpg, building).
holds(s_12214_jpg, feature).
holds(s_12214_jpg, constructionsite).
holds(s_12214_jpg, powerplant).
holds(s_12214_jpg, commercial).
holds(s_12214_jpg, door).
holds(s_12214_jpg, awning).
holds(s_12214_jpg, tiledrooftop).
holds(s_12214_jpg, vendingmachine).
holds(s_12214_jpg, chimney).

sample(s_15537_jpg).
holds(s_15537_jpg, building).
holds(s_15537_jpg, feature).
holds(s_15537_jpg, cafe).
holds(s_15537_jpg, hotel).
holds(s_15537_jpg, misccommercial).
holds(s_15537_jpg, commercial).
holds(s_15537_jpg, door).
holds(s_15537_jpg, awning).
holds(s_15537_jpg, vendingmachine).
holds(s_15537_jpg, chimney).
holds(s_15537_jpg, car).

sample(s_9216_jpg).
holds(s_9216_jpg, building).
holds(s_9216_jpg, feature).
holds(s_9216_jpg, cafe).
holds(s_9216_jpg, hotel).
holds(s_9216_jpg, misccommercial).
holds(s_9216_jpg, commercial).
holds(s_9216_jpg, awning).
holds(s_9216_jpg, vendingmachine).
holds(s_9216_jpg, chimney).
holds(s_9216_jpg, car).

sample(s_6743_jpg).
holds(s_6743_jpg, building).
holds(s_6743_jpg, feature).
holds(s_6743_jpg, suburban).
holds(s_6743_jpg, miscresidential).
holds(s_6743_jpg, countryhouse).
holds(s_6743_jpg, commercial).
holds(s_6743_jpg, door).
holds(s_6743_jpg, window).
holds(s_6743_jpg, porch).
holds(s_6743_jpg, sign).
holds(s_6743_jpg, tiledroof).
holds(s_6743_jpg, vendingmachine).
holds(s_6743_jpg, car).

sample(s_4218_jpg).
holds(s_4218_jpg, building).
holds(s_4218_jpg, feature).
holds(s_4218_jpg, cafe).
holds(s_4218_jpg, hotel).
holds(s_4218_jpg, restaurant).
holds(s_4218_jpg, misccommercial).
holds(s_4218_jpg, residential).
holds(s_4218_jpg, commercial).
holds(s_4218_jpg, awning).
holds(s_4218_jpg, tiledrooftop).
holds(s_4218_jpg, vendingmachine).
holds(s_4218_jpg, chimney).
holds(s_4218_jpg, pipe).
holds(s_4218_jpg, car).

sample(s_11670_jpg).
holds(s_11670_jpg, building).
holds(s_11670_jpg, feature).
holds(s_11670_jpg, cafe).
holds(s_11670_jpg, hotel).
holds(s_11670_jpg, restaurant).
holds(s_11670_jpg, store).
holds(s_11670_jpg, misccommercial).
holds(s_11670_jpg, residential).
holds(s_11670_jpg, commercial).
holds(s_11670_jpg, awning).
holds(s_11670_jpg, vendingmachine).
holds(s_11670_jpg, chimney).
holds(s_11670_jpg, pipe).
holds(s_11670_jpg, car).

sample(s_1588_jpg).
holds(s_1588_jpg, building).
holds(s_1588_jpg, feature).
holds(s_1588_jpg, constructionsite).
holds(s_1588_jpg, powerplant).
holds(s_1588_jpg, commercial).
holds(s_1588_jpg, door).
holds(s_1588_jpg, awning).
holds(s_1588_jpg, tiledrooftop).
holds(s_1588_jpg, vendingmachine).
holds(s_1588_jpg, chimney).
holds(s_1588_jpg, machine).

sample(s_3109_jpg).
holds(s_3109_jpg, building).
holds(s_3109_jpg, feature).
holds(s_3109_jpg, miscindustrial).
holds(s_3109_jpg, powerplant).
holds(s_3109_jpg, watertreatment).
holds(s_3109_jpg, door).
holds(s_3109_jpg, window).
holds(s_3109_jpg, awning).
holds(s_3109_jpg, sign).
holds(s_3109_jpg, tiledrooftop).
holds(s_3109_jpg, vendingmachine).
holds(s_3109_jpg, chimney).
holds(s_3109_jpg, machine).

sample(s_4808_jpg).
holds(s_4808_jpg, building).
holds(s_4808_jpg, feature).
holds(s_4808_jpg, suburban).
holds(s_4808_jpg, commercial).
holds(s_4808_jpg, door).
holds(s_4808_jpg, window).
holds(s_4808_jpg, porch).
holds(s_4808_jpg, sign).
holds(s_4808_jpg, tiledroof).
holds(s_4808_jpg, tiledrooftop).
holds(s_4808_jpg, vendingmachine).

sample(s_4146_jpg).
holds(s_4146_jpg, building).
holds(s_4146_jpg, feature).
holds(s_4146_jpg, cafe).
holds(s_4146_jpg, hotel).
holds(s_4146_jpg, restaurant).
holds(s_4146_jpg, residential).
holds(s_4146_jpg, commercial).
holds(s_4146_jpg, sign).
holds(s_4146_jpg, tiledrooftop).
holds(s_4146_jpg, vendingmachine).
holds(s_4146_jpg, pipe).
holds(s_4146_jpg, car).

sample(s_14402_jpg).
holds(s_14402_jpg, building).
holds(s_14402_jpg, feature).
holds(s_14402_jpg, suburban).
holds(s_14402_jpg, miscresidential).
holds(s_14402_jpg, countryhouse).
holds(s_14402_jpg, door).
holds(s_14402_jpg, window).
holds(s_14402_jpg, porch).
holds(s_14402_jpg, sign).
holds(s_14402_jpg, tiledroof).
holds(s_14402_jpg, car).

sample(s_2245_jpg).
holds(s_2245_jpg, building).
holds(s_2245_jpg, feature).
holds(s_2245_jpg, constructionsite).
holds(s_2245_jpg, commercial).
holds(s_2245_jpg, door).
holds(s_2245_jpg, awning).
holds(s_2245_jpg, tiledrooftop).
holds(s_2245_jpg, vendingmachine).
holds(s_2245_jpg, chimney).

sample(s_1799_jpg).
holds(s_1799_jpg, building).
holds(s_1799_jpg, feature).
holds(s_1799_jpg, suburban).
holds(s_1799_jpg, commercial).
holds(s_1799_jpg, door).
holds(s_1799_jpg, window).
holds(s_1799_jpg, porch).
holds(s_1799_jpg, sign).
holds(s_1799_jpg, tiledroof).
holds(s_1799_jpg, tiledrooftop).
holds(s_1799_jpg, vendingmachine).

sample(s_8216_jpg).
holds(s_8216_jpg, building).
holds(s_8216_jpg, feature).
holds(s_8216_jpg, suburban).
holds(s_8216_jpg, miscresidential).
holds(s_8216_jpg, countryhouse).
holds(s_8216_jpg, commercial).
holds(s_8216_jpg, door).
holds(s_8216_jpg, window).
holds(s_8216_jpg, porch).
holds(s_8216_jpg, sign).
holds(s_8216_jpg, tiledroof).
holds(s_8216_jpg, car).

sample(s_783_jpg).
holds(s_783_jpg, building).
holds(s_783_jpg, feature).
holds(s_783_jpg, store).
holds(s_783_jpg, misccommercial).
holds(s_783_jpg, commercial).
holds(s_783_jpg, awning).
holds(s_783_jpg, vendingmachine).
holds(s_783_jpg, chimney).
holds(s_783_jpg, pipe).
holds(s_783_jpg, car).

sample(s_1526_jpg).
holds(s_1526_jpg, building).
holds(s_1526_jpg, feature).
holds(s_1526_jpg, miscresidential).
holds(s_1526_jpg, door).
holds(s_1526_jpg, window).
holds(s_1526_jpg, awning).
holds(s_1526_jpg, porch).
holds(s_1526_jpg, sign).
holds(s_1526_jpg, tiledroof).
holds(s_1526_jpg, vendingmachine).
holds(s_1526_jpg, chimney).
holds(s_1526_jpg, car).

sample(s_6560_jpg).
holds(s_6560_jpg, building).
holds(s_6560_jpg, feature).
holds(s_6560_jpg, suburban).
holds(s_6560_jpg, commercial).
holds(s_6560_jpg, door).
holds(s_6560_jpg, window).
holds(s_6560_jpg, porch).
holds(s_6560_jpg, sign).
holds(s_6560_jpg, tiledroof).
holds(s_6560_jpg, tiledrooftop).
holds(s_6560_jpg, vendingmachine).

sample(s_11232_jpg).
holds(s_11232_jpg, building).
holds(s_11232_jpg, feature).
holds(s_11232_jpg, cafe).
holds(s_11232_jpg, store).
holds(s_11232_jpg, residential).
holds(s_11232_jpg, commercial).
holds(s_11232_jpg, awning).
holds(s_11232_jpg, vendingmachine).
holds(s_11232_jpg, chimney).
holds(s_11232_jpg, car).

sample(s_9993_jpg).
holds(s_9993_jpg, building).
holds(s_9993_jpg, feature).
holds(s_9993_jpg, cafe).
holds(s_9993_jpg, hotel).
holds(s_9993_jpg, store).
holds(s_9993_jpg, misccommercial).
holds(s_9993_jpg, residential).
holds(s_9993_jpg, commercial).
holds(s_9993_jpg, awning).
holds(s_9993_jpg, vendingmachine).
holds(s_9993_jpg, chimney).
holds(s_9993_jpg, car).

sample(s_1143_jpg).
holds(s_1143_jpg, building).
holds(s_1143_jpg, feature).
holds(s_1143_jpg, cafe).
holds(s_1143_jpg, hotel).
holds(s_1143_jpg, restaurant).
holds(s_1143_jpg, residential).
holds(s_1143_jpg, commercial).
holds(s_1143_jpg, tiledroof).
holds(s_1143_jpg, tiledrooftop).
holds(s_1143_jpg, vendingmachine).
holds(s_1143_jpg, pipe).
holds(s_1143_jpg, car).

sample(s_12513_jpg).
holds(s_12513_jpg, building).
holds(s_12513_jpg, feature).
holds(s_12513_jpg, cafe).
holds(s_12513_jpg, restaurant).
holds(s_12513_jpg, store).
holds(s_12513_jpg, misccommercial).
holds(s_12513_jpg, residential).
holds(s_12513_jpg, commercial).
holds(s_12513_jpg, awning).
holds(s_12513_jpg, vendingmachine).
holds(s_12513_jpg, chimney).
holds(s_12513_jpg, pipe).
holds(s_12513_jpg, car).

sample(s_2020_jpg).
holds(s_2020_jpg, building).
holds(s_2020_jpg, feature).
holds(s_2020_jpg, miscindustrial).
holds(s_2020_jpg, powerplant).
holds(s_2020_jpg, watertreatment).
holds(s_2020_jpg, door).
holds(s_2020_jpg, window).
holds(s_2020_jpg, sign).
holds(s_2020_jpg, tiledrooftop).
holds(s_2020_jpg, chimney).
holds(s_2020_jpg, machine).

sample(s_9329_jpg).
holds(s_9329_jpg, building).
holds(s_9329_jpg, feature).
holds(s_9329_jpg, suburban).
holds(s_9329_jpg, commercial).
holds(s_9329_jpg, door).
holds(s_9329_jpg, window).
holds(s_9329_jpg, porch).
holds(s_9329_jpg, sign).
holds(s_9329_jpg, tiledroof).
holds(s_9329_jpg, tiledrooftop).
holds(s_9329_jpg, vendingmachine).

sample(s_13207_jpg).
holds(s_13207_jpg, building).
holds(s_13207_jpg, feature).
holds(s_13207_jpg, constructionsite).
holds(s_13207_jpg, commercial).
holds(s_13207_jpg, door).
holds(s_13207_jpg, awning).
holds(s_13207_jpg, tiledrooftop).
holds(s_13207_jpg, vendingmachine).
holds(s_13207_jpg, chimney).
holds(s_13207_jpg, machine).

sample(s_3106_jpg).
holds(s_3106_jpg, building).
holds(s_3106_jpg, feature).
holds(s_3106_jpg, powerplant).
holds(s_3106_jpg, door).
holds(s_3106_jpg, window).
holds(s_3106_jpg, sign).
holds(s_3106_jpg, tiledrooftop).
holds(s_3106_jpg, chimney).
holds(s_3106_jpg, machine).

sample(s_14506_jpg).
holds(s_14506_jpg, building).
holds(s_14506_jpg, feature).
holds(s_14506_jpg, miscindustrial).
holds(s_14506_jpg, powerplant).
holds(s_14506_jpg, watertreatment).
holds(s_14506_jpg, door).
holds(s_14506_jpg, window).
holds(s_14506_jpg, awning).
holds(s_14506_jpg, sign).
holds(s_14506_jpg, tiledrooftop).
holds(s_14506_jpg, vendingmachine).
holds(s_14506_jpg, chimney).
holds(s_14506_jpg, machine).

sample(s_2119_jpg).
holds(s_2119_jpg, building).
holds(s_2119_jpg, feature).
holds(s_2119_jpg, miscindustrial).
holds(s_2119_jpg, powerplant).
holds(s_2119_jpg, watertreatment).
holds(s_2119_jpg, door).
holds(s_2119_jpg, window).
holds(s_2119_jpg, awning).
holds(s_2119_jpg, tiledrooftop).
holds(s_2119_jpg, vendingmachine).
holds(s_2119_jpg, chimney).
holds(s_2119_jpg, machine).

sample(s_12283_jpg).
holds(s_12283_jpg, building).
holds(s_12283_jpg, feature).
holds(s_12283_jpg, miscindustrial).
holds(s_12283_jpg, watertreatment).
holds(s_12283_jpg, door).
holds(s_12283_jpg, window).
holds(s_12283_jpg, sign).
holds(s_12283_jpg, tiledrooftop).
holds(s_12283_jpg, vendingmachine).
holds(s_12283_jpg, chimney).
holds(s_12283_jpg, machine).

sample(s_5861_jpg).
holds(s_5861_jpg, building).
holds(s_5861_jpg, feature).
holds(s_5861_jpg, miscresidential).
holds(s_5861_jpg, door).
holds(s_5861_jpg, window).
holds(s_5861_jpg, porch).
holds(s_5861_jpg, sign).
holds(s_5861_jpg, tiledroof).
holds(s_5861_jpg, vendingmachine).
holds(s_5861_jpg, chimney).
holds(s_5861_jpg, car).

sample(s_1727_jpg).
holds(s_1727_jpg, building).
holds(s_1727_jpg, feature).
holds(s_1727_jpg, suburban).
holds(s_1727_jpg, commercial).
holds(s_1727_jpg, door).
holds(s_1727_jpg, window).
holds(s_1727_jpg, porch).
holds(s_1727_jpg, sign).
holds(s_1727_jpg, tiledroof).
holds(s_1727_jpg, tiledrooftop).
holds(s_1727_jpg, vendingmachine).

sample(s_2391_jpg).
holds(s_2391_jpg, building).
holds(s_2391_jpg, feature).
holds(s_2391_jpg, cafe).
holds(s_2391_jpg, hotel).
holds(s_2391_jpg, store).
holds(s_2391_jpg, residential).
holds(s_2391_jpg, commercial).
holds(s_2391_jpg, window).
holds(s_2391_jpg, awning).
holds(s_2391_jpg, vendingmachine).
holds(s_2391_jpg, chimney).
holds(s_2391_jpg, car).

sample(s_9992_jpg).
holds(s_9992_jpg, building).
holds(s_9992_jpg, feature).
holds(s_9992_jpg, suburban).
holds(s_9992_jpg, miscresidential).
holds(s_9992_jpg, countryhouse).
holds(s_9992_jpg, door).
holds(s_9992_jpg, window).
holds(s_9992_jpg, porch).
holds(s_9992_jpg, sign).
holds(s_9992_jpg, tiledroof).
holds(s_9992_jpg, chimney).
holds(s_9992_jpg, car).

sample(s_5977_jpg).
holds(s_5977_jpg, building).
holds(s_5977_jpg, feature).
holds(s_5977_jpg, constructionsite).
holds(s_5977_jpg, commercial).
holds(s_5977_jpg, door).
holds(s_5977_jpg, awning).
holds(s_5977_jpg, tiledrooftop).
holds(s_5977_jpg, vendingmachine).
holds(s_5977_jpg, chimney).
holds(s_5977_jpg, machine).

sample(s_15763_jpg).
holds(s_15763_jpg, building).
holds(s_15763_jpg, feature).
holds(s_15763_jpg, constructionsite).
holds(s_15763_jpg, powerplant).
holds(s_15763_jpg, commercial).
holds(s_15763_jpg, door).
holds(s_15763_jpg, window).
holds(s_15763_jpg, awning).
holds(s_15763_jpg, tiledrooftop).
holds(s_15763_jpg, vendingmachine).
holds(s_15763_jpg, chimney).

sample(s_5050_jpg).
holds(s_5050_jpg, building).
holds(s_5050_jpg, feature).
holds(s_5050_jpg, miscindustrial).
holds(s_5050_jpg, powerplant).
holds(s_5050_jpg, watertreatment).
holds(s_5050_jpg, door).
holds(s_5050_jpg, window).
holds(s_5050_jpg, sign).
holds(s_5050_jpg, tiledrooftop).
holds(s_5050_jpg, vendingmachine).
holds(s_5050_jpg, chimney).
holds(s_5050_jpg, machine).

sample(s_4836_jpg).
holds(s_4836_jpg, building).
holds(s_4836_jpg, feature).
holds(s_4836_jpg, cafe).
holds(s_4836_jpg, restaurant).
holds(s_4836_jpg, store).
holds(s_4836_jpg, residential).
holds(s_4836_jpg, commercial).
holds(s_4836_jpg, awning).
holds(s_4836_jpg, vendingmachine).
holds(s_4836_jpg, chimney).
holds(s_4836_jpg, pipe).
holds(s_4836_jpg, car).

sample(s_7489_jpg).
holds(s_7489_jpg, building).
holds(s_7489_jpg, feature).
holds(s_7489_jpg, constructionsite).
holds(s_7489_jpg, powerplant).
holds(s_7489_jpg, commercial).
holds(s_7489_jpg, door).
holds(s_7489_jpg, window).
holds(s_7489_jpg, awning).
holds(s_7489_jpg, tiledrooftop).
holds(s_7489_jpg, vendingmachine).
holds(s_7489_jpg, chimney).
holds(s_7489_jpg, machine).

sample(s_1057_jpg).
holds(s_1057_jpg, building).
holds(s_1057_jpg, feature).
holds(s_1057_jpg, miscindustrial).
holds(s_1057_jpg, watertreatment).
holds(s_1057_jpg, door).
holds(s_1057_jpg, window).
holds(s_1057_jpg, sign).
holds(s_1057_jpg, tiledrooftop).
holds(s_1057_jpg, vendingmachine).
holds(s_1057_jpg, chimney).
holds(s_1057_jpg, machine).

sample(s_13037_jpg).
holds(s_13037_jpg, building).
holds(s_13037_jpg, feature).
holds(s_13037_jpg, suburban).
holds(s_13037_jpg, miscresidential).
holds(s_13037_jpg, commercial).
holds(s_13037_jpg, door).
holds(s_13037_jpg, window).
holds(s_13037_jpg, porch).
holds(s_13037_jpg, sign).
holds(s_13037_jpg, tiledroof).
holds(s_13037_jpg, vendingmachine).
holds(s_13037_jpg, car).

sample(s_4375_jpg).
holds(s_4375_jpg, building).
holds(s_4375_jpg, feature).
holds(s_4375_jpg, powerplant).
holds(s_4375_jpg, door).
holds(s_4375_jpg, window).
holds(s_4375_jpg, tiledrooftop).
holds(s_4375_jpg, vendingmachine).
holds(s_4375_jpg, chimney).
holds(s_4375_jpg, machine).

