sample(0).
holds(0, constructionsite).
holds(0, powerplant).
holds(0, industrial).
holds(0, chimney).
holds(0, pipe).
holds(0, machine).

sample(1).
holds(1, awning).
holds(1, table).

sample(2).
holds(2, awning).
holds(2, table).

sample(3).
holds(3, miscindustrial).
holds(3, industrial).
holds(3, truck).

sample(4).
holds(4, awning).
holds(4, table).

sample(5).
holds(5, awning).
holds(5, table).

sample(6).
holds(6, miscindustrial).
holds(6, powerplant).
holds(6, watertreatment).
holds(6, industrial).
holds(6, chimney).
holds(6, pipe).
holds(6, truck).

sample(7).
holds(7, awning).
holds(7, table).

sample(8).
holds(8, awning).
holds(8, table).

sample(9).
holds(9, miscindustrial).
holds(9, watertreatment).
holds(9, industrial).
holds(9, truck).

sample(10).
holds(10, awning).
holds(10, table).

sample(11).
holds(11, awning).
holds(11, table).

sample(12).
holds(12, miscindustrial).
holds(12, industrial).
holds(12, truck).

sample(13).
holds(13, awning).
holds(13, table).

sample(14).
holds(14, awning).
holds(14, table).

sample(15).
holds(15, miscindustrial).
holds(15, powerplant).
holds(15, watertreatment).
holds(15, industrial).
holds(15, chimney).
holds(15, pipe).
holds(15, truck).

sample(16).
holds(16, awning).
holds(16, table).

sample(17).
holds(17, awning).
holds(17, table).

sample(18).
holds(18, powerplant).
holds(18, watertreatment).
holds(18, industrial).
holds(18, awning).
holds(18, chimney).
holds(18, pipe).
holds(18, truck).

sample(19).
holds(19, awning).
holds(19, table).

sample(20).
holds(20, awning).
holds(20, table).

sample(21).
holds(21, powerplant).
holds(21, industrial).
holds(21, chimney).
holds(21, pipe).

sample(22).
holds(22, awning).
holds(22, table).

sample(23).
holds(23, awning).
holds(23, table).
holds(23, chimney).

sample(24).
holds(24, miscindustrial).
holds(24, watertreatment).
holds(24, industrial).
holds(24, pipe).
holds(24, truck).

sample(25).
holds(25, awning).
holds(25, table).

sample(26).
holds(26, awning).
holds(26, table).

sample(27).
holds(27, miscindustrial).
holds(27, powerplant).
holds(27, watertreatment).
holds(27, industrial).
holds(27, chimney).
holds(27, pipe).
holds(27, truck).

sample(28).
holds(28, awning).
holds(28, table).

sample(29).
holds(29, awning).
holds(29, table).

sample(30).
holds(30, constructionsite).
holds(30, industrial).
holds(30, pipe).
holds(30, machine).

sample(31).
holds(31, awning).
holds(31, table).

sample(32).
holds(32, awning).
holds(32, table).

sample(33).
holds(33, miscindustrial).
holds(33, watertreatment).
holds(33, industrial).
holds(33, pipe).
holds(33, truck).

sample(34).
holds(34, awning).
holds(34, table).

sample(35).
holds(35, awning).
holds(35, table).

sample(36).
holds(36, miscindustrial).
holds(36, industrial).
holds(36, truck).

sample(37).
holds(37, awning).
holds(37, table).

sample(38).
holds(38, awning).
holds(38, table).

sample(39).
holds(39, constructionsite).
holds(39, powerplant).
holds(39, industrial).
holds(39, chimney).
holds(39, pipe).
holds(39, machine).

sample(40).
holds(40, awning).
holds(40, table).

sample(41).
holds(41, awning).
holds(41, table).

sample(42).
holds(42, constructionsite).
holds(42, powerplant).
holds(42, industrial).
holds(42, chimney).
holds(42, pipe).
holds(42, machine).

sample(43).
holds(43, awning).
holds(43, table).

sample(44).
holds(44, awning).
holds(44, table).

sample(45).
holds(45, miscindustrial).
holds(45, watertreatment).
holds(45, industrial).
holds(45, pipe).
holds(45, truck).

sample(46).
holds(46, awning).
holds(46, table).

sample(47).
holds(47, awning).
holds(47, table).

sample(48).
holds(48, powerplant).
holds(48, industrial).
holds(48, awning).
holds(48, chimney).
holds(48, pipe).

sample(49).
holds(49, awning).
holds(49, table).

sample(50).
holds(50, awning).
holds(50, table).

sample(51).
holds(51, constructionsite).
holds(51, powerplant).
holds(51, industrial).
holds(51, chimney).
holds(51, pipe).
holds(51, machine).

sample(52).
holds(52, awning).
holds(52, table).

sample(53).
holds(53, awning).
holds(53, table).

sample(54).
holds(54, constructionsite).
holds(54, powerplant).
holds(54, industrial).
holds(54, chimney).
holds(54, pipe).
holds(54, machine).

sample(55).
holds(55, awning).
holds(55, table).

sample(56).
holds(56, awning).
holds(56, table).

sample(57).
holds(57, powerplant).
holds(57, industrial).
holds(57, awning).
holds(57, chimney).
holds(57, pipe).

sample(58).
holds(58, awning).
holds(58, table).

sample(59).
holds(59, awning).
holds(59, table).

sample(60).
holds(60, miscindustrial).
holds(60, powerplant).
holds(60, watertreatment).
holds(60, industrial).
holds(60, chimney).
holds(60, pipe).
holds(60, truck).

sample(61).
holds(61, awning).
holds(61, table).

sample(62).
holds(62, awning).
holds(62, table).

sample(63).
holds(63, constructionsite).
holds(63, industrial).
holds(63, machine).

sample(64).
holds(64, awning).
holds(64, table).

sample(65).
holds(65, awning).
holds(65, table).

sample(66).
holds(66, powerplant).
holds(66, industrial).
holds(66, awning).
holds(66, chimney).
holds(66, pipe).

sample(67).
holds(67, awning).
holds(67, table).

sample(68).
holds(68, awning).
holds(68, table).

sample(69).
holds(69, miscindustrial).
holds(69, powerplant).
holds(69, watertreatment).
holds(69, industrial).
holds(69, chimney).
holds(69, pipe).
holds(69, truck).

sample(70).
holds(70, awning).
holds(70, table).

sample(71).
holds(71, awning).
holds(71, table).

sample(72).
holds(72, powerplant).
holds(72, industrial).
holds(72, awning).
holds(72, chimney).
holds(72, pipe).

sample(73).
holds(73, awning).
holds(73, table).

sample(74).
holds(74, awning).
holds(74, table).

sample(75).
holds(75, powerplant).
holds(75, watertreatment).
holds(75, industrial).
holds(75, awning).
holds(75, chimney).
holds(75, pipe).
holds(75, truck).

sample(76).
holds(76, awning).
holds(76, table).

sample(77).
holds(77, awning).
holds(77, table).

sample(78).
holds(78, constructionsite).
holds(78, powerplant).
holds(78, industrial).
holds(78, chimney).
holds(78, pipe).
holds(78, machine).

sample(79).
holds(79, awning).
holds(79, table).

sample(80).
holds(80, awning).
holds(80, table).

sample(81).
holds(81, miscindustrial).
holds(81, powerplant).
holds(81, watertreatment).
holds(81, industrial).
holds(81, chimney).
holds(81, pipe).
holds(81, truck).

sample(82).
holds(82, awning).
holds(82, table).

sample(83).
holds(83, awning).
holds(83, table).

sample(84).
holds(84, miscindustrial).
holds(84, industrial).
holds(84, truck).

sample(85).
holds(85, awning).
holds(85, table).

sample(86).
holds(86, awning).
holds(86, table).

sample(87).
holds(87, miscindustrial).
holds(87, watertreatment).
holds(87, industrial).
holds(87, pipe).
holds(87, truck).

sample(88).
holds(88, awning).
holds(88, table).

sample(89).
holds(89, awning).
holds(89, table).

sample(90).
holds(90, constructionsite).
holds(90, industrial).
holds(90, machine).

sample(91).
holds(91, awning).
holds(91, table).

sample(92).
holds(92, awning).
holds(92, table).

sample(93).
holds(93, powerplant).
holds(93, industrial).
holds(93, chimney).
holds(93, pipe).

sample(94).
holds(94, awning).
holds(94, table).

sample(95).
holds(95, awning).
holds(95, table).

sample(96).
holds(96, constructionsite).
holds(96, industrial).
holds(96, machine).

sample(97).
holds(97, awning).
holds(97, table).

sample(98).
holds(98, awning).
holds(98, table).

sample(99).
holds(99, miscindustrial).
holds(99, industrial).
holds(99, truck).

sample(100).
holds(100, awning).
holds(100, table).

sample(101).
holds(101, awning).
holds(101, table).

sample(102).
holds(102, miscindustrial).
holds(102, powerplant).
holds(102, watertreatment).
holds(102, industrial).
holds(102, chimney).
holds(102, pipe).
holds(102, truck).

sample(103).
holds(103, awning).
holds(103, table).

sample(104).
holds(104, awning).
holds(104, table).

sample(105).
holds(105, constructionsite).
holds(105, industrial).
holds(105, machine).

sample(106).
holds(106, awning).
holds(106, table).

sample(107).
holds(107, powerplant).
holds(107, awning).
holds(107, chimney).
holds(107, pipe).

sample(108).
holds(108, constructionsite).
holds(108, powerplant).
holds(108, industrial).
holds(108, chimney).
holds(108, pipe).
holds(108, machine).

sample(109).
holds(109, awning).
holds(109, table).

sample(110).
holds(110, awning).
holds(110, table).

sample(111).
holds(111, constructionsite).
holds(111, industrial).
holds(111, machine).

sample(112).
holds(112, awning).
holds(112, table).

sample(113).
holds(113, awning).
holds(113, table).

sample(114).
holds(114, powerplant).
holds(114, industrial).
holds(114, chimney).
holds(114, pipe).

sample(115).
holds(115, awning).
holds(115, table).

sample(116).
holds(116, awning).
holds(116, table).

sample(117).
holds(117, miscindustrial).
holds(117, industrial).
holds(117, truck).

sample(118).
holds(118, awning).
holds(118, table).

sample(119).
holds(119, awning).
holds(119, table).

sample(120).
holds(120, miscindustrial).
holds(120, powerplant).
holds(120, watertreatment).
holds(120, industrial).
holds(120, chimney).
holds(120, pipe).
holds(120, truck).

sample(121).
holds(121, awning).
holds(121, table).

sample(122).
holds(122, awning).
holds(122, table).

sample(123).
holds(123, constructionsite).
holds(123, powerplant).
holds(123, industrial).
holds(123, chimney).
holds(123, pipe).
holds(123, machine).

sample(124).
holds(124, awning).
holds(124, table).

sample(125).
holds(125, awning).
holds(125, table).

sample(126).
holds(126, miscindustrial).
holds(126, powerplant).
holds(126, watertreatment).
holds(126, industrial).
holds(126, chimney).
holds(126, pipe).
holds(126, truck).

sample(127).
holds(127, awning).
holds(127, table).

sample(128).
holds(128, awning).
holds(128, table).

sample(129).
holds(129, miscindustrial).
holds(129, powerplant).
holds(129, watertreatment).
holds(129, industrial).
holds(129, chimney).
holds(129, pipe).
holds(129, truck).

sample(130).
holds(130, awning).
holds(130, table).

sample(131).
holds(131, awning).
holds(131, table).

sample(132).
holds(132, constructionsite).
holds(132, industrial).
holds(132, machine).

sample(133).
holds(133, awning).
holds(133, table).

sample(134).
holds(134, awning).
holds(134, table).

sample(135).
holds(135, powerplant).
holds(135, industrial).
holds(135, chimney).
holds(135, pipe).

sample(136).
holds(136, awning).
holds(136, table).

sample(137).
holds(137, awning).
holds(137, table).

sample(138).
holds(138, miscindustrial).
holds(138, watertreatment).
holds(138, industrial).
holds(138, pipe).
holds(138, truck).

sample(139).
holds(139, awning).
holds(139, table).

sample(140).
holds(140, awning).
holds(140, table).

sample(141).
holds(141, constructionsite).
holds(141, industrial).
holds(141, machine).

sample(142).
holds(142, awning).
holds(142, table).

sample(143).
holds(143, awning).
holds(143, table).

sample(144).
holds(144, miscindustrial).
holds(144, powerplant).
holds(144, watertreatment).
holds(144, industrial).
holds(144, pipe).
holds(144, truck).

sample(145).
holds(145, awning).
holds(145, table).

sample(146).
holds(146, awning).
holds(146, table).

sample(147).
holds(147, constructionsite).
holds(147, industrial).
holds(147, machine).

sample(148).
holds(148, awning).
holds(148, table).

sample(149).
holds(149, awning).
holds(149, table).

sample(150).
holds(150, miscindustrial).
holds(150, watertreatment).
holds(150, industrial).
holds(150, pipe).
holds(150, truck).

sample(151).
holds(151, awning).
holds(151, table).

sample(152).
holds(152, awning).
holds(152, table).

sample(153).
holds(153, miscindustrial).
holds(153, industrial).
holds(153, truck).

sample(154).
holds(154, awning).
holds(154, table).

sample(155).
holds(155, awning).
holds(155, table).

sample(156).
holds(156, powerplant).
holds(156, industrial).
holds(156, chimney).
holds(156, pipe).

sample(157).
holds(157, awning).
holds(157, table).

sample(158).
holds(158, awning).
holds(158, table).

sample(159).
holds(159, constructionsite).
holds(159, powerplant).
holds(159, industrial).
holds(159, chimney).
holds(159, pipe).
holds(159, machine).

sample(160).
holds(160, awning).
holds(160, table).

sample(161).
holds(161, awning).
holds(161, table).

sample(162).
holds(162, miscindustrial).
holds(162, powerplant).
holds(162, watertreatment).
holds(162, industrial).
holds(162, chimney).
holds(162, pipe).
holds(162, truck).

sample(163).
holds(163, awning).
holds(163, table).

sample(164).
holds(164, awning).
holds(164, table).

sample(165).
holds(165, constructionsite).
holds(165, industrial).
holds(165, machine).

sample(166).
holds(166, awning).
holds(166, table).

sample(167).
holds(167, awning).
holds(167, table).

sample(168).
holds(168, miscindustrial).
holds(168, powerplant).
holds(168, watertreatment).
holds(168, industrial).
holds(168, chimney).
holds(168, pipe).
holds(168, truck).

sample(169).
holds(169, awning).
holds(169, table).

sample(170).
holds(170, awning).
holds(170, table).

sample(171).
holds(171, powerplant).
holds(171, industrial).
holds(171, awning).
holds(171, chimney).
holds(171, pipe).

sample(172).
holds(172, awning).
holds(172, table).

sample(173).
holds(173, awning).
holds(173, table).

sample(174).
holds(174, powerplant).
holds(174, industrial).
holds(174, awning).
holds(174, chimney).
holds(174, pipe).

sample(175).
holds(175, awning).
holds(175, table).

sample(176).
holds(176, awning).
holds(176, table).

sample(177).
holds(177, miscindustrial).
holds(177, watertreatment).
holds(177, industrial).
holds(177, pipe).
holds(177, truck).

sample(178).
holds(178, awning).
holds(178, table).

sample(179).
holds(179, awning).
holds(179, table).

sample(180).
holds(180, miscindustrial).
holds(180, watertreatment).
holds(180, industrial).
holds(180, pipe).
holds(180, truck).

sample(181).
holds(181, awning).
holds(181, table).

sample(182).
holds(182, awning).
holds(182, table).

sample(183).
holds(183, constructionsite).
holds(183, powerplant).
holds(183, industrial).
holds(183, chimney).
holds(183, pipe).
holds(183, machine).

sample(184).
holds(184, awning).
holds(184, table).

sample(185).
holds(185, awning).
holds(185, table).

sample(186).
holds(186, powerplant).
holds(186, watertreatment).
holds(186, industrial).
holds(186, awning).
holds(186, chimney).
holds(186, pipe).
holds(186, truck).

sample(187).
holds(187, awning).
holds(187, table).

sample(188).
holds(188, awning).
holds(188, table).

sample(189).
holds(189, miscindustrial).
holds(189, watertreatment).
holds(189, industrial).
holds(189, pipe).
holds(189, truck).

sample(190).
holds(190, awning).
holds(190, table).

sample(191).
holds(191, awning).
holds(191, table).

sample(192).
holds(192, constructionsite).
holds(192, powerplant).
holds(192, industrial).
holds(192, chimney).
holds(192, pipe).
holds(192, machine).

sample(193).
holds(193, awning).
holds(193, table).

sample(194).
holds(194, awning).
holds(194, table).

sample(195).
holds(195, powerplant).
holds(195, watertreatment).
holds(195, industrial).
holds(195, awning).
holds(195, chimney).
holds(195, pipe).
holds(195, truck).

sample(196).
holds(196, awning).
holds(196, table).

sample(197).
holds(197, awning).
holds(197, table).

sample(198).
holds(198, miscindustrial).
holds(198, industrial).
holds(198, truck).

sample(199).
holds(199, awning).
holds(199, table).

sample(200).
holds(200, awning).
holds(200, table).

sample(201).
holds(201, miscindustrial).
holds(201, industrial).
holds(201, truck).

sample(202).
holds(202, awning).
holds(202, table).

sample(203).
holds(203, awning).
holds(203, table).

sample(204).
holds(204, powerplant).
holds(204, industrial).
holds(204, chimney).
holds(204, pipe).

sample(205).
holds(205, awning).
holds(205, table).

sample(206).
holds(206, awning).
holds(206, table).

sample(207).
holds(207, watertreatment).
holds(207, industrial).
holds(207, awning).
holds(207, pipe).
holds(207, truck).

sample(208).
holds(208, awning).
holds(208, table).

sample(209).
holds(209, awning).
holds(209, table).

sample(210).
holds(210, constructionsite).
holds(210, powerplant).
holds(210, industrial).
holds(210, chimney).
holds(210, pipe).
holds(210, machine).

sample(211).
holds(211, awning).
holds(211, table).

sample(212).
holds(212, awning).
holds(212, table).

sample(213).
holds(213, powerplant).
holds(213, industrial).
holds(213, chimney).
holds(213, pipe).

sample(214).
holds(214, awning).
holds(214, table).

sample(215).
holds(215, awning).
holds(215, table).

sample(216).
holds(216, miscindustrial).
holds(216, industrial).
holds(216, truck).

sample(217).
holds(217, awning).
holds(217, table).

sample(218).
holds(218, awning).
holds(218, table).

sample(219).
holds(219, miscindustrial).
holds(219, powerplant).
holds(219, watertreatment).
holds(219, industrial).
holds(219, chimney).
holds(219, pipe).
holds(219, truck).

sample(220).
holds(220, awning).
holds(220, table).

sample(221).
holds(221, awning).
holds(221, table).

sample(222).
holds(222, powerplant).
holds(222, industrial).
holds(222, awning).
holds(222, chimney).
holds(222, pipe).

sample(223).
holds(223, awning).
holds(223, table).

sample(224).
holds(224, awning).
holds(224, table).

sample(225).
holds(225, constructionsite).
holds(225, powerplant).
holds(225, industrial).
holds(225, chimney).
holds(225, pipe).
holds(225, machine).

sample(226).
holds(226, awning).
holds(226, table).

sample(227).
holds(227, awning).
holds(227, table).

sample(228).
holds(228, constructionsite).
holds(228, powerplant).
holds(228, industrial).
holds(228, chimney).
holds(228, pipe).
holds(228, machine).

sample(229).
holds(229, awning).
holds(229, table).

sample(230).
holds(230, awning).
holds(230, table).

sample(231).
holds(231, miscindustrial).
holds(231, watertreatment).
holds(231, industrial).
holds(231, pipe).
holds(231, truck).

sample(232).
holds(232, awning).
holds(232, table).

sample(233).
holds(233, awning).
holds(233, table).

sample(234).
holds(234, miscindustrial).
holds(234, watertreatment).
holds(234, industrial).
holds(234, pipe).
holds(234, truck).

sample(235).
holds(235, awning).
holds(235, table).

sample(236).
holds(236, awning).
holds(236, table).

sample(237).
holds(237, miscindustrial).
holds(237, watertreatment).
holds(237, industrial).
holds(237, pipe).
holds(237, truck).

sample(238).
holds(238, awning).
holds(238, table).

sample(239).
holds(239, awning).
holds(239, table).

sample(240).
holds(240, constructionsite).
holds(240, powerplant).
holds(240, industrial).
holds(240, chimney).
holds(240, pipe).
holds(240, machine).

sample(241).
holds(241, awning).
holds(241, table).

sample(242).
holds(242, awning).
holds(242, table).

sample(243).
holds(243, powerplant).
holds(243, industrial).
holds(243, awning).
holds(243, chimney).
holds(243, pipe).

sample(244).
holds(244, awning).
holds(244, table).

sample(245).
holds(245, awning).
holds(245, table).

sample(246).
holds(246, miscindustrial).
holds(246, powerplant).
holds(246, watertreatment).
holds(246, industrial).
holds(246, chimney).
holds(246, pipe).
holds(246, truck).

sample(247).
holds(247, awning).
holds(247, table).

sample(248).
holds(248, awning).
holds(248, table).

sample(249).
holds(249, constructionsite).
holds(249, industrial).
holds(249, machine).

sample(250).
holds(250, awning).
holds(250, table).

sample(251).
holds(251, awning).
holds(251, table).

sample(252).
holds(252, miscindustrial).
holds(252, industrial).
holds(252, truck).

sample(253).
holds(253, awning).
holds(253, table).

sample(254).
holds(254, awning).
holds(254, table).

sample(255).
holds(255, miscindustrial).
holds(255, watertreatment).
holds(255, industrial).
holds(255, pipe).
holds(255, truck).

sample(256).
holds(256, awning).
holds(256, table).

sample(257).
holds(257, awning).
holds(257, table).

sample(258).
holds(258, constructionsite).
holds(258, powerplant).
holds(258, industrial).
holds(258, chimney).
holds(258, pipe).
holds(258, machine).

sample(259).
holds(259, awning).
holds(259, table).

sample(260).
holds(260, awning).
holds(260, table).

sample(261).
holds(261, miscindustrial).
holds(261, watertreatment).
holds(261, industrial).
holds(261, pipe).
holds(261, truck).

sample(262).
holds(262, awning).
holds(262, table).

sample(263).
holds(263, awning).
holds(263, table).

sample(264).
holds(264, constructionsite).
holds(264, powerplant).
holds(264, industrial).
holds(264, chimney).
holds(264, pipe).
holds(264, machine).

sample(265).
holds(265, awning).
holds(265, table).

sample(266).
holds(266, awning).
holds(266, table).

sample(267).
holds(267, miscindustrial).
holds(267, powerplant).
holds(267, watertreatment).
holds(267, industrial).
holds(267, chimney).
holds(267, pipe).
holds(267, truck).

sample(268).
holds(268, awning).
holds(268, table).

sample(269).
holds(269, awning).
holds(269, table).

sample(270).
holds(270, miscindustrial).
holds(270, industrial).
holds(270, truck).

sample(271).
holds(271, awning).
holds(271, table).

sample(272).
holds(272, powerplant).
holds(272, industrial).
holds(272, awning).
holds(272, chimney).
holds(272, pipe).

sample(273).
holds(273, constructionsite).
holds(273, industrial).
holds(273, chimney).
holds(273, machine).

sample(274).
holds(274, awning).
holds(274, table).

sample(275).
holds(275, awning).
holds(275, table).

sample(276).
holds(276, powerplant).
holds(276, industrial).
holds(276, awning).
holds(276, chimney).
holds(276, pipe).

sample(277).
holds(277, awning).
holds(277, table).

sample(278).
holds(278, awning).
holds(278, table).

sample(279).
holds(279, miscindustrial).
holds(279, powerplant).
holds(279, watertreatment).
holds(279, industrial).
holds(279, chimney).
holds(279, pipe).
holds(279, truck).

sample(280).
holds(280, awning).
holds(280, table).

sample(281).
holds(281, awning).
holds(281, table).

sample(282).
holds(282, constructionsite).
holds(282, powerplant).
holds(282, industrial).
holds(282, chimney).
holds(282, pipe).
holds(282, machine).

sample(283).
holds(283, awning).
holds(283, table).

sample(284).
holds(284, awning).
holds(284, table).

sample(285).
holds(285, powerplant).
holds(285, industrial).
holds(285, awning).
holds(285, chimney).
holds(285, pipe).

sample(286).
holds(286, awning).
holds(286, table).

sample(287).
holds(287, awning).
holds(287, table).

sample(288).
holds(288, powerplant).
holds(288, industrial).
holds(288, chimney).
holds(288, pipe).

sample(289).
holds(289, awning).
holds(289, table).

sample(290).
holds(290, awning).
holds(290, table).

sample(291).
holds(291, miscindustrial).
holds(291, industrial).
holds(291, truck).

sample(292).
holds(292, awning).
holds(292, table).

sample(293).
holds(293, awning).
holds(293, table).

sample(294).
holds(294, miscindustrial).
holds(294, watertreatment).
holds(294, industrial).
holds(294, truck).

sample(295).
holds(295, awning).
holds(295, table).

sample(296).
holds(296, awning).
holds(296, table).

sample(297).
holds(297, miscindustrial).
holds(297, powerplant).
holds(297, watertreatment).
holds(297, industrial).
holds(297, chimney).
holds(297, pipe).
holds(297, truck).

sample(298).
holds(298, awning).
holds(298, table).

sample(299).
holds(299, awning).
holds(299, table).

sample(300).
holds(300, miscindustrial).
holds(300, powerplant).
holds(300, watertreatment).
holds(300, industrial).
holds(300, chimney).
holds(300, pipe).
holds(300, truck).

sample(301).
holds(301, awning).
holds(301, table).

sample(302).
holds(302, awning).
holds(302, table).

sample(303).
holds(303, miscindustrial).
holds(303, watertreatment).
holds(303, industrial).
holds(303, truck).

sample(304).
holds(304, awning).
holds(304, table).

sample(305).
holds(305, awning).
holds(305, table).

sample(306).
holds(306, constructionsite).
holds(306, industrial).
holds(306, pipe).
holds(306, machine).

sample(307).
holds(307, awning).
holds(307, table).

sample(308).
holds(308, awning).
holds(308, table).

sample(309).
holds(309, miscindustrial).
holds(309, powerplant).
holds(309, watertreatment).
holds(309, industrial).
holds(309, chimney).
holds(309, pipe).
holds(309, truck).

sample(310).
holds(310, awning).
holds(310, table).

sample(311).
holds(311, awning).
holds(311, table).

sample(312).
holds(312, powerplant).
holds(312, industrial).
holds(312, awning).
holds(312, chimney).
holds(312, pipe).

sample(313).
holds(313, awning).
holds(313, table).

sample(314).
holds(314, awning).
holds(314, table).

sample(315).
holds(315, miscindustrial).
holds(315, watertreatment).
holds(315, industrial).
holds(315, truck).

sample(316).
holds(316, awning).
holds(316, table).

sample(317).
holds(317, awning).
holds(317, table).

sample(318).
holds(318, miscindustrial).
holds(318, watertreatment).
holds(318, industrial).
holds(318, pipe).
holds(318, truck).

sample(319).
holds(319, awning).
holds(319, table).

sample(320).
holds(320, awning).
holds(320, table).

sample(321).
holds(321, miscindustrial).
holds(321, powerplant).
holds(321, watertreatment).
holds(321, industrial).
holds(321, chimney).
holds(321, pipe).
holds(321, truck).

sample(322).
holds(322, awning).
holds(322, table).

sample(323).
holds(323, awning).
holds(323, table).

sample(324).
holds(324, miscindustrial).
holds(324, watertreatment).
holds(324, industrial).
holds(324, pipe).
holds(324, truck).

sample(325).
holds(325, awning).
holds(325, table).

sample(326).
holds(326, awning).
holds(326, table).

sample(327).
holds(327, constructionsite).
holds(327, industrial).
holds(327, machine).

sample(328).
holds(328, awning).
holds(328, table).

sample(329).
holds(329, awning).
holds(329, table).

sample(330).
holds(330, miscindustrial).
holds(330, industrial).
holds(330, truck).

sample(331).
holds(331, awning).
holds(331, table).

sample(332).
holds(332, awning).
holds(332, table).

sample(333).
holds(333, powerplant).
holds(333, industrial).
holds(333, awning).
holds(333, chimney).
holds(333, pipe).

sample(334).
holds(334, awning).
holds(334, table).

sample(335).
holds(335, awning).
holds(335, table).

sample(336).
holds(336, powerplant).
holds(336, industrial).
holds(336, chimney).
holds(336, pipe).

sample(337).
holds(337, awning).
holds(337, table).

sample(338).
holds(338, awning).
holds(338, table).

sample(339).
holds(339, miscindustrial).
holds(339, watertreatment).
holds(339, industrial).
holds(339, truck).

sample(340).
holds(340, awning).
holds(340, table).

sample(341).
holds(341, awning).
holds(341, table).

sample(342).
holds(342, constructionsite).
holds(342, industrial).
holds(342, machine).

sample(343).
holds(343, awning).
holds(343, table).

sample(344).
holds(344, awning).
holds(344, table).

sample(345).
holds(345, miscindustrial).
holds(345, industrial).
holds(345, truck).

sample(346).
holds(346, awning).
holds(346, table).

sample(347).
holds(347, awning).
holds(347, table).

sample(348).
holds(348, miscindustrial).
holds(348, watertreatment).
holds(348, industrial).
holds(348, pipe).
holds(348, truck).

sample(349).
holds(349, awning).
holds(349, table).

sample(350).
holds(350, awning).
holds(350, table).

sample(351).
holds(351, constructionsite).
holds(351, industrial).
holds(351, machine).

sample(352).
holds(352, awning).
holds(352, table).

sample(353).
holds(353, awning).
holds(353, table).

sample(354).
holds(354, powerplant).
holds(354, watertreatment).
holds(354, industrial).
holds(354, awning).
holds(354, chimney).
holds(354, pipe).
holds(354, truck).

sample(355).
holds(355, awning).
holds(355, table).

sample(356).
holds(356, awning).
holds(356, table).

sample(357).
holds(357, powerplant).
holds(357, industrial).
holds(357, chimney).
holds(357, pipe).

sample(358).
holds(358, awning).
holds(358, table).

sample(359).
holds(359, awning).
holds(359, table).

sample(360).
holds(360, powerplant).
holds(360, industrial).
holds(360, awning).
holds(360, chimney).
holds(360, pipe).

sample(361).
holds(361, awning).
holds(361, table).

sample(362).
holds(362, awning).
holds(362, table).

sample(363).
holds(363, constructionsite).
holds(363, powerplant).
holds(363, industrial).
holds(363, chimney).
holds(363, pipe).
holds(363, machine).

sample(364).
holds(364, awning).
holds(364, table).

sample(365).
holds(365, awning).
holds(365, table).

sample(366).
holds(366, powerplant).
holds(366, industrial).
holds(366, chimney).
holds(366, pipe).

sample(367).
holds(367, awning).
holds(367, table).

sample(368).
holds(368, awning).
holds(368, table).

sample(369).
holds(369, powerplant).
holds(369, watertreatment).
holds(369, industrial).
holds(369, awning).
holds(369, chimney).
holds(369, pipe).
holds(369, truck).

sample(370).
holds(370, awning).
holds(370, table).

sample(371).
holds(371, awning).
holds(371, table).

sample(372).
holds(372, powerplant).
holds(372, industrial).
holds(372, awning).
holds(372, chimney).
holds(372, pipe).

sample(373).
holds(373, awning).
holds(373, table).

sample(374).
holds(374, awning).
holds(374, table).

sample(375).
holds(375, constructionsite).
holds(375, industrial).
holds(375, pipe).
holds(375, machine).

sample(376).
holds(376, awning).
holds(376, table).

sample(377).
holds(377, awning).
holds(377, table).

sample(378).
holds(378, miscindustrial).
holds(378, powerplant).
holds(378, watertreatment).
holds(378, industrial).
holds(378, chimney).
holds(378, pipe).
holds(378, truck).

sample(379).
holds(379, awning).
holds(379, table).

sample(380).
holds(380, awning).
holds(380, table).

sample(381).
holds(381, powerplant).
holds(381, industrial).
holds(381, chimney).
holds(381, pipe).

sample(382).
holds(382, awning).
holds(382, table).

sample(383).
holds(383, awning).
holds(383, table).

sample(384).
holds(384, constructionsite).
holds(384, powerplant).
holds(384, industrial).
holds(384, chimney).
holds(384, pipe).
holds(384, machine).

sample(385).
holds(385, awning).
holds(385, table).

sample(386).
holds(386, awning).
holds(386, table).

sample(387).
holds(387, constructionsite).
holds(387, industrial).
holds(387, machine).

sample(388).
holds(388, awning).
holds(388, table).

sample(389).
holds(389, awning).
holds(389, table).

sample(390).
holds(390, powerplant).
holds(390, industrial).
holds(390, awning).
holds(390, chimney).
holds(390, pipe).

sample(391).
holds(391, awning).
holds(391, table).

sample(392).
holds(392, awning).
holds(392, table).

sample(393).
holds(393, powerplant).
holds(393, industrial).
holds(393, awning).
holds(393, chimney).
holds(393, pipe).

sample(394).
holds(394, awning).
holds(394, table).

sample(395).
holds(395, awning).
holds(395, table).

sample(396).
holds(396, powerplant).
holds(396, industrial).
holds(396, awning).
holds(396, chimney).
holds(396, pipe).

sample(397).
holds(397, awning).
holds(397, table).

sample(398).
holds(398, awning).
holds(398, table).

sample(399).
holds(399, constructionsite).
holds(399, powerplant).
holds(399, industrial).
holds(399, chimney).
holds(399, pipe).
holds(399, machine).

sample(400).
holds(400, awning).
holds(400, table).

sample(401).
holds(401, awning).
holds(401, table).

sample(402).
holds(402, constructionsite).
holds(402, industrial).
holds(402, machine).

sample(403).
holds(403, awning).
holds(403, table).

sample(404).
holds(404, awning).
holds(404, table).

sample(405).
holds(405, powerplant).
holds(405, industrial).
holds(405, awning).
holds(405, chimney).
holds(405, pipe).

sample(406).
holds(406, awning).
holds(406, table).

sample(407).
holds(407, awning).
holds(407, table).

sample(408).
holds(408, constructionsite).
holds(408, industrial).
holds(408, machine).

sample(409).
holds(409, awning).
holds(409, table).

sample(410).
holds(410, awning).
holds(410, table).

sample(411).
holds(411, powerplant).
holds(411, industrial).
holds(411, chimney).
holds(411, pipe).

sample(412).
holds(412, awning).
holds(412, table).

sample(413).
holds(413, awning).
holds(413, table).

sample(414).
holds(414, constructionsite).
holds(414, industrial).
holds(414, machine).

sample(415).
holds(415, awning).
holds(415, table).

sample(416).
holds(416, awning).
holds(416, table).

sample(417).
holds(417, miscindustrial).
holds(417, powerplant).
holds(417, watertreatment).
holds(417, industrial).
holds(417, chimney).
holds(417, pipe).
holds(417, truck).

sample(418).
holds(418, awning).
holds(418, table).

sample(419).
holds(419, awning).
holds(419, table).

sample(420).
holds(420, miscindustrial).
holds(420, industrial).
holds(420, truck).

sample(421).
holds(421, awning).
holds(421, table).

sample(422).
holds(422, awning).
holds(422, table).

sample(423).
holds(423, constructionsite).
holds(423, industrial).
holds(423, pipe).
holds(423, machine).

sample(424).
holds(424, awning).
holds(424, table).

sample(425).
holds(425, awning).
holds(425, table).

sample(426).
holds(426, miscindustrial).
holds(426, industrial).
holds(426, truck).

sample(427).
holds(427, awning).
holds(427, table).

sample(428).
holds(428, awning).
holds(428, table).

sample(429).
holds(429, miscindustrial).
holds(429, industrial).
holds(429, truck).

sample(430).
holds(430, awning).
holds(430, table).

sample(431).
holds(431, awning).
holds(431, table).

sample(432).
holds(432, constructionsite).
holds(432, industrial).
holds(432, machine).

sample(433).
holds(433, awning).
holds(433, table).

sample(434).
holds(434, awning).
holds(434, table).

sample(435).
holds(435, constructionsite).
holds(435, powerplant).
holds(435, industrial).
holds(435, chimney).
holds(435, machine).

sample(436).
holds(436, awning).
holds(436, table).

sample(437).
holds(437, awning).
holds(437, table).

sample(438).
holds(438, miscindustrial).
holds(438, watertreatment).
holds(438, industrial).
holds(438, pipe).
holds(438, truck).

sample(439).
holds(439, awning).
holds(439, table).

sample(440).
holds(440, awning).
holds(440, table).

sample(441).
holds(441, miscindustrial).
holds(441, powerplant).
holds(441, watertreatment).
holds(441, industrial).
holds(441, chimney).
holds(441, pipe).
holds(441, truck).

sample(442).
holds(442, awning).
holds(442, table).

sample(443).
holds(443, awning).
holds(443, table).

sample(444).
holds(444, constructionsite).
holds(444, industrial).
holds(444, pipe).
holds(444, machine).

sample(445).
holds(445, awning).
holds(445, table).

sample(446).
holds(446, awning).
holds(446, table).

sample(447).
holds(447, miscindustrial).
holds(447, watertreatment).
holds(447, industrial).
holds(447, pipe).
holds(447, truck).

sample(448).
holds(448, awning).
holds(448, table).

sample(449).
holds(449, awning).
holds(449, table).

sample(450).
holds(450, miscindustrial).
holds(450, watertreatment).
holds(450, industrial).
holds(450, truck).

sample(451).
holds(451, awning).
holds(451, table).

sample(452).
holds(452, awning).
holds(452, table).

sample(453).
holds(453, constructionsite).
holds(453, industrial).
holds(453, machine).

sample(454).
holds(454, awning).
holds(454, table).

sample(455).
holds(455, awning).
holds(455, table).

sample(456).
holds(456, miscindustrial).
holds(456, watertreatment).
holds(456, industrial).
holds(456, pipe).
holds(456, truck).

sample(457).
holds(457, awning).
holds(457, table).

sample(458).
holds(458, awning).
holds(458, table).

sample(459).
holds(459, constructionsite).
holds(459, industrial).
holds(459, machine).

sample(460).
holds(460, awning).
holds(460, table).

sample(461).
holds(461, awning).
holds(461, table).

sample(462).
holds(462, miscindustrial).
holds(462, watertreatment).
holds(462, industrial).
holds(462, pipe).
holds(462, truck).

sample(463).
holds(463, awning).
holds(463, table).

sample(464).
holds(464, awning).
holds(464, table).

sample(465).
holds(465, miscindustrial).
holds(465, powerplant).
holds(465, watertreatment).
holds(465, industrial).
holds(465, chimney).
holds(465, pipe).
holds(465, truck).

sample(466).
holds(466, awning).
holds(466, table).

sample(467).
holds(467, awning).
holds(467, table).

sample(468).
holds(468, miscindustrial).
holds(468, watertreatment).
holds(468, industrial).
holds(468, pipe).
holds(468, truck).

sample(469).
holds(469, awning).
holds(469, table).

sample(470).
holds(470, awning).
holds(470, table).

sample(471).
holds(471, constructionsite).
holds(471, industrial).
holds(471, machine).

sample(472).
holds(472, awning).
holds(472, table).

sample(473).
holds(473, awning).
holds(473, table).

sample(474).
holds(474, miscindustrial).
holds(474, powerplant).
holds(474, watertreatment).
holds(474, industrial).
holds(474, chimney).
holds(474, pipe).
holds(474, truck).

sample(475).
holds(475, awning).
holds(475, table).

sample(476).
holds(476, awning).
holds(476, table).

sample(477).
holds(477, constructionsite).
holds(477, powerplant).
holds(477, industrial).
holds(477, chimney).
holds(477, pipe).
holds(477, machine).

sample(478).
holds(478, awning).
holds(478, table).

sample(479).
holds(479, awning).
holds(479, table).

sample(480).
holds(480, powerplant).
holds(480, industrial).
holds(480, chimney).
holds(480, pipe).

sample(481).
holds(481, awning).
holds(481, table).

sample(482).
holds(482, awning).
holds(482, table).

sample(483).
holds(483, miscindustrial).
holds(483, industrial).
holds(483, truck).

sample(484).
holds(484, awning).
holds(484, table).

sample(485).
holds(485, awning).
holds(485, table).

sample(486).
holds(486, miscindustrial).
holds(486, powerplant).
holds(486, watertreatment).
holds(486, industrial).
holds(486, chimney).
holds(486, pipe).
holds(486, truck).

sample(487).
holds(487, awning).
holds(487, table).

sample(488).
holds(488, awning).
holds(488, table).

sample(489).
holds(489, powerplant).
holds(489, industrial).
holds(489, awning).
holds(489, chimney).
holds(489, pipe).

sample(490).
holds(490, awning).
holds(490, table).

sample(491).
holds(491, awning).
holds(491, table).

sample(492).
holds(492, powerplant).
holds(492, industrial).
holds(492, awning).
holds(492, chimney).
holds(492, pipe).

sample(493).
holds(493, awning).
holds(493, table).

sample(494).
holds(494, awning).
holds(494, table).

sample(495).
holds(495, constructionsite).
holds(495, powerplant).
holds(495, industrial).
holds(495, chimney).
holds(495, pipe).
holds(495, machine).

sample(496).
holds(496, awning).
holds(496, table).

sample(497).
holds(497, awning).
holds(497, table).

sample(498).
holds(498, constructionsite).
holds(498, industrial).
holds(498, pipe).
holds(498, machine).

sample(499).
holds(499, awning).
holds(499, table).

sample(500).
holds(500, awning).
holds(500, table).

sample(501).
holds(501, watertreatment).
holds(501, industrial).
holds(501, awning).
holds(501, pipe).
holds(501, truck).

sample(502).
holds(502, awning).
holds(502, table).

sample(503).
holds(503, awning).
holds(503, table).

sample(504).
holds(504, constructionsite).
holds(504, powerplant).
holds(504, industrial).
holds(504, chimney).
holds(504, pipe).
holds(504, machine).

sample(505).
holds(505, awning).
holds(505, table).

sample(506).
holds(506, awning).
holds(506, table).

sample(507).
holds(507, constructionsite).
holds(507, powerplant).
holds(507, industrial).
holds(507, chimney).
holds(507, pipe).
holds(507, machine).

sample(508).
holds(508, awning).
holds(508, table).

sample(509).
holds(509, awning).
holds(509, table).

sample(510).
holds(510, miscindustrial).
holds(510, industrial).
holds(510, truck).

sample(511).
holds(511, awning).
holds(511, table).

sample(512).
holds(512, awning).
holds(512, table).

sample(513).
holds(513, powerplant).
holds(513, industrial).
holds(513, awning).
holds(513, chimney).

sample(514).
holds(514, awning).
holds(514, table).

sample(515).
holds(515, awning).
holds(515, table).

sample(516).
holds(516, constructionsite).
holds(516, industrial).
holds(516, machine).

sample(517).
holds(517, awning).
holds(517, table).

sample(518).
holds(518, awning).
holds(518, table).

sample(519).
holds(519, powerplant).
holds(519, industrial).
holds(519, awning).
holds(519, chimney).
holds(519, pipe).

sample(520).
holds(520, awning).
holds(520, table).

sample(521).
holds(521, awning).
holds(521, table).

sample(522).
holds(522, miscindustrial).
holds(522, powerplant).
holds(522, watertreatment).
holds(522, industrial).
holds(522, chimney).
holds(522, pipe).
holds(522, truck).

sample(523).
holds(523, awning).
holds(523, table).

sample(524).
holds(524, industrial).
holds(524, pipe).

sample(525).
holds(525, miscindustrial).
holds(525, watertreatment).
holds(525, industrial).
holds(525, truck).

sample(526).
holds(526, awning).
holds(526, table).

sample(527).
holds(527, awning).
holds(527, table).

sample(528).
holds(528, miscindustrial).
holds(528, powerplant).
holds(528, watertreatment).
holds(528, industrial).
holds(528, chimney).
holds(528, pipe).
holds(528, truck).

sample(529).
holds(529, awning).
holds(529, table).

sample(530).
holds(530, awning).
holds(530, table).

sample(531).
holds(531, miscindustrial).
holds(531, powerplant).
holds(531, watertreatment).
holds(531, industrial).
holds(531, chimney).
holds(531, pipe).
holds(531, truck).

sample(532).
holds(532, awning).
holds(532, table).

sample(533).
holds(533, awning).
holds(533, table).

sample(534).
holds(534, constructionsite).
holds(534, industrial).
holds(534, machine).

sample(535).
holds(535, awning).
holds(535, table).

sample(536).
holds(536, awning).
holds(536, table).

sample(537).
holds(537, miscindustrial).
holds(537, powerplant).
holds(537, watertreatment).
holds(537, industrial).
holds(537, chimney).
holds(537, pipe).
holds(537, truck).

sample(538).
holds(538, awning).
holds(538, table).

sample(539).
holds(539, awning).
holds(539, table).

sample(540).
holds(540, powerplant).
holds(540, watertreatment).
holds(540, industrial).
holds(540, awning).
holds(540, chimney).
holds(540, pipe).
holds(540, truck).

sample(541).
holds(541, awning).
holds(541, table).

sample(542).
holds(542, awning).
holds(542, table).

sample(543).
holds(543, miscindustrial).
holds(543, powerplant).
holds(543, watertreatment).
holds(543, industrial).
holds(543, chimney).
holds(543, pipe).
holds(543, truck).

sample(544).
holds(544, awning).
holds(544, table).

sample(545).
holds(545, awning).
holds(545, table).

sample(546).
holds(546, miscindustrial).
holds(546, watertreatment).
holds(546, industrial).
holds(546, pipe).
holds(546, truck).

sample(547).
holds(547, awning).
holds(547, table).

sample(548).
holds(548, awning).
holds(548, table).

sample(549).
holds(549, constructionsite).
holds(549, industrial).
holds(549, machine).

sample(550).
holds(550, awning).
holds(550, table).

sample(551).
holds(551, awning).
holds(551, table).

sample(552).
holds(552, miscindustrial).
holds(552, industrial).
holds(552, truck).

sample(553).
holds(553, awning).
holds(553, table).

sample(554).
holds(554, awning).
holds(554, table).

sample(555).
holds(555, constructionsite).
holds(555, industrial).
holds(555, machine).

sample(556).
holds(556, awning).
holds(556, table).

sample(557).
holds(557, awning).
holds(557, table).

sample(558).
holds(558, powerplant).
holds(558, industrial).
holds(558, awning).
holds(558, chimney).
holds(558, pipe).

sample(559).
holds(559, awning).
holds(559, table).

sample(560).
holds(560, awning).
holds(560, table).

sample(561).
holds(561, powerplant).
holds(561, industrial).
holds(561, chimney).
holds(561, pipe).

sample(562).
holds(562, awning).
holds(562, table).

sample(563).
holds(563, awning).
holds(563, table).

sample(564).
holds(564, powerplant).
holds(564, industrial).
holds(564, chimney).
holds(564, pipe).

sample(565).
holds(565, awning).
holds(565, table).

sample(566).
holds(566, awning).
holds(566, table).

sample(567).
holds(567, watertreatment).
holds(567, industrial).
holds(567, awning).
holds(567, pipe).
holds(567, truck).

sample(568).
holds(568, awning).
holds(568, table).

sample(569).
holds(569, awning).
holds(569, table).

sample(570).
holds(570, miscindustrial).
holds(570, watertreatment).
holds(570, industrial).
holds(570, pipe).
holds(570, truck).

sample(571).
holds(571, awning).
holds(571, table).

sample(572).
holds(572, awning).
holds(572, table).

sample(573).
holds(573, constructionsite).
holds(573, industrial).
holds(573, machine).

sample(574).
holds(574, awning).
holds(574, table).

sample(575).
holds(575, awning).
holds(575, table).

sample(576).
holds(576, miscindustrial).
holds(576, powerplant).
holds(576, watertreatment).
holds(576, industrial).
holds(576, chimney).
holds(576, pipe).
holds(576, truck).

sample(577).
holds(577, awning).
holds(577, table).

sample(578).
holds(578, awning).
holds(578, table).

sample(579).
holds(579, powerplant).
holds(579, industrial).
holds(579, chimney).
holds(579, pipe).

sample(580).
holds(580, awning).
holds(580, table).

sample(581).
holds(581, awning).
holds(581, table).

sample(582).
holds(582, miscindustrial).
holds(582, powerplant).
holds(582, watertreatment).
holds(582, industrial).
holds(582, chimney).
holds(582, pipe).
holds(582, truck).

sample(583).
holds(583, awning).
holds(583, table).

sample(584).
holds(584, awning).
holds(584, table).

sample(585).
holds(585, miscindustrial).
holds(585, watertreatment).
holds(585, industrial).
holds(585, pipe).
holds(585, truck).

sample(586).
holds(586, awning).
holds(586, table).

sample(587).
holds(587, awning).
holds(587, table).

sample(588).
holds(588, miscindustrial).
holds(588, watertreatment).
holds(588, industrial).
holds(588, pipe).
holds(588, truck).

sample(589).
holds(589, awning).
holds(589, table).

sample(590).
holds(590, awning).
holds(590, table).

sample(591).
holds(591, miscindustrial).
holds(591, powerplant).
holds(591, watertreatment).
holds(591, industrial).
holds(591, chimney).
holds(591, pipe).
holds(591, truck).

sample(592).
holds(592, awning).
holds(592, table).

sample(593).
holds(593, awning).
holds(593, table).

sample(594).
holds(594, miscindustrial).
holds(594, powerplant).
holds(594, watertreatment).
holds(594, industrial).
holds(594, chimney).
holds(594, pipe).
holds(594, truck).

sample(595).
holds(595, awning).
holds(595, table).

sample(596).
holds(596, awning).
holds(596, table).

sample(597).
holds(597, miscindustrial).
holds(597, powerplant).
holds(597, watertreatment).
holds(597, industrial).
holds(597, chimney).
holds(597, pipe).
holds(597, truck).

sample(598).
holds(598, awning).
holds(598, table).

sample(599).
holds(599, awning).
holds(599, table).

sample(600).
holds(600, miscindustrial).
holds(600, watertreatment).
holds(600, industrial).
holds(600, pipe).
holds(600, truck).

sample(601).
holds(601, awning).
holds(601, table).

sample(602).
holds(602, awning).
holds(602, table).

sample(603).
holds(603, miscindustrial).
holds(603, watertreatment).
holds(603, industrial).
holds(603, pipe).
holds(603, truck).

sample(604).
holds(604, awning).
holds(604, table).

sample(605).
holds(605, awning).
holds(605, table).

sample(606).
holds(606, constructionsite).
holds(606, industrial).
holds(606, machine).

sample(607).
holds(607, awning).
holds(607, table).

sample(608).
holds(608, awning).
holds(608, table).

sample(609).
holds(609, watertreatment).
holds(609, industrial).
holds(609, awning).
holds(609, pipe).
holds(609, truck).

sample(610).
holds(610, awning).
holds(610, table).

sample(611).
holds(611, awning).
holds(611, table).

sample(612).
holds(612, powerplant).
holds(612, watertreatment).
holds(612, industrial).
holds(612, awning).
holds(612, chimney).
holds(612, pipe).
holds(612, truck).

sample(613).
holds(613, awning).
holds(613, table).

sample(614).
holds(614, awning).
holds(614, table).

sample(615).
holds(615, miscindustrial).
holds(615, watertreatment).
holds(615, industrial).
holds(615, pipe).
holds(615, truck).

sample(616).
holds(616, awning).
holds(616, table).

sample(617).
holds(617, awning).
holds(617, table).

sample(618).
holds(618, constructionsite).
holds(618, powerplant).
holds(618, industrial).
holds(618, chimney).
holds(618, pipe).
holds(618, machine).

sample(619).
holds(619, awning).
holds(619, table).

sample(620).
holds(620, awning).
holds(620, table).

sample(621).
holds(621, miscindustrial).
holds(621, watertreatment).
holds(621, industrial).
holds(621, pipe).
holds(621, truck).

sample(622).
holds(622, awning).
holds(622, table).

sample(623).
holds(623, awning).
holds(623, table).

sample(624).
holds(624, powerplant).
holds(624, industrial).
holds(624, awning).
holds(624, chimney).
holds(624, pipe).

sample(625).
holds(625, awning).
holds(625, table).

sample(626).
holds(626, awning).
holds(626, table).

sample(627).
holds(627, constructionsite).
holds(627, powerplant).
holds(627, industrial).
holds(627, chimney).
holds(627, pipe).
holds(627, machine).

sample(628).
holds(628, awning).
holds(628, table).

sample(629).
holds(629, awning).
holds(629, table).

sample(630).
holds(630, constructionsite).
holds(630, industrial).
holds(630, machine).

sample(631).
holds(631, awning).
holds(631, table).

sample(632).
holds(632, awning).
holds(632, table).

sample(633).
holds(633, powerplant).
holds(633, industrial).
holds(633, awning).
holds(633, chimney).
holds(633, pipe).

sample(634).
holds(634, awning).
holds(634, table).

sample(635).
holds(635, awning).
holds(635, table).

sample(636).
holds(636, miscindustrial).
holds(636, powerplant).
holds(636, watertreatment).
holds(636, industrial).
holds(636, chimney).
holds(636, pipe).
holds(636, truck).

sample(637).
holds(637, awning).
holds(637, table).

sample(638).
holds(638, awning).
holds(638, table).

sample(639).
holds(639, powerplant).
holds(639, industrial).
holds(639, awning).
holds(639, chimney).
holds(639, pipe).

sample(640).
holds(640, awning).
holds(640, table).

sample(641).
holds(641, awning).
holds(641, table).

sample(642).
holds(642, powerplant).
holds(642, industrial).
holds(642, awning).
holds(642, chimney).
holds(642, pipe).

sample(643).
holds(643, awning).
holds(643, table).

sample(644).
holds(644, awning).
holds(644, table).

sample(645).
holds(645, miscindustrial).
holds(645, powerplant).
holds(645, watertreatment).
holds(645, industrial).
holds(645, chimney).
holds(645, pipe).
holds(645, truck).

sample(646).
holds(646, awning).
holds(646, table).

sample(647).
holds(647, awning).
holds(647, table).

sample(648).
holds(648, miscindustrial).
holds(648, watertreatment).
holds(648, industrial).
holds(648, pipe).
holds(648, truck).

sample(649).
holds(649, awning).
holds(649, table).

sample(650).
holds(650, awning).
holds(650, table).

sample(651).
holds(651, miscindustrial).
holds(651, industrial).
holds(651, truck).

sample(652).
holds(652, awning).
holds(652, table).

sample(653).
holds(653, awning).
holds(653, table).

sample(654).
holds(654, watertreatment).
holds(654, industrial).
holds(654, awning).
holds(654, pipe).
holds(654, truck).

sample(655).
holds(655, awning).
holds(655, table).

sample(656).
holds(656, awning).
holds(656, table).

sample(657).
holds(657, powerplant).
holds(657, industrial).
holds(657, chimney).
holds(657, pipe).

sample(658).
holds(658, awning).
holds(658, table).

sample(659).
holds(659, awning).
holds(659, table).

sample(660).
holds(660, miscindustrial).
holds(660, powerplant).
holds(660, watertreatment).
holds(660, industrial).
holds(660, chimney).
holds(660, pipe).
holds(660, truck).

sample(661).
holds(661, awning).
holds(661, table).

sample(662).
holds(662, awning).
holds(662, table).

sample(663).
holds(663, constructionsite).
holds(663, powerplant).
holds(663, industrial).
holds(663, chimney).
holds(663, pipe).
holds(663, machine).

sample(664).
holds(664, awning).
holds(664, table).

sample(665).
holds(665, awning).
holds(665, table).

sample(666).
holds(666, miscindustrial).
holds(666, powerplant).
holds(666, watertreatment).
holds(666, industrial).
holds(666, chimney).
holds(666, pipe).
holds(666, truck).

sample(667).
holds(667, awning).
holds(667, table).

sample(668).
holds(668, awning).
holds(668, table).

sample(669).
holds(669, constructionsite).
holds(669, industrial).
holds(669, machine).

sample(670).
holds(670, awning).
holds(670, table).

sample(671).
holds(671, awning).
holds(671, table).

sample(672).
holds(672, miscindustrial).
holds(672, watertreatment).
holds(672, industrial).
holds(672, pipe).
holds(672, truck).

sample(673).
holds(673, awning).
holds(673, table).

sample(674).
holds(674, awning).
holds(674, table).

sample(675).
holds(675, miscindustrial).
holds(675, powerplant).
holds(675, watertreatment).
holds(675, industrial).
holds(675, chimney).
holds(675, pipe).
holds(675, truck).

sample(676).
holds(676, awning).
holds(676, table).

sample(677).
holds(677, awning).
holds(677, table).

sample(678).
holds(678, miscindustrial).
holds(678, powerplant).
holds(678, watertreatment).
holds(678, industrial).
holds(678, chimney).
holds(678, pipe).
holds(678, truck).

sample(679).
holds(679, awning).
holds(679, table).

sample(680).
holds(680, awning).
holds(680, table).

sample(681).
holds(681, constructionsite).
holds(681, powerplant).
holds(681, industrial).
holds(681, chimney).
holds(681, pipe).
holds(681, machine).

sample(682).
holds(682, awning).
holds(682, table).

sample(683).
holds(683, awning).
holds(683, table).

sample(684).
holds(684, miscindustrial).
holds(684, powerplant).
holds(684, watertreatment).
holds(684, industrial).
holds(684, chimney).
holds(684, pipe).
holds(684, truck).

sample(685).
holds(685, awning).
holds(685, table).

sample(686).
holds(686, awning).
holds(686, table).

sample(687).
holds(687, constructionsite).
holds(687, industrial).
holds(687, pipe).
holds(687, machine).

sample(688).
holds(688, awning).
holds(688, table).

sample(689).
holds(689, awning).
holds(689, table).

sample(690).
holds(690, miscindustrial).
holds(690, powerplant).
holds(690, watertreatment).
holds(690, industrial).
holds(690, chimney).
holds(690, pipe).
holds(690, truck).

sample(691).
holds(691, awning).
holds(691, table).

sample(692).
holds(692, awning).
holds(692, table).

sample(693).
holds(693, constructionsite).
holds(693, industrial).
holds(693, machine).

sample(694).
holds(694, awning).
holds(694, table).

sample(695).
holds(695, awning).
holds(695, table).

sample(696).
holds(696, constructionsite).
holds(696, powerplant).
holds(696, industrial).
holds(696, chimney).
holds(696, pipe).
holds(696, machine).

sample(697).
holds(697, awning).
holds(697, table).

sample(698).
holds(698, powerplant).
holds(698, industrial).
holds(698, awning).
holds(698, chimney).
holds(698, pipe).

sample(699).
holds(699, powerplant).
holds(699, industrial).
holds(699, chimney).
holds(699, pipe).

sample(700).
holds(700, awning).
holds(700, table).

sample(701).
holds(701, awning).
holds(701, table).

sample(702).
holds(702, miscindustrial).
holds(702, watertreatment).
holds(702, industrial).
holds(702, pipe).
holds(702, truck).

sample(703).
holds(703, awning).
holds(703, table).

sample(704).
holds(704, awning).
holds(704, table).

sample(705).
holds(705, constructionsite).
holds(705, powerplant).
holds(705, industrial).
holds(705, chimney).
holds(705, pipe).
holds(705, machine).

sample(706).
holds(706, awning).
holds(706, table).

sample(707).
holds(707, awning).
holds(707, table).

sample(708).
holds(708, miscindustrial).
holds(708, watertreatment).
holds(708, industrial).
holds(708, pipe).
holds(708, truck).

sample(709).
holds(709, awning).
holds(709, table).

sample(710).
holds(710, awning).
holds(710, table).

sample(711).
holds(711, constructionsite).
holds(711, industrial).
holds(711, machine).

sample(712).
holds(712, awning).
holds(712, table).

sample(713).
holds(713, awning).
holds(713, table).

sample(714).
holds(714, miscindustrial).
holds(714, powerplant).
holds(714, watertreatment).
holds(714, industrial).
holds(714, chimney).
holds(714, pipe).
holds(714, truck).

sample(715).
holds(715, awning).
holds(715, table).

sample(716).
holds(716, awning).
holds(716, table).

sample(717).
holds(717, miscindustrial).
holds(717, watertreatment).
holds(717, industrial).
holds(717, truck).

sample(718).
holds(718, awning).
holds(718, table).

sample(719).
holds(719, awning).
holds(719, table).

sample(720).
holds(720, powerplant).
holds(720, industrial).
holds(720, awning).
holds(720, chimney).
holds(720, pipe).

sample(721).
holds(721, awning).
holds(721, table).

sample(722).
holds(722, awning).
holds(722, table).

sample(723).
holds(723, miscindustrial).
holds(723, industrial).
holds(723, truck).

sample(724).
holds(724, awning).
holds(724, table).

sample(725).
holds(725, awning).
holds(725, table).

sample(726).
holds(726, constructionsite).
holds(726, powerplant).
holds(726, industrial).
holds(726, chimney).
holds(726, pipe).
holds(726, machine).

sample(727).
holds(727, awning).
holds(727, table).

sample(728).
holds(728, awning).
holds(728, table).

sample(729).
holds(729, miscindustrial).
holds(729, industrial).
holds(729, truck).

sample(730).
holds(730, awning).
holds(730, table).

sample(731).
holds(731, awning).
holds(731, table).

sample(732).
holds(732, miscindustrial).
holds(732, powerplant).
holds(732, watertreatment).
holds(732, industrial).
holds(732, chimney).
holds(732, pipe).
holds(732, truck).

sample(733).
holds(733, awning).
holds(733, table).

sample(734).
holds(734, awning).
holds(734, table).

sample(735).
holds(735, constructionsite).
holds(735, powerplant).
holds(735, industrial).
holds(735, chimney).
holds(735, pipe).
holds(735, machine).

sample(736).
holds(736, awning).
holds(736, table).

sample(737).
holds(737, awning).
holds(737, table).

sample(738).
holds(738, powerplant).
holds(738, industrial).
holds(738, awning).
holds(738, chimney).
holds(738, pipe).

sample(739).
holds(739, awning).
holds(739, table).

sample(740).
holds(740, awning).
holds(740, table).

sample(741).
holds(741, constructionsite).
holds(741, industrial).
holds(741, machine).

sample(742).
holds(742, awning).
holds(742, table).

sample(743).
holds(743, awning).
holds(743, table).

sample(744).
holds(744, miscindustrial).
holds(744, watertreatment).
holds(744, industrial).
holds(744, pipe).
holds(744, truck).

sample(745).
holds(745, awning).
holds(745, table).

sample(746).
holds(746, awning).
holds(746, table).

sample(747).
holds(747, miscindustrial).
holds(747, powerplant).
holds(747, watertreatment).
holds(747, industrial).
holds(747, chimney).
holds(747, pipe).
holds(747, truck).

sample(748).
holds(748, awning).
holds(748, table).

sample(749).
holds(749, awning).
holds(749, table).

sample(750).
holds(750, constructionsite).
holds(750, industrial).
holds(750, pipe).
holds(750, machine).

sample(751).
holds(751, awning).
holds(751, table).

sample(752).
holds(752, awning).
holds(752, table).

sample(753).
holds(753, miscindustrial).
holds(753, watertreatment).
holds(753, industrial).
holds(753, truck).

sample(754).
holds(754, awning).
holds(754, table).

sample(755).
holds(755, awning).
holds(755, table).

sample(756).
holds(756, constructionsite).
holds(756, powerplant).
holds(756, industrial).
holds(756, chimney).
holds(756, pipe).
holds(756, machine).

sample(757).
holds(757, awning).
holds(757, table).

sample(758).
holds(758, awning).
holds(758, table).

sample(759).
holds(759, miscindustrial).
holds(759, watertreatment).
holds(759, industrial).
holds(759, truck).

sample(760).
holds(760, awning).
holds(760, table).

sample(761).
holds(761, awning).
holds(761, table).

sample(762).
holds(762, powerplant).
holds(762, watertreatment).
holds(762, industrial).
holds(762, awning).
holds(762, chimney).
holds(762, pipe).
holds(762, truck).

sample(763).
holds(763, awning).
holds(763, table).

sample(764).
holds(764, awning).
holds(764, table).

sample(765).
holds(765, powerplant).
holds(765, industrial).
holds(765, chimney).
holds(765, pipe).

sample(766).
holds(766, awning).
holds(766, table).

sample(767).
holds(767, awning).
holds(767, table).

sample(768).
holds(768, powerplant).
holds(768, industrial).
holds(768, awning).
holds(768, chimney).
holds(768, pipe).

sample(769).
holds(769, awning).
holds(769, table).

sample(770).
holds(770, awning).
holds(770, table).

sample(771).
holds(771, powerplant).
holds(771, industrial).
holds(771, chimney).
holds(771, pipe).

sample(772).
holds(772, awning).
holds(772, table).

sample(773).
holds(773, awning).
holds(773, table).

sample(774).
holds(774, miscindustrial).
holds(774, powerplant).
holds(774, watertreatment).
holds(774, industrial).
holds(774, chimney).
holds(774, pipe).
holds(774, truck).

sample(775).
holds(775, awning).
holds(775, table).

sample(776).
holds(776, awning).
holds(776, table).

sample(777).
holds(777, miscindustrial).
holds(777, watertreatment).
holds(777, industrial).
holds(777, pipe).
holds(777, truck).

sample(778).
holds(778, awning).
holds(778, table).

sample(779).
holds(779, awning).
holds(779, table).

sample(780).
holds(780, powerplant).
holds(780, watertreatment).
holds(780, industrial).
holds(780, awning).
holds(780, chimney).
holds(780, pipe).
holds(780, truck).

sample(781).
holds(781, awning).
holds(781, table).

sample(782).
holds(782, awning).
holds(782, table).

sample(783).
holds(783, miscindustrial).
holds(783, watertreatment).
holds(783, industrial).
holds(783, pipe).
holds(783, truck).

sample(784).
holds(784, awning).
holds(784, table).

sample(785).
holds(785, awning).
holds(785, table).

sample(786).
holds(786, constructionsite).
holds(786, industrial).
holds(786, pipe).
holds(786, machine).

sample(787).
holds(787, awning).
holds(787, table).

sample(788).
holds(788, awning).
holds(788, table).

sample(789).
holds(789, constructionsite).
holds(789, industrial).
holds(789, machine).

sample(790).
holds(790, awning).
holds(790, table).

sample(791).
holds(791, awning).
holds(791, table).

sample(792).
holds(792, watertreatment).
holds(792, industrial).
holds(792, awning).
holds(792, pipe).
holds(792, truck).

sample(793).
holds(793, awning).
holds(793, table).

sample(794).
holds(794, awning).
holds(794, table).

sample(795).
holds(795, constructionsite).
holds(795, industrial).
holds(795, machine).

sample(796).
holds(796, awning).
holds(796, table).

sample(797).
holds(797, awning).
holds(797, table).

sample(798).
holds(798, miscindustrial).
holds(798, industrial).
holds(798, truck).

sample(799).
holds(799, awning).
holds(799, table).

sample(800).
holds(800, awning).
holds(800, table).

sample(801).
holds(801, powerplant).
holds(801, industrial).
holds(801, awning).
holds(801, chimney).
holds(801, pipe).

sample(802).
holds(802, awning).
holds(802, table).

sample(803).
holds(803, awning).
holds(803, table).

sample(804).
holds(804, powerplant).
holds(804, industrial).
holds(804, chimney).
holds(804, pipe).

sample(805).
holds(805, awning).
holds(805, table).

sample(806).
holds(806, awning).
holds(806, table).

sample(807).
holds(807, powerplant).
holds(807, industrial).
holds(807, awning).
holds(807, chimney).
holds(807, pipe).

sample(808).
holds(808, awning).
holds(808, table).

sample(809).
holds(809, awning).
holds(809, table).

sample(810).
holds(810, miscindustrial).
holds(810, powerplant).
holds(810, watertreatment).
holds(810, industrial).
holds(810, chimney).
holds(810, pipe).
holds(810, truck).

sample(811).
holds(811, awning).
holds(811, table).

sample(812).
holds(812, awning).
holds(812, table).

sample(813).
holds(813, constructionsite).
holds(813, powerplant).
holds(813, industrial).
holds(813, chimney).
holds(813, pipe).
holds(813, machine).

sample(814).
holds(814, awning).
holds(814, table).

sample(815).
holds(815, awning).
holds(815, table).

sample(816).
holds(816, constructionsite).
holds(816, industrial).
holds(816, machine).

sample(817).
holds(817, awning).
holds(817, table).

sample(818).
holds(818, awning).
holds(818, table).

sample(819).
holds(819, miscindustrial).
holds(819, industrial).
holds(819, truck).

sample(820).
holds(820, awning).
holds(820, table).

sample(821).
holds(821, awning).
holds(821, table).

sample(822).
holds(822, miscindustrial).
holds(822, industrial).
holds(822, truck).

sample(823).
holds(823, awning).
holds(823, table).

sample(824).
holds(824, awning).
holds(824, table).

sample(825).
holds(825, miscindustrial).
holds(825, watertreatment).
holds(825, industrial).
holds(825, pipe).
holds(825, truck).

sample(826).
holds(826, awning).
holds(826, table).

sample(827).
holds(827, awning).
holds(827, table).

sample(828).
holds(828, constructionsite).
holds(828, industrial).
holds(828, machine).

sample(829).
holds(829, awning).
holds(829, table).

sample(830).
holds(830, awning).
holds(830, table).

sample(831).
holds(831, miscindustrial).
holds(831, watertreatment).
holds(831, industrial).
holds(831, pipe).
holds(831, truck).

sample(832).
holds(832, awning).
holds(832, table).

sample(833).
holds(833, awning).
holds(833, table).

sample(834).
holds(834, miscindustrial).
holds(834, industrial).
holds(834, truck).

sample(835).
holds(835, awning).
holds(835, table).

sample(836).
holds(836, awning).
holds(836, table).

sample(837).
holds(837, miscindustrial).
holds(837, watertreatment).
holds(837, industrial).
holds(837, pipe).
holds(837, truck).

sample(838).
holds(838, awning).
holds(838, table).

sample(839).
holds(839, awning).
holds(839, table).

sample(840).
holds(840, watertreatment).
holds(840, industrial).
holds(840, awning).
holds(840, pipe).
holds(840, truck).

sample(841).
holds(841, awning).
holds(841, table).

sample(842).
holds(842, awning).
holds(842, table).

sample(843).
holds(843, miscindustrial).
holds(843, powerplant).
holds(843, watertreatment).
holds(843, industrial).
holds(843, chimney).
holds(843, pipe).
holds(843, truck).

sample(844).
holds(844, awning).
holds(844, table).

sample(845).
holds(845, awning).
holds(845, table).

sample(846).
holds(846, miscindustrial).
holds(846, powerplant).
holds(846, watertreatment).
holds(846, industrial).
holds(846, chimney).
holds(846, pipe).
holds(846, truck).

sample(847).
holds(847, awning).
holds(847, table).

sample(848).
holds(848, awning).
holds(848, table).

sample(849).
holds(849, miscindustrial).
holds(849, powerplant).
holds(849, watertreatment).
holds(849, industrial).
holds(849, chimney).
holds(849, pipe).
holds(849, truck).

sample(850).
holds(850, awning).
holds(850, table).

sample(851).
holds(851, awning).
holds(851, table).

sample(852).
holds(852, constructionsite).
holds(852, industrial).
holds(852, machine).

sample(853).
holds(853, awning).
holds(853, table).

sample(854).
holds(854, awning).
holds(854, table).

sample(855).
holds(855, powerplant).
holds(855, industrial).
holds(855, awning).
holds(855, chimney).
holds(855, pipe).

sample(856).
holds(856, awning).
holds(856, table).

sample(857).
holds(857, awning).
holds(857, table).

sample(858).
holds(858, constructionsite).
holds(858, industrial).
holds(858, machine).

sample(859).
holds(859, awning).
holds(859, table).

sample(860).
holds(860, awning).
holds(860, table).

sample(861).
holds(861, miscindustrial).
holds(861, watertreatment).
holds(861, industrial).
holds(861, truck).

sample(862).
holds(862, awning).
holds(862, table).

sample(863).
holds(863, awning).
holds(863, table).

sample(864).
holds(864, powerplant).
holds(864, industrial).
holds(864, awning).
holds(864, chimney).
holds(864, pipe).

sample(865).
holds(865, awning).
holds(865, table).

sample(866).
holds(866, awning).
holds(866, table).

sample(867).
holds(867, powerplant).
holds(867, watertreatment).
holds(867, industrial).
holds(867, awning).
holds(867, chimney).
holds(867, pipe).
holds(867, truck).

sample(868).
holds(868, awning).
holds(868, table).

sample(869).
holds(869, awning).
holds(869, table).

sample(870).
holds(870, miscindustrial).
holds(870, watertreatment).
holds(870, industrial).
holds(870, pipe).
holds(870, truck).

sample(871).
holds(871, awning).
holds(871, table).

sample(872).
holds(872, awning).
holds(872, table).

sample(873).
holds(873, miscindustrial).
holds(873, watertreatment).
holds(873, industrial).
holds(873, pipe).
holds(873, truck).

sample(874).
holds(874, awning).
holds(874, table).

sample(875).
holds(875, awning).
holds(875, table).

sample(876).
holds(876, powerplant).
holds(876, watertreatment).
holds(876, industrial).
holds(876, awning).
holds(876, chimney).
holds(876, pipe).
holds(876, truck).

sample(877).
holds(877, awning).
holds(877, table).

sample(878).
holds(878, awning).
holds(878, table).

sample(879).
holds(879, powerplant).
holds(879, watertreatment).
holds(879, industrial).
holds(879, awning).
holds(879, chimney).
holds(879, pipe).
holds(879, truck).

sample(880).
holds(880, awning).
holds(880, table).

sample(881).
holds(881, awning).
holds(881, table).

sample(882).
holds(882, powerplant).
holds(882, industrial).
holds(882, awning).
holds(882, chimney).
holds(882, pipe).

sample(883).
holds(883, awning).
holds(883, table).

sample(884).
holds(884, awning).
holds(884, table).

sample(885).
holds(885, miscindustrial).
holds(885, powerplant).
holds(885, watertreatment).
holds(885, industrial).
holds(885, chimney).
holds(885, pipe).
holds(885, truck).

sample(886).
holds(886, awning).
holds(886, table).

sample(887).
holds(887, awning).
holds(887, table).

sample(888).
holds(888, miscindustrial).
holds(888, powerplant).
holds(888, watertreatment).
holds(888, industrial).
holds(888, chimney).
holds(888, pipe).
holds(888, truck).

sample(889).
holds(889, awning).
holds(889, table).

sample(890).
holds(890, awning).
holds(890, table).

sample(891).
holds(891, miscindustrial).
holds(891, watertreatment).
holds(891, industrial).
holds(891, pipe).
holds(891, truck).

sample(892).
holds(892, awning).
holds(892, table).

sample(893).
holds(893, awning).
holds(893, table).

sample(894).
holds(894, constructionsite).
holds(894, powerplant).
holds(894, industrial).
holds(894, chimney).
holds(894, pipe).
holds(894, machine).

sample(895).
holds(895, awning).
holds(895, table).

sample(896).
holds(896, awning).
holds(896, table).

sample(897).
holds(897, miscindustrial).
holds(897, powerplant).
holds(897, watertreatment).
holds(897, industrial).
holds(897, chimney).
holds(897, pipe).
holds(897, truck).

sample(898).
holds(898, awning).
holds(898, table).

sample(899).
holds(899, awning).
holds(899, table).

sample(900).
holds(900, miscindustrial).
holds(900, powerplant).
holds(900, watertreatment).
holds(900, industrial).
holds(900, chimney).
holds(900, pipe).
holds(900, truck).

sample(901).
holds(901, awning).
holds(901, table).

sample(902).
holds(902, awning).
holds(902, table).

sample(903).
holds(903, miscindustrial).
holds(903, powerplant).
holds(903, watertreatment).
holds(903, industrial).
holds(903, chimney).
holds(903, pipe).
holds(903, truck).

sample(904).
holds(904, awning).
holds(904, table).

sample(905).
holds(905, awning).
holds(905, table).

sample(906).
holds(906, miscindustrial).
holds(906, powerplant).
holds(906, watertreatment).
holds(906, industrial).
holds(906, chimney).
holds(906, pipe).
holds(906, truck).

sample(907).
holds(907, awning).
holds(907, table).

sample(908).
holds(908, awning).
holds(908, table).

sample(909).
holds(909, constructionsite).
holds(909, industrial).
holds(909, pipe).
holds(909, machine).

sample(910).
holds(910, awning).
holds(910, table).

sample(911).
holds(911, awning).
holds(911, table).

sample(912).
holds(912, miscindustrial).
holds(912, watertreatment).
holds(912, industrial).
holds(912, pipe).
holds(912, truck).

sample(913).
holds(913, awning).
holds(913, table).

sample(914).
holds(914, awning).
holds(914, table).

sample(915).
holds(915, miscindustrial).
holds(915, watertreatment).
holds(915, industrial).
holds(915, pipe).
holds(915, truck).

sample(916).
holds(916, awning).
holds(916, table).

sample(917).
holds(917, awning).
holds(917, table).

sample(918).
holds(918, miscindustrial).
holds(918, powerplant).
holds(918, watertreatment).
holds(918, industrial).
holds(918, chimney).
holds(918, pipe).
holds(918, truck).

sample(919).
holds(919, awning).
holds(919, table).

sample(920).
holds(920, awning).
holds(920, table).

sample(921).
holds(921, miscindustrial).
holds(921, powerplant).
holds(921, watertreatment).
holds(921, industrial).
holds(921, chimney).
holds(921, pipe).
holds(921, truck).

sample(922).
holds(922, awning).
holds(922, table).

sample(923).
holds(923, awning).
holds(923, table).

sample(924).
holds(924, miscindustrial).
holds(924, powerplant).
holds(924, watertreatment).
holds(924, industrial).
holds(924, chimney).
holds(924, pipe).
holds(924, truck).

sample(925).
holds(925, awning).
holds(925, table).

sample(926).
holds(926, awning).
holds(926, table).

sample(927).
holds(927, miscindustrial).
holds(927, powerplant).
holds(927, watertreatment).
holds(927, industrial).
holds(927, chimney).
holds(927, pipe).
holds(927, truck).

sample(928).
holds(928, awning).
holds(928, table).

sample(929).
holds(929, awning).
holds(929, table).

sample(930).
holds(930, constructionsite).
holds(930, powerplant).
holds(930, industrial).
holds(930, chimney).
holds(930, pipe).
holds(930, machine).

sample(931).
holds(931, awning).
holds(931, table).

sample(932).
holds(932, awning).
holds(932, table).

sample(933).
holds(933, powerplant).
holds(933, industrial).
holds(933, awning).
holds(933, chimney).
holds(933, pipe).

sample(934).
holds(934, awning).
holds(934, table).

sample(935).
holds(935, awning).
holds(935, table).

sample(936).
holds(936, powerplant).
holds(936, industrial).
holds(936, awning).
holds(936, chimney).
holds(936, pipe).

sample(937).
holds(937, awning).
holds(937, table).

sample(938).
holds(938, awning).
holds(938, table).

sample(939).
holds(939, miscindustrial).
holds(939, powerplant).
holds(939, watertreatment).
holds(939, industrial).
holds(939, chimney).
holds(939, pipe).
holds(939, truck).

sample(940).
holds(940, awning).
holds(940, table).

sample(941).
holds(941, awning).
holds(941, table).

sample(942).
holds(942, powerplant).
holds(942, watertreatment).
holds(942, industrial).
holds(942, awning).
holds(942, chimney).
holds(942, pipe).
holds(942, truck).

sample(943).
holds(943, awning).
holds(943, table).

sample(944).
holds(944, awning).
holds(944, table).

sample(945).
holds(945, miscindustrial).
holds(945, industrial).
holds(945, truck).

sample(946).
holds(946, awning).
holds(946, table).

sample(947).
holds(947, awning).
holds(947, table).

sample(948).
holds(948, constructionsite).
holds(948, powerplant).
holds(948, industrial).
holds(948, chimney).
holds(948, pipe).
holds(948, machine).

sample(949).
holds(949, awning).
holds(949, table).

sample(950).
holds(950, awning).
holds(950, table).

sample(951).
holds(951, watertreatment).
holds(951, industrial).
holds(951, awning).
holds(951, pipe).
holds(951, truck).

sample(952).
holds(952, awning).
holds(952, table).

sample(953).
holds(953, awning).
holds(953, table).

sample(954).
holds(954, miscindustrial).
holds(954, watertreatment).
holds(954, industrial).
holds(954, pipe).
holds(954, truck).

sample(955).
holds(955, awning).
holds(955, table).

sample(956).
holds(956, awning).
holds(956, table).

sample(957).
holds(957, constructionsite).
holds(957, industrial).
holds(957, machine).

sample(958).
holds(958, awning).
holds(958, table).

sample(959).
holds(959, powerplant).
holds(959, watertreatment).
holds(959, industrial).
holds(959, awning).
holds(959, chimney).
holds(959, pipe).
holds(959, truck).

sample(960).
holds(960, watertreatment).
holds(960, industrial).
holds(960, awning).
holds(960, pipe).
holds(960, truck).

sample(961).
holds(961, awning).
holds(961, table).

sample(962).
holds(962, awning).
holds(962, table).

sample(963).
holds(963, miscindustrial).
holds(963, watertreatment).
holds(963, industrial).
holds(963, pipe).
holds(963, truck).

sample(964).
holds(964, awning).
holds(964, table).

sample(965).
holds(965, awning).
holds(965, table).

sample(966).
holds(966, constructionsite).
holds(966, industrial).
holds(966, machine).

sample(967).
holds(967, awning).
holds(967, table).

sample(968).
holds(968, awning).
holds(968, table).

sample(969).
holds(969, powerplant).
holds(969, watertreatment).
holds(969, industrial).
holds(969, awning).
holds(969, chimney).
holds(969, pipe).
holds(969, truck).

sample(970).
holds(970, awning).
holds(970, table).

sample(971).
holds(971, awning).
holds(971, table).

sample(972).
holds(972, miscindustrial).
holds(972, powerplant).
holds(972, watertreatment).
holds(972, industrial).
holds(972, chimney).
holds(972, pipe).
holds(972, truck).

sample(973).
holds(973, awning).
holds(973, table).

sample(974).
holds(974, awning).
holds(974, table).

sample(975).
holds(975, constructionsite).
holds(975, industrial).
holds(975, pipe).
holds(975, machine).

sample(976).
holds(976, awning).
holds(976, table).

sample(977).
holds(977, awning).
holds(977, table).

sample(978).
holds(978, powerplant).
holds(978, industrial).
holds(978, chimney).
holds(978, pipe).

sample(979).
holds(979, awning).
holds(979, table).

sample(980).
holds(980, awning).
holds(980, table).

sample(981).
holds(981, constructionsite).
holds(981, industrial).
holds(981, machine).

sample(982).
holds(982, awning).
holds(982, table).

sample(983).
holds(983, awning).
holds(983, table).

sample(984).
holds(984, constructionsite).
holds(984, industrial).
holds(984, machine).

sample(985).
holds(985, awning).
holds(985, table).

sample(986).
holds(986, awning).
holds(986, table).

sample(987).
holds(987, constructionsite).
holds(987, industrial).
holds(987, machine).

sample(988).
holds(988, awning).
holds(988, table).

sample(989).
holds(989, awning).
holds(989, table).

sample(990).
holds(990, powerplant).
holds(990, watertreatment).
holds(990, industrial).
holds(990, awning).
holds(990, chimney).
holds(990, pipe).
holds(990, truck).

sample(991).
holds(991, awning).
holds(991, table).

sample(992).
holds(992, awning).
holds(992, table).

sample(993).
holds(993, powerplant).
holds(993, industrial).
holds(993, chimney).
holds(993, pipe).

sample(994).
holds(994, awning).
holds(994, table).

sample(995).
holds(995, awning).
holds(995, table).

sample(996).
holds(996, miscindustrial).
holds(996, watertreatment).
holds(996, industrial).
holds(996, pipe).
holds(996, truck).

sample(997).
holds(997, awning).
holds(997, table).

sample(998).
holds(998, awning).
holds(998, table).

sample(999).
holds(999, constructionsite).
holds(999, industrial).
holds(999, machine).

sample(1000).
holds(1000, awning).
holds(1000, table).

sample(1001).
holds(1001, awning).
holds(1001, table).

sample(1002).
holds(1002, powerplant).
holds(1002, industrial).
holds(1002, chimney).
holds(1002, pipe).

sample(1003).
holds(1003, awning).
holds(1003, table).

sample(1004).
holds(1004, awning).
holds(1004, table).

sample(1005).
holds(1005, constructionsite).
holds(1005, powerplant).
holds(1005, industrial).
holds(1005, chimney).
holds(1005, pipe).
holds(1005, machine).

sample(1006).
holds(1006, awning).
holds(1006, table).

sample(1007).
holds(1007, awning).
holds(1007, table).

sample(1008).
holds(1008, miscindustrial).
holds(1008, industrial).
holds(1008, truck).

sample(1009).
holds(1009, awning).
holds(1009, table).

sample(1010).
holds(1010, awning).
holds(1010, table).

sample(1011).
holds(1011, constructionsite).
holds(1011, powerplant).
holds(1011, industrial).
holds(1011, chimney).
holds(1011, pipe).
holds(1011, machine).

sample(1012).
holds(1012, awning).
holds(1012, table).

sample(1013).
holds(1013, awning).
holds(1013, table).

sample(1014).
holds(1014, constructionsite).
holds(1014, industrial).
holds(1014, machine).

sample(1015).
holds(1015, awning).
holds(1015, table).

sample(1016).
holds(1016, awning).
holds(1016, table).

sample(1017).
holds(1017, constructionsite).
holds(1017, industrial).
holds(1017, machine).

sample(1018).
holds(1018, awning).
holds(1018, table).

sample(1019).
holds(1019, awning).
holds(1019, table).

sample(1020).
holds(1020, constructionsite).
holds(1020, industrial).
holds(1020, machine).

sample(1021).
holds(1021, awning).
holds(1021, table).

sample(1022).
holds(1022, awning).
holds(1022, table).

sample(1023).
holds(1023, watertreatment).
holds(1023, industrial).
holds(1023, awning).
holds(1023, pipe).
holds(1023, truck).

sample(1024).
holds(1024, awning).
holds(1024, table).

sample(1025).
holds(1025, awning).
holds(1025, table).

sample(1026).
holds(1026, miscindustrial).
holds(1026, industrial).
holds(1026, truck).

sample(1027).
holds(1027, awning).
holds(1027, table).

sample(1028).
holds(1028, awning).
holds(1028, table).

sample(1029).
holds(1029, powerplant).
holds(1029, industrial).
holds(1029, chimney).
holds(1029, pipe).

sample(1030).
holds(1030, awning).
holds(1030, table).

sample(1031).
holds(1031, awning).
holds(1031, table).

sample(1032).
holds(1032, miscindustrial).
holds(1032, powerplant).
holds(1032, watertreatment).
holds(1032, industrial).
holds(1032, chimney).
holds(1032, pipe).
holds(1032, truck).

sample(1033).
holds(1033, awning).
holds(1033, table).

sample(1034).
holds(1034, awning).
holds(1034, table).

sample(1035).
holds(1035, miscindustrial).
holds(1035, powerplant).
holds(1035, watertreatment).
holds(1035, industrial).
holds(1035, chimney).
holds(1035, pipe).
holds(1035, truck).

sample(1036).
holds(1036, awning).
holds(1036, table).

sample(1037).
holds(1037, awning).
holds(1037, table).

sample(1038).
holds(1038, powerplant).
holds(1038, industrial).
holds(1038, chimney).
holds(1038, pipe).

sample(1039).
holds(1039, awning).
holds(1039, table).

sample(1040).
holds(1040, awning).
holds(1040, table).

sample(1041).
holds(1041, constructionsite).
holds(1041, industrial).
holds(1041, machine).

sample(1042).
holds(1042, awning).
holds(1042, table).

sample(1043).
holds(1043, awning).
holds(1043, table).

sample(1044).
holds(1044, miscindustrial).
holds(1044, powerplant).
holds(1044, watertreatment).
holds(1044, industrial).
holds(1044, chimney).
holds(1044, pipe).
holds(1044, truck).

sample(1045).
holds(1045, awning).
holds(1045, table).

sample(1046).
holds(1046, awning).
holds(1046, table).

sample(1047).
holds(1047, powerplant).
holds(1047, watertreatment).
holds(1047, industrial).
holds(1047, awning).
holds(1047, chimney).
holds(1047, pipe).
holds(1047, truck).

sample(1048).
holds(1048, awning).
holds(1048, table).

sample(1049).
holds(1049, awning).
holds(1049, table).

sample(1050).
holds(1050, constructionsite).
holds(1050, industrial).
holds(1050, machine).

sample(1051).
holds(1051, awning).
holds(1051, table).

sample(1052).
holds(1052, awning).
holds(1052, table).

sample(1053).
holds(1053, miscindustrial).
holds(1053, watertreatment).
holds(1053, industrial).
holds(1053, pipe).
holds(1053, truck).

sample(1054).
holds(1054, awning).
holds(1054, table).

sample(1055).
holds(1055, awning).
holds(1055, table).

sample(1056).
holds(1056, miscindustrial).
holds(1056, powerplant).
holds(1056, watertreatment).
holds(1056, industrial).
holds(1056, chimney).
holds(1056, pipe).
holds(1056, truck).

sample(1057).
holds(1057, awning).
holds(1057, table).

sample(1058).
holds(1058, awning).
holds(1058, table).

sample(1059).
holds(1059, miscindustrial).
holds(1059, watertreatment).
holds(1059, industrial).
holds(1059, pipe).
holds(1059, truck).

sample(1060).
holds(1060, awning).
holds(1060, table).

sample(1061).
holds(1061, awning).
holds(1061, table).

sample(1062).
holds(1062, powerplant).
holds(1062, industrial).
holds(1062, chimney).
holds(1062, pipe).

sample(1063).
holds(1063, awning).
holds(1063, table).

sample(1064).
holds(1064, awning).
holds(1064, table).

sample(1065).
holds(1065, powerplant).
holds(1065, industrial).
holds(1065, chimney).
holds(1065, pipe).

sample(1066).
holds(1066, awning).
holds(1066, table).

sample(1067).
holds(1067, awning).
holds(1067, table).

sample(1068).
holds(1068, powerplant).
holds(1068, industrial).
holds(1068, chimney).
holds(1068, pipe).

sample(1069).
holds(1069, awning).
holds(1069, table).

sample(1070).
holds(1070, awning).
holds(1070, table).

sample(1071).
holds(1071, constructionsite).
holds(1071, industrial).
holds(1071, machine).

sample(1072).
holds(1072, awning).
holds(1072, table).

sample(1073).
holds(1073, awning).
holds(1073, table).

sample(1074).
holds(1074, constructionsite).
holds(1074, powerplant).
holds(1074, industrial).
holds(1074, chimney).
holds(1074, machine).

sample(1075).
holds(1075, awning).
holds(1075, table).

sample(1076).
holds(1076, awning).
holds(1076, table).

sample(1077).
holds(1077, miscindustrial).
holds(1077, industrial).
holds(1077, truck).

sample(1078).
holds(1078, awning).
holds(1078, table).

sample(1079).
holds(1079, awning).
holds(1079, table).

sample(1080).
holds(1080, miscindustrial).
holds(1080, powerplant).
holds(1080, watertreatment).
holds(1080, industrial).
holds(1080, chimney).
holds(1080, pipe).
holds(1080, truck).

sample(1081).
holds(1081, awning).
holds(1081, table).

sample(1082).
holds(1082, awning).
holds(1082, table).

sample(1083).
holds(1083, miscindustrial).
holds(1083, watertreatment).
holds(1083, industrial).
holds(1083, pipe).
holds(1083, truck).

sample(1084).
holds(1084, awning).
holds(1084, table).

sample(1085).
holds(1085, awning).
holds(1085, table).

sample(1086).
holds(1086, miscindustrial).
holds(1086, powerplant).
holds(1086, watertreatment).
holds(1086, industrial).
holds(1086, chimney).
holds(1086, pipe).
holds(1086, truck).

sample(1087).
holds(1087, awning).
holds(1087, table).

sample(1088).
holds(1088, awning).
holds(1088, table).

sample(1089).
holds(1089, constructionsite).
holds(1089, industrial).
holds(1089, machine).

sample(1090).
holds(1090, awning).
holds(1090, table).

sample(1091).
holds(1091, awning).
holds(1091, table).

sample(1092).
holds(1092, watertreatment).
holds(1092, industrial).
holds(1092, awning).
holds(1092, pipe).
holds(1092, truck).

sample(1093).
holds(1093, awning).
holds(1093, table).

sample(1094).
holds(1094, awning).
holds(1094, table).

sample(1095).
holds(1095, miscindustrial).
holds(1095, industrial).
holds(1095, truck).

sample(1096).
holds(1096, awning).
holds(1096, table).

sample(1097).
holds(1097, awning).
holds(1097, table).

sample(1098).
holds(1098, miscindustrial).
holds(1098, powerplant).
holds(1098, watertreatment).
holds(1098, industrial).
holds(1098, chimney).
holds(1098, pipe).
holds(1098, truck).

sample(1099).
holds(1099, awning).
holds(1099, table).

sample(1100).
holds(1100, awning).
holds(1100, table).

sample(1101).
holds(1101, powerplant).
holds(1101, industrial).
holds(1101, awning).
holds(1101, chimney).
holds(1101, pipe).

sample(1102).
holds(1102, awning).
holds(1102, table).

sample(1103).
holds(1103, awning).
holds(1103, table).

sample(1104).
holds(1104, powerplant).
holds(1104, industrial).
holds(1104, awning).
holds(1104, chimney).
holds(1104, pipe).

sample(1105).
holds(1105, awning).
holds(1105, table).

sample(1106).
holds(1106, awning).
holds(1106, table).

sample(1107).
holds(1107, powerplant).
holds(1107, industrial).
holds(1107, awning).
holds(1107, chimney).
holds(1107, pipe).

sample(1108).
holds(1108, awning).
holds(1108, table).

sample(1109).
holds(1109, awning).
holds(1109, table).

sample(1110).
holds(1110, miscindustrial).
holds(1110, watertreatment).
holds(1110, industrial).
holds(1110, pipe).
holds(1110, truck).

sample(1111).
holds(1111, awning).
holds(1111, table).

sample(1112).
holds(1112, awning).
holds(1112, table).

sample(1113).
holds(1113, miscindustrial).
holds(1113, powerplant).
holds(1113, watertreatment).
holds(1113, industrial).
holds(1113, chimney).
holds(1113, pipe).
holds(1113, truck).

sample(1114).
holds(1114, awning).
holds(1114, table).

sample(1115).
holds(1115, awning).
holds(1115, table).

sample(1116).
holds(1116, miscindustrial).
holds(1116, powerplant).
holds(1116, watertreatment).
holds(1116, industrial).
holds(1116, chimney).
holds(1116, pipe).
holds(1116, truck).

sample(1117).
holds(1117, awning).
holds(1117, table).

sample(1118).
holds(1118, awning).
holds(1118, table).

sample(1119).
holds(1119, constructionsite).
holds(1119, industrial).
holds(1119, machine).

sample(1120).
holds(1120, awning).
holds(1120, table).

sample(1121).
holds(1121, awning).
holds(1121, table).

sample(1122).
holds(1122, powerplant).
holds(1122, industrial).
holds(1122, chimney).
holds(1122, pipe).

sample(1123).
holds(1123, awning).
holds(1123, table).

sample(1124).
holds(1124, awning).
holds(1124, table).

sample(1125).
holds(1125, powerplant).
holds(1125, industrial).
holds(1125, awning).
holds(1125, chimney).
holds(1125, pipe).

sample(1126).
holds(1126, awning).
holds(1126, table).

sample(1127).
holds(1127, awning).
holds(1127, table).

sample(1128).
holds(1128, miscindustrial).
holds(1128, watertreatment).
holds(1128, industrial).
holds(1128, truck).

sample(1129).
holds(1129, awning).
holds(1129, table).

sample(1130).
holds(1130, awning).
holds(1130, table).

sample(1131).
holds(1131, watertreatment).
holds(1131, industrial).
holds(1131, awning).
holds(1131, pipe).
holds(1131, truck).

sample(1132).
holds(1132, awning).
holds(1132, table).

sample(1133).
holds(1133, awning).
holds(1133, table).

sample(1134).
holds(1134, powerplant).
holds(1134, industrial).
holds(1134, chimney).
holds(1134, pipe).

sample(1135).
holds(1135, awning).
holds(1135, table).

sample(1136).
holds(1136, awning).
holds(1136, table).

sample(1137).
holds(1137, miscindustrial).
holds(1137, industrial).
holds(1137, truck).

sample(1138).
holds(1138, awning).
holds(1138, table).

sample(1139).
holds(1139, awning).
holds(1139, table).

sample(1140).
holds(1140, constructionsite).
holds(1140, powerplant).
holds(1140, industrial).
holds(1140, chimney).
holds(1140, pipe).
holds(1140, machine).

sample(1141).
holds(1141, awning).
holds(1141, table).

sample(1142).
holds(1142, awning).
holds(1142, table).

sample(1143).
holds(1143, miscindustrial).
holds(1143, watertreatment).
holds(1143, industrial).
holds(1143, pipe).
holds(1143, truck).

sample(1144).
holds(1144, awning).
holds(1144, table).

sample(1145).
holds(1145, awning).
holds(1145, table).

sample(1146).
holds(1146, miscindustrial).
holds(1146, powerplant).
holds(1146, watertreatment).
holds(1146, industrial).
holds(1146, chimney).
holds(1146, pipe).
holds(1146, truck).

sample(1147).
holds(1147, awning).
holds(1147, table).

sample(1148).
holds(1148, awning).
holds(1148, table).

sample(1149).
holds(1149, constructionsite).
holds(1149, industrial).
holds(1149, machine).

sample(1150).
holds(1150, awning).
holds(1150, table).

sample(1151).
holds(1151, awning).
holds(1151, table).

sample(1152).
holds(1152, miscindustrial).
holds(1152, watertreatment).
holds(1152, industrial).
holds(1152, truck).

sample(1153).
holds(1153, awning).
holds(1153, table).

sample(1154).
holds(1154, awning).
holds(1154, table).

sample(1155).
holds(1155, powerplant).
holds(1155, industrial).
holds(1155, awning).
holds(1155, chimney).
holds(1155, pipe).

sample(1156).
holds(1156, awning).
holds(1156, table).

sample(1157).
holds(1157, awning).
holds(1157, table).

sample(1158).
holds(1158, powerplant).
holds(1158, industrial).
holds(1158, awning).
holds(1158, chimney).
holds(1158, pipe).

sample(1159).
holds(1159, awning).
holds(1159, table).

sample(1160).
holds(1160, awning).
holds(1160, table).

sample(1161).
holds(1161, miscindustrial).
holds(1161, powerplant).
holds(1161, watertreatment).
holds(1161, industrial).
holds(1161, chimney).
holds(1161, pipe).
holds(1161, truck).

sample(1162).
holds(1162, awning).
holds(1162, table).

sample(1163).
holds(1163, awning).
holds(1163, table).

sample(1164).
holds(1164, miscindustrial).
holds(1164, powerplant).
holds(1164, watertreatment).
holds(1164, industrial).
holds(1164, chimney).
holds(1164, pipe).
holds(1164, truck).

sample(1165).
holds(1165, awning).
holds(1165, table).

sample(1166).
holds(1166, awning).
holds(1166, table).

sample(1167).
holds(1167, powerplant).
holds(1167, industrial).
holds(1167, awning).
holds(1167, chimney).
holds(1167, pipe).

sample(1168).
holds(1168, awning).
holds(1168, table).

sample(1169).
holds(1169, awning).
holds(1169, table).

sample(1170).
holds(1170, miscindustrial).
holds(1170, watertreatment).
holds(1170, industrial).
holds(1170, pipe).
holds(1170, truck).

sample(1171).
holds(1171, awning).
holds(1171, table).

sample(1172).
holds(1172, powerplant).
holds(1172, industrial).
holds(1172, awning).
holds(1172, chimney).
holds(1172, pipe).

sample(1173).
holds(1173, powerplant).
holds(1173, industrial).
holds(1173, awning).
holds(1173, chimney).
holds(1173, pipe).

sample(1174).
holds(1174, awning).
holds(1174, table).

sample(1175).
holds(1175, awning).
holds(1175, table).

sample(1176).
holds(1176, powerplant).
holds(1176, industrial).
holds(1176, awning).
holds(1176, chimney).
holds(1176, pipe).

sample(1177).
holds(1177, awning).
holds(1177, table).

sample(1178).
holds(1178, awning).
holds(1178, table).

sample(1179).
holds(1179, miscindustrial).
holds(1179, watertreatment).
holds(1179, industrial).
holds(1179, pipe).
holds(1179, truck).

sample(1180).
holds(1180, awning).
holds(1180, table).

sample(1181).
holds(1181, awning).
holds(1181, table).

sample(1182).
holds(1182, constructionsite).
holds(1182, industrial).
holds(1182, pipe).
holds(1182, machine).

sample(1183).
holds(1183, awning).
holds(1183, table).

sample(1184).
holds(1184, awning).
holds(1184, table).

sample(1185).
holds(1185, constructionsite).
holds(1185, powerplant).
holds(1185, industrial).
holds(1185, chimney).
holds(1185, pipe).
holds(1185, machine).

sample(1186).
holds(1186, awning).
holds(1186, table).

sample(1187).
holds(1187, awning).
holds(1187, table).

sample(1188).
holds(1188, powerplant).
holds(1188, industrial).
holds(1188, awning).
holds(1188, chimney).
holds(1188, pipe).

sample(1189).
holds(1189, awning).
holds(1189, table).

sample(1190).
holds(1190, awning).
holds(1190, table).

sample(1191).
holds(1191, powerplant).
holds(1191, industrial).
holds(1191, awning).
holds(1191, chimney).
holds(1191, pipe).

sample(1192).
holds(1192, awning).
holds(1192, table).

sample(1193).
holds(1193, awning).
holds(1193, table).

sample(1194).
holds(1194, powerplant).
holds(1194, watertreatment).
holds(1194, industrial).
holds(1194, awning).
holds(1194, chimney).
holds(1194, pipe).
holds(1194, truck).

sample(1195).
holds(1195, awning).
holds(1195, table).

sample(1196).
holds(1196, awning).
holds(1196, table).

sample(1197).
holds(1197, miscindustrial).
holds(1197, powerplant).
holds(1197, watertreatment).
holds(1197, industrial).
holds(1197, chimney).
holds(1197, pipe).
holds(1197, truck).

sample(1198).
holds(1198, awning).
holds(1198, table).

sample(1199).
holds(1199, awning).
holds(1199, table).

sample(1200).
holds(1200, watertreatment).
holds(1200, industrial).
holds(1200, awning).
holds(1200, pipe).
holds(1200, truck).

sample(1201).
holds(1201, awning).
holds(1201, table).

sample(1202).
holds(1202, awning).
holds(1202, table).

sample(1203).
holds(1203, constructionsite).
holds(1203, industrial).
holds(1203, machine).

sample(1204).
holds(1204, awning).
holds(1204, table).

sample(1205).
holds(1205, awning).
holds(1205, table).

sample(1206).
holds(1206, miscindustrial).
holds(1206, powerplant).
holds(1206, watertreatment).
holds(1206, industrial).
holds(1206, chimney).
holds(1206, pipe).
holds(1206, truck).

sample(1207).
holds(1207, awning).
holds(1207, table).

sample(1208).
holds(1208, awning).
holds(1208, table).

sample(1209).
holds(1209, powerplant).
holds(1209, industrial).
holds(1209, chimney).
holds(1209, pipe).

sample(1210).
holds(1210, awning).
holds(1210, table).

sample(1211).
holds(1211, awning).
holds(1211, table).

sample(1212).
holds(1212, constructionsite).
holds(1212, industrial).
holds(1212, machine).

sample(1213).
holds(1213, awning).
holds(1213, table).

sample(1214).
holds(1214, awning).
holds(1214, table).

sample(1215).
holds(1215, miscindustrial).
holds(1215, powerplant).
holds(1215, watertreatment).
holds(1215, industrial).
holds(1215, chimney).
holds(1215, pipe).
holds(1215, truck).

sample(1216).
holds(1216, awning).
holds(1216, table).

sample(1217).
holds(1217, awning).
holds(1217, table).

sample(1218).
holds(1218, powerplant).
holds(1218, industrial).
holds(1218, awning).
holds(1218, chimney).
holds(1218, pipe).

sample(1219).
holds(1219, awning).
holds(1219, table).

sample(1220).
holds(1220, awning).
holds(1220, table).

sample(1221).
holds(1221, constructionsite).
holds(1221, powerplant).
holds(1221, industrial).
holds(1221, chimney).
holds(1221, pipe).
holds(1221, machine).

sample(1222).
holds(1222, awning).
holds(1222, table).

sample(1223).
holds(1223, awning).
holds(1223, table).

sample(1224).
holds(1224, miscindustrial).
holds(1224, watertreatment).
holds(1224, industrial).
holds(1224, pipe).
holds(1224, truck).

sample(1225).
holds(1225, awning).
holds(1225, table).

sample(1226).
holds(1226, awning).
holds(1226, table).

sample(1227).
holds(1227, powerplant).
holds(1227, industrial).
holds(1227, awning).
holds(1227, chimney).
holds(1227, pipe).

sample(1228).
holds(1228, awning).
holds(1228, table).

sample(1229).
holds(1229, awning).
holds(1229, table).

sample(1230).
holds(1230, constructionsite).
holds(1230, powerplant).
holds(1230, industrial).
holds(1230, chimney).
holds(1230, pipe).
holds(1230, machine).

sample(1231).
holds(1231, awning).
holds(1231, table).

sample(1232).
holds(1232, awning).
holds(1232, table).

sample(1233).
holds(1233, constructionsite).
holds(1233, industrial).
holds(1233, machine).

sample(1234).
holds(1234, awning).
holds(1234, table).

sample(1235).
holds(1235, awning).
holds(1235, table).

sample(1236).
holds(1236, powerplant).
holds(1236, industrial).
holds(1236, awning).
holds(1236, chimney).
holds(1236, pipe).

sample(1237).
holds(1237, awning).
holds(1237, table).

sample(1238).
holds(1238, awning).
holds(1238, table).

sample(1239).
holds(1239, miscindustrial).
holds(1239, powerplant).
holds(1239, watertreatment).
holds(1239, industrial).
holds(1239, chimney).
holds(1239, pipe).
holds(1239, truck).

sample(1240).
holds(1240, awning).
holds(1240, table).

sample(1241).
holds(1241, awning).
holds(1241, table).

sample(1242).
holds(1242, constructionsite).
holds(1242, industrial).
holds(1242, machine).

sample(1243).
holds(1243, awning).
holds(1243, table).

sample(1244).
holds(1244, awning).
holds(1244, table).

sample(1245).
holds(1245, constructionsite).
holds(1245, industrial).
holds(1245, machine).

sample(1246).
holds(1246, awning).
holds(1246, table).

sample(1247).
holds(1247, awning).
holds(1247, table).

sample(1248).
holds(1248, constructionsite).
holds(1248, powerplant).
holds(1248, industrial).
holds(1248, chimney).
holds(1248, pipe).
holds(1248, machine).

sample(1249).
holds(1249, awning).
holds(1249, table).

sample(1250).
holds(1250, awning).
holds(1250, table).

sample(1251).
holds(1251, constructionsite).
holds(1251, powerplant).
holds(1251, industrial).
holds(1251, chimney).
holds(1251, pipe).
holds(1251, machine).

sample(1252).
holds(1252, awning).
holds(1252, table).

sample(1253).
holds(1253, awning).
holds(1253, table).

sample(1254).
holds(1254, powerplant).
holds(1254, industrial).
holds(1254, awning).
holds(1254, chimney).
holds(1254, pipe).

sample(1255).
holds(1255, awning).
holds(1255, table).

sample(1256).
holds(1256, awning).
holds(1256, table).

sample(1257).
holds(1257, constructionsite).
holds(1257, powerplant).
holds(1257, industrial).
holds(1257, chimney).
holds(1257, pipe).
holds(1257, machine).

sample(1258).
holds(1258, awning).
holds(1258, table).

sample(1259).
holds(1259, awning).
holds(1259, table).

sample(1260).
holds(1260, watertreatment).
holds(1260, industrial).
holds(1260, awning).
holds(1260, pipe).
holds(1260, truck).

sample(1261).
holds(1261, awning).
holds(1261, table).

sample(1262).
holds(1262, awning).
holds(1262, table).

sample(1263).
holds(1263, miscindustrial).
holds(1263, watertreatment).
holds(1263, industrial).
holds(1263, truck).

sample(1264).
holds(1264, awning).
holds(1264, table).

sample(1265).
holds(1265, awning).
holds(1265, table).

sample(1266).
holds(1266, powerplant).
holds(1266, industrial).
holds(1266, awning).
holds(1266, chimney).
holds(1266, pipe).

sample(1267).
holds(1267, awning).
holds(1267, table).

sample(1268).
holds(1268, awning).
holds(1268, table).

sample(1269).
holds(1269, powerplant).
holds(1269, industrial).
holds(1269, chimney).
holds(1269, pipe).

sample(1270).
holds(1270, awning).
holds(1270, table).

sample(1271).
holds(1271, awning).
holds(1271, table).

sample(1272).
holds(1272, miscindustrial).
holds(1272, watertreatment).
holds(1272, industrial).
holds(1272, pipe).
holds(1272, truck).

sample(1273).
holds(1273, awning).
holds(1273, table).

sample(1274).
holds(1274, awning).
holds(1274, table).

sample(1275).
holds(1275, powerplant).
holds(1275, industrial).
holds(1275, chimney).
holds(1275, pipe).

sample(1276).
holds(1276, awning).
holds(1276, table).

sample(1277).
holds(1277, awning).
holds(1277, table).

sample(1278).
holds(1278, powerplant).
holds(1278, industrial).
holds(1278, awning).
holds(1278, chimney).
holds(1278, pipe).

sample(1279).
holds(1279, awning).
holds(1279, table).

sample(1280).
holds(1280, awning).
holds(1280, table).

sample(1281).
holds(1281, miscindustrial).
holds(1281, watertreatment).
holds(1281, industrial).
holds(1281, pipe).
holds(1281, truck).

sample(1282).
holds(1282, awning).
holds(1282, table).

sample(1283).
holds(1283, awning).
holds(1283, table).

sample(1284).
holds(1284, constructionsite).
holds(1284, powerplant).
holds(1284, industrial).
holds(1284, chimney).
holds(1284, pipe).
holds(1284, machine).

sample(1285).
holds(1285, awning).
holds(1285, table).

sample(1286).
holds(1286, awning).
holds(1286, table).

sample(1287).
holds(1287, constructionsite).
holds(1287, powerplant).
holds(1287, industrial).
holds(1287, chimney).
holds(1287, pipe).
holds(1287, machine).

sample(1288).
holds(1288, awning).
holds(1288, table).

sample(1289).
holds(1289, awning).
holds(1289, table).

sample(1290).
holds(1290, powerplant).
holds(1290, industrial).
holds(1290, chimney).
holds(1290, pipe).

sample(1291).
holds(1291, awning).
holds(1291, table).

sample(1292).
holds(1292, awning).
holds(1292, table).

sample(1293).
holds(1293, miscindustrial).
holds(1293, industrial).
holds(1293, truck).

sample(1294).
holds(1294, awning).
holds(1294, table).

sample(1295).
holds(1295, awning).
holds(1295, table).

sample(1296).
holds(1296, constructionsite).
holds(1296, powerplant).
holds(1296, industrial).
holds(1296, chimney).
holds(1296, pipe).
holds(1296, machine).

sample(1297).
holds(1297, awning).
holds(1297, table).

sample(1298).
holds(1298, awning).
holds(1298, table).

sample(1299).
holds(1299, miscindustrial).
holds(1299, industrial).
holds(1299, truck).

sample(1300).
holds(1300, awning).
holds(1300, table).

sample(1301).
holds(1301, awning).
holds(1301, table).

sample(1302).
holds(1302, powerplant).
holds(1302, industrial).
holds(1302, chimney).
holds(1302, pipe).

sample(1303).
holds(1303, awning).
holds(1303, table).

sample(1304).
holds(1304, awning).
holds(1304, table).

sample(1305).
holds(1305, powerplant).
holds(1305, industrial).
holds(1305, awning).
holds(1305, chimney).
holds(1305, pipe).

sample(1306).
holds(1306, awning).
holds(1306, table).

sample(1307).
holds(1307, awning).
holds(1307, table).

sample(1308).
holds(1308, miscindustrial).
holds(1308, powerplant).
holds(1308, watertreatment).
holds(1308, industrial).
holds(1308, chimney).
holds(1308, pipe).
holds(1308, truck).

sample(1309).
holds(1309, awning).
holds(1309, table).

sample(1310).
holds(1310, awning).
holds(1310, table).

sample(1311).
holds(1311, miscindustrial).
holds(1311, watertreatment).
holds(1311, industrial).
holds(1311, truck).

sample(1312).
holds(1312, awning).
holds(1312, table).

sample(1313).
holds(1313, awning).
holds(1313, table).

sample(1314).
holds(1314, miscindustrial).
holds(1314, powerplant).
holds(1314, watertreatment).
holds(1314, industrial).
holds(1314, chimney).
holds(1314, pipe).
holds(1314, truck).

sample(1315).
holds(1315, awning).
holds(1315, table).

sample(1316).
holds(1316, awning).
holds(1316, table).

sample(1317).
holds(1317, watertreatment).
holds(1317, industrial).
holds(1317, awning).
holds(1317, pipe).
holds(1317, truck).

sample(1318).
holds(1318, awning).
holds(1318, table).

sample(1319).
holds(1319, awning).
holds(1319, table).

sample(1320).
holds(1320, constructionsite).
holds(1320, industrial).
holds(1320, machine).

sample(1321).
holds(1321, awning).
holds(1321, table).

sample(1322).
holds(1322, awning).
holds(1322, table).

sample(1323).
holds(1323, miscindustrial).
holds(1323, powerplant).
holds(1323, watertreatment).
holds(1323, industrial).
holds(1323, chimney).
holds(1323, pipe).
holds(1323, truck).

sample(1324).
holds(1324, awning).
holds(1324, table).

sample(1325).
holds(1325, awning).
holds(1325, table).

sample(1326).
holds(1326, miscindustrial).
holds(1326, watertreatment).
holds(1326, industrial).
holds(1326, pipe).
holds(1326, truck).

sample(1327).
holds(1327, awning).
holds(1327, table).

sample(1328).
holds(1328, awning).
holds(1328, table).

sample(1329).
holds(1329, miscindustrial).
holds(1329, watertreatment).
holds(1329, industrial).
holds(1329, pipe).
holds(1329, truck).

sample(1330).
holds(1330, awning).
holds(1330, table).

sample(1331).
holds(1331, awning).
holds(1331, table).

sample(1332).
holds(1332, powerplant).
holds(1332, industrial).
holds(1332, chimney).
holds(1332, pipe).

sample(1333).
holds(1333, awning).
holds(1333, table).

sample(1334).
holds(1334, awning).
holds(1334, table).

sample(1335).
holds(1335, miscindustrial).
holds(1335, powerplant).
holds(1335, watertreatment).
holds(1335, industrial).
holds(1335, chimney).
holds(1335, pipe).
holds(1335, truck).

sample(1336).
holds(1336, awning).
holds(1336, table).

sample(1337).
holds(1337, awning).
holds(1337, table).

sample(1338).
holds(1338, miscindustrial).
holds(1338, watertreatment).
holds(1338, industrial).
holds(1338, truck).

sample(1339).
holds(1339, awning).
holds(1339, table).

sample(1340).
holds(1340, awning).
holds(1340, table).

sample(1341).
holds(1341, powerplant).
holds(1341, industrial).
holds(1341, awning).
holds(1341, chimney).
holds(1341, pipe).

sample(1342).
holds(1342, awning).
holds(1342, table).

sample(1343).
holds(1343, awning).
holds(1343, table).

sample(1344).
holds(1344, miscindustrial).
holds(1344, watertreatment).
holds(1344, industrial).
holds(1344, truck).

sample(1345).
holds(1345, awning).
holds(1345, table).

sample(1346).
holds(1346, awning).
holds(1346, table).

sample(1347).
holds(1347, constructionsite).
holds(1347, industrial).
holds(1347, chimney).
holds(1347, machine).

sample(1348).
holds(1348, awning).
holds(1348, table).

sample(1349).
holds(1349, awning).
holds(1349, table).

sample(1350).
holds(1350, constructionsite).
holds(1350, powerplant).
holds(1350, industrial).
holds(1350, chimney).
holds(1350, pipe).
holds(1350, machine).

sample(1351).
holds(1351, awning).
holds(1351, table).

sample(1352).
holds(1352, awning).
holds(1352, table).

sample(1353).
holds(1353, miscindustrial).
holds(1353, powerplant).
holds(1353, watertreatment).
holds(1353, industrial).
holds(1353, chimney).
holds(1353, pipe).
holds(1353, truck).

sample(1354).
holds(1354, awning).
holds(1354, table).

sample(1355).
holds(1355, awning).
holds(1355, table).

sample(1356).
holds(1356, powerplant).
holds(1356, industrial).
holds(1356, awning).
holds(1356, chimney).
holds(1356, pipe).

sample(1357).
holds(1357, awning).
holds(1357, table).

sample(1358).
holds(1358, awning).
holds(1358, table).

sample(1359).
holds(1359, miscindustrial).
holds(1359, watertreatment).
holds(1359, industrial).
holds(1359, pipe).
holds(1359, truck).

sample(1360).
holds(1360, awning).
holds(1360, table).

sample(1361).
holds(1361, awning).
holds(1361, table).

sample(1362).
holds(1362, constructionsite).
holds(1362, powerplant).
holds(1362, industrial).
holds(1362, chimney).
holds(1362, pipe).
holds(1362, machine).

sample(1363).
holds(1363, awning).
holds(1363, table).

sample(1364).
holds(1364, awning).
holds(1364, table).

sample(1365).
holds(1365, miscindustrial).
holds(1365, watertreatment).
holds(1365, industrial).
holds(1365, pipe).
holds(1365, truck).

sample(1366).
holds(1366, awning).
holds(1366, table).

sample(1367).
holds(1367, awning).
holds(1367, table).

sample(1368).
holds(1368, powerplant).
holds(1368, industrial).
holds(1368, awning).
holds(1368, chimney).
holds(1368, pipe).

sample(1369).
holds(1369, awning).
holds(1369, table).

sample(1370).
holds(1370, awning).
holds(1370, table).

sample(1371).
holds(1371, miscindustrial).
holds(1371, watertreatment).
holds(1371, industrial).
holds(1371, pipe).
holds(1371, truck).

sample(1372).
holds(1372, awning).
holds(1372, table).

sample(1373).
holds(1373, awning).
holds(1373, table).

sample(1374).
holds(1374, miscindustrial).
holds(1374, industrial).
holds(1374, truck).

sample(1375).
holds(1375, awning).
holds(1375, table).

sample(1376).
holds(1376, awning).
holds(1376, table).

sample(1377).
holds(1377, miscindustrial).
holds(1377, powerplant).
holds(1377, watertreatment).
holds(1377, industrial).
holds(1377, chimney).
holds(1377, pipe).
holds(1377, truck).

sample(1378).
holds(1378, awning).
holds(1378, table).

sample(1379).
holds(1379, awning).
holds(1379, table).

sample(1380).
holds(1380, constructionsite).
holds(1380, industrial).
holds(1380, machine).

sample(1381).
holds(1381, awning).
holds(1381, table).

sample(1382).
holds(1382, awning).
holds(1382, table).

sample(1383).
holds(1383, miscindustrial).
holds(1383, industrial).
holds(1383, truck).

sample(1384).
holds(1384, awning).
holds(1384, table).

sample(1385).
holds(1385, awning).
holds(1385, table).

sample(1386).
holds(1386, constructionsite).
holds(1386, powerplant).
holds(1386, industrial).
holds(1386, chimney).
holds(1386, pipe).
holds(1386, machine).

sample(1387).
holds(1387, awning).
holds(1387, table).

sample(1388).
holds(1388, awning).
holds(1388, table).

sample(1389).
holds(1389, miscindustrial).
holds(1389, watertreatment).
holds(1389, industrial).
holds(1389, pipe).
holds(1389, truck).

sample(1390).
holds(1390, awning).
holds(1390, table).

sample(1391).
holds(1391, awning).
holds(1391, table).

sample(1392).
holds(1392, miscindustrial).
holds(1392, powerplant).
holds(1392, watertreatment).
holds(1392, industrial).
holds(1392, chimney).
holds(1392, pipe).
holds(1392, truck).

sample(1393).
holds(1393, awning).
holds(1393, table).

sample(1394).
holds(1394, awning).
holds(1394, table).

sample(1395).
holds(1395, constructionsite).
holds(1395, industrial).
holds(1395, machine).

sample(1396).
holds(1396, awning).
holds(1396, table).

sample(1397).
holds(1397, awning).
holds(1397, table).

sample(1398).
holds(1398, miscindustrial).
holds(1398, watertreatment).
holds(1398, industrial).
holds(1398, truck).

sample(1399).
holds(1399, awning).
holds(1399, table).

sample(1400).
holds(1400, awning).
holds(1400, table).

sample(1401).
holds(1401, powerplant).
holds(1401, watertreatment).
holds(1401, industrial).
holds(1401, awning).
holds(1401, chimney).
holds(1401, pipe).
holds(1401, truck).

sample(1402).
holds(1402, awning).
holds(1402, table).

sample(1403).
holds(1403, awning).
holds(1403, table).

sample(1404).
holds(1404, powerplant).
holds(1404, watertreatment).
holds(1404, industrial).
holds(1404, awning).
holds(1404, chimney).
holds(1404, pipe).
holds(1404, truck).

sample(1405).
holds(1405, awning).
holds(1405, table).

sample(1406).
holds(1406, awning).
holds(1406, table).

sample(1407).
holds(1407, watertreatment).
holds(1407, industrial).
holds(1407, awning).
holds(1407, pipe).
holds(1407, truck).

sample(1408).
holds(1408, awning).
holds(1408, table).

sample(1409).
holds(1409, awning).
holds(1409, table).

sample(1410).
holds(1410, miscindustrial).
holds(1410, watertreatment).
holds(1410, industrial).
holds(1410, pipe).
holds(1410, truck).

sample(1411).
holds(1411, awning).
holds(1411, table).

sample(1412).
holds(1412, awning).
holds(1412, table).

sample(1413).
holds(1413, miscindustrial).
holds(1413, industrial).
holds(1413, truck).

sample(1414).
holds(1414, awning).
holds(1414, table).

sample(1415).
holds(1415, awning).
holds(1415, table).

sample(1416).
holds(1416, constructionsite).
holds(1416, industrial).
holds(1416, machine).

sample(1417).
holds(1417, awning).
holds(1417, table).

sample(1418).
holds(1418, awning).
holds(1418, table).

sample(1419).
holds(1419, powerplant).
holds(1419, industrial).
holds(1419, awning).
holds(1419, chimney).
holds(1419, pipe).

sample(1420).
holds(1420, awning).
holds(1420, table).

sample(1421).
holds(1421, awning).
holds(1421, table).

sample(1422).
holds(1422, powerplant).
holds(1422, industrial).
holds(1422, chimney).
holds(1422, pipe).

sample(1423).
holds(1423, awning).
holds(1423, table).

sample(1424).
holds(1424, awning).
holds(1424, table).

sample(1425).
holds(1425, constructionsite).
holds(1425, powerplant).
holds(1425, industrial).
holds(1425, chimney).
holds(1425, pipe).
holds(1425, machine).

sample(1426).
holds(1426, awning).
holds(1426, table).

sample(1427).
holds(1427, awning).
holds(1427, table).

sample(1428).
holds(1428, miscindustrial).
holds(1428, powerplant).
holds(1428, watertreatment).
holds(1428, industrial).
holds(1428, chimney).
holds(1428, pipe).
holds(1428, truck).

sample(1429).
holds(1429, awning).
holds(1429, table).

sample(1430).
holds(1430, awning).
holds(1430, table).

sample(1431).
holds(1431, powerplant).
holds(1431, industrial).
holds(1431, chimney).
holds(1431, pipe).

sample(1432).
holds(1432, awning).
holds(1432, table).

sample(1433).
holds(1433, awning).
holds(1433, table).

sample(1434).
holds(1434, constructionsite).
holds(1434, industrial).
holds(1434, machine).

sample(1435).
holds(1435, awning).
holds(1435, table).

sample(1436).
holds(1436, awning).
holds(1436, table).

sample(1437).
holds(1437, miscindustrial).
holds(1437, industrial).
holds(1437, truck).

sample(1438).
holds(1438, awning).
holds(1438, table).

sample(1439).
holds(1439, awning).
holds(1439, table).

sample(1440).
holds(1440, powerplant).
holds(1440, industrial).
holds(1440, awning).
holds(1440, chimney).
holds(1440, pipe).

sample(1441).
holds(1441, awning).
holds(1441, table).

sample(1442).
holds(1442, awning).
holds(1442, table).

sample(1443).
holds(1443, constructionsite).
holds(1443, powerplant).
holds(1443, industrial).
holds(1443, chimney).
holds(1443, pipe).
holds(1443, machine).

sample(1444).
holds(1444, awning).
holds(1444, table).

sample(1445).
holds(1445, awning).
holds(1445, table).

sample(1446).
holds(1446, miscindustrial).
holds(1446, powerplant).
holds(1446, watertreatment).
holds(1446, industrial).
holds(1446, chimney).
holds(1446, pipe).
holds(1446, truck).

sample(1447).
holds(1447, awning).
holds(1447, table).

sample(1448).
holds(1448, awning).
holds(1448, table).

sample(1449).
holds(1449, powerplant).
holds(1449, watertreatment).
holds(1449, industrial).
holds(1449, awning).
holds(1449, chimney).
holds(1449, pipe).
holds(1449, truck).

sample(1450).
holds(1450, awning).
holds(1450, table).

sample(1451).
holds(1451, awning).
holds(1451, table).

sample(1452).
holds(1452, miscindustrial).
holds(1452, powerplant).
holds(1452, watertreatment).
holds(1452, industrial).
holds(1452, chimney).
holds(1452, pipe).
holds(1452, truck).

sample(1453).
holds(1453, awning).
holds(1453, table).

sample(1454).
holds(1454, awning).
holds(1454, table).

sample(1455).
holds(1455, constructionsite).
holds(1455, industrial).
holds(1455, machine).

sample(1456).
holds(1456, awning).
holds(1456, table).

sample(1457).
holds(1457, awning).
holds(1457, table).

sample(1458).
holds(1458, miscindustrial).
holds(1458, powerplant).
holds(1458, watertreatment).
holds(1458, industrial).
holds(1458, chimney).
holds(1458, pipe).
holds(1458, truck).

sample(1459).
holds(1459, awning).
holds(1459, table).

sample(1460).
holds(1460, awning).
holds(1460, table).

sample(1461).
holds(1461, constructionsite).
holds(1461, industrial).
holds(1461, machine).

sample(1462).
holds(1462, awning).
holds(1462, table).

sample(1463).
holds(1463, awning).
holds(1463, table).

sample(1464).
holds(1464, miscindustrial).
holds(1464, watertreatment).
holds(1464, industrial).
holds(1464, pipe).
holds(1464, truck).

sample(1465).
holds(1465, awning).
holds(1465, table).

sample(1466).
holds(1466, awning).
holds(1466, table).

sample(1467).
holds(1467, constructionsite).
holds(1467, powerplant).
holds(1467, industrial).
holds(1467, chimney).
holds(1467, pipe).
holds(1467, machine).

sample(1468).
holds(1468, awning).
holds(1468, table).

sample(1469).
holds(1469, awning).
holds(1469, table).

sample(1470).
holds(1470, powerplant).
holds(1470, industrial).
holds(1470, awning).
holds(1470, chimney).
holds(1470, pipe).

sample(1471).
holds(1471, awning).
holds(1471, table).

sample(1472).
holds(1472, awning).
holds(1472, table).

sample(1473).
holds(1473, powerplant).
holds(1473, industrial).
holds(1473, awning).
holds(1473, chimney).
holds(1473, pipe).

sample(1474).
holds(1474, awning).
holds(1474, table).

sample(1475).
holds(1475, awning).
holds(1475, table).

sample(1476).
holds(1476, constructionsite).
holds(1476, powerplant).
holds(1476, industrial).
holds(1476, chimney).
holds(1476, pipe).
holds(1476, machine).

sample(1477).
holds(1477, awning).
holds(1477, table).

sample(1478).
holds(1478, awning).
holds(1478, table).

sample(1479).
holds(1479, miscindustrial).
holds(1479, powerplant).
holds(1479, watertreatment).
holds(1479, industrial).
holds(1479, chimney).
holds(1479, pipe).
holds(1479, truck).

sample(1480).
holds(1480, awning).
holds(1480, table).

sample(1481).
holds(1481, awning).
holds(1481, table).

sample(1482).
holds(1482, miscindustrial).
holds(1482, watertreatment).
holds(1482, industrial).
holds(1482, pipe).
holds(1482, truck).

sample(1483).
holds(1483, awning).
holds(1483, table).

sample(1484).
holds(1484, awning).
holds(1484, table).

sample(1485).
holds(1485, watertreatment).
holds(1485, industrial).
holds(1485, awning).
holds(1485, pipe).
holds(1485, truck).

sample(1486).
holds(1486, awning).
holds(1486, table).

sample(1487).
holds(1487, awning).
holds(1487, table).

sample(1488).
holds(1488, powerplant).
holds(1488, watertreatment).
holds(1488, industrial).
holds(1488, awning).
holds(1488, chimney).
holds(1488, pipe).
holds(1488, truck).

sample(1489).
holds(1489, awning).
holds(1489, table).

sample(1490).
holds(1490, awning).
holds(1490, table).

sample(1491).
holds(1491, miscindustrial).
holds(1491, watertreatment).
holds(1491, industrial).
holds(1491, pipe).
holds(1491, truck).

sample(1492).
holds(1492, awning).
holds(1492, table).

sample(1493).
holds(1493, awning).
holds(1493, table).

sample(1494).
holds(1494, constructionsite).
holds(1494, industrial).
holds(1494, machine).

sample(1495).
holds(1495, awning).
holds(1495, table).

sample(1496).
holds(1496, awning).
holds(1496, table).

sample(1497).
holds(1497, powerplant).
holds(1497, industrial).
holds(1497, chimney).
holds(1497, pipe).

sample(1498).
holds(1498, awning).
holds(1498, table).

sample(1499).
holds(1499, awning).
holds(1499, table).

sample(1500).
holds(1500, powerplant).
holds(1500, industrial).
holds(1500, chimney).
holds(1500, pipe).

sample(1501).
holds(1501, awning).
holds(1501, table).

sample(1502).
holds(1502, awning).
holds(1502, table).

sample(1503).
holds(1503, constructionsite).
holds(1503, powerplant).
holds(1503, industrial).
holds(1503, chimney).
holds(1503, pipe).
holds(1503, machine).

sample(1504).
holds(1504, awning).
holds(1504, table).

sample(1505).
holds(1505, awning).
holds(1505, table).

sample(1506).
holds(1506, miscindustrial).
holds(1506, powerplant).
holds(1506, watertreatment).
holds(1506, industrial).
holds(1506, chimney).
holds(1506, pipe).
holds(1506, truck).

sample(1507).
holds(1507, awning).
holds(1507, table).

sample(1508).
holds(1508, awning).
holds(1508, table).

sample(1509).
holds(1509, miscindustrial).
holds(1509, powerplant).
holds(1509, watertreatment).
holds(1509, industrial).
holds(1509, chimney).
holds(1509, pipe).
holds(1509, truck).

sample(1510).
holds(1510, awning).
holds(1510, table).

sample(1511).
holds(1511, awning).
holds(1511, table).

sample(1512).
holds(1512, miscindustrial).
holds(1512, powerplant).
holds(1512, watertreatment).
holds(1512, industrial).
holds(1512, chimney).
holds(1512, pipe).
holds(1512, truck).

sample(1513).
holds(1513, awning).
holds(1513, table).

sample(1514).
holds(1514, awning).
holds(1514, table).

sample(1515).
holds(1515, miscindustrial).
holds(1515, watertreatment).
holds(1515, industrial).
holds(1515, pipe).
holds(1515, truck).

sample(1516).
holds(1516, awning).
holds(1516, table).

sample(1517).
holds(1517, awning).
holds(1517, table).

sample(1518).
holds(1518, miscindustrial).
holds(1518, watertreatment).
holds(1518, industrial).
holds(1518, pipe).
holds(1518, truck).

sample(1519).
holds(1519, awning).
holds(1519, table).

sample(1520).
holds(1520, awning).
holds(1520, table).

sample(1521).
holds(1521, miscindustrial).
holds(1521, powerplant).
holds(1521, watertreatment).
holds(1521, industrial).
holds(1521, chimney).
holds(1521, pipe).
holds(1521, truck).

sample(1522).
holds(1522, awning).
holds(1522, table).

sample(1523).
holds(1523, awning).
holds(1523, table).

sample(1524).
holds(1524, miscindustrial).
holds(1524, powerplant).
holds(1524, watertreatment).
holds(1524, industrial).
holds(1524, chimney).
holds(1524, pipe).
holds(1524, truck).

sample(1525).
holds(1525, awning).
holds(1525, table).

sample(1526).
holds(1526, awning).
holds(1526, table).

sample(1527).
holds(1527, powerplant).
holds(1527, industrial).
holds(1527, awning).
holds(1527, chimney).
holds(1527, pipe).

sample(1528).
holds(1528, awning).
holds(1528, table).

sample(1529).
holds(1529, awning).
holds(1529, table).

sample(1530).
holds(1530, miscindustrial).
holds(1530, powerplant).
holds(1530, watertreatment).
holds(1530, industrial).
holds(1530, chimney).
holds(1530, pipe).
holds(1530, truck).

sample(1531).
holds(1531, awning).
holds(1531, table).

sample(1532).
holds(1532, awning).
holds(1532, table).

sample(1533).
holds(1533, powerplant).
holds(1533, industrial).
holds(1533, awning).
holds(1533, chimney).
holds(1533, pipe).

sample(1534).
holds(1534, awning).
holds(1534, table).

sample(1535).
holds(1535, awning).
holds(1535, table).

sample(1536).
holds(1536, constructionsite).
holds(1536, powerplant).
holds(1536, industrial).
holds(1536, chimney).
holds(1536, pipe).
holds(1536, machine).

sample(1537).
holds(1537, awning).
holds(1537, table).

sample(1538).
holds(1538, awning).
holds(1538, table).

sample(1539).
holds(1539, miscindustrial).
holds(1539, watertreatment).
holds(1539, industrial).
holds(1539, pipe).
holds(1539, truck).

sample(1540).
holds(1540, awning).
holds(1540, table).

sample(1541).
holds(1541, awning).
holds(1541, table).

sample(1542).
holds(1542, miscindustrial).
holds(1542, watertreatment).
holds(1542, industrial).
holds(1542, truck).

sample(1543).
holds(1543, awning).
holds(1543, table).

sample(1544).
holds(1544, awning).
holds(1544, table).

sample(1545).
holds(1545, powerplant).
holds(1545, industrial).
holds(1545, awning).
holds(1545, chimney).
holds(1545, pipe).

sample(1546).
holds(1546, awning).
holds(1546, table).

sample(1547).
holds(1547, awning).
holds(1547, table).

sample(1548).
holds(1548, miscindustrial).
holds(1548, watertreatment).
holds(1548, industrial).
holds(1548, pipe).
holds(1548, truck).

sample(1549).
holds(1549, awning).
holds(1549, table).

sample(1550).
holds(1550, awning).
holds(1550, table).

sample(1551).
holds(1551, constructionsite).
holds(1551, industrial).
holds(1551, machine).

sample(1552).
holds(1552, awning).
holds(1552, table).

sample(1553).
holds(1553, awning).
holds(1553, table).

sample(1554).
holds(1554, powerplant).
holds(1554, industrial).
holds(1554, chimney).
holds(1554, pipe).

sample(1555).
holds(1555, awning).
holds(1555, table).

sample(1556).
holds(1556, awning).
holds(1556, table).

sample(1557).
holds(1557, miscindustrial).
holds(1557, powerplant).
holds(1557, watertreatment).
holds(1557, industrial).
holds(1557, chimney).
holds(1557, pipe).
holds(1557, truck).

sample(1558).
holds(1558, awning).
holds(1558, table).

sample(1559).
holds(1559, awning).
holds(1559, table).

sample(1560).
holds(1560, powerplant).
holds(1560, industrial).
holds(1560, awning).
holds(1560, chimney).
holds(1560, pipe).

sample(1561).
holds(1561, awning).
holds(1561, table).

sample(1562).
holds(1562, awning).
holds(1562, table).

sample(1563).
holds(1563, powerplant).
holds(1563, industrial).
holds(1563, chimney).
holds(1563, pipe).

sample(1564).
holds(1564, awning).
holds(1564, table).

sample(1565).
holds(1565, awning).
holds(1565, table).

sample(1566).
holds(1566, powerplant).
holds(1566, industrial).
holds(1566, awning).
holds(1566, chimney).
holds(1566, pipe).

sample(1567).
holds(1567, awning).
holds(1567, table).

sample(1568).
holds(1568, awning).
holds(1568, table).

sample(1569).
holds(1569, constructionsite).
holds(1569, powerplant).
holds(1569, industrial).
holds(1569, chimney).
holds(1569, pipe).
holds(1569, machine).

sample(1570).
holds(1570, awning).
holds(1570, table).

sample(1571).
holds(1571, awning).
holds(1571, table).

sample(1572).
holds(1572, miscindustrial).
holds(1572, powerplant).
holds(1572, watertreatment).
holds(1572, industrial).
holds(1572, chimney).
holds(1572, pipe).
holds(1572, truck).

sample(1573).
holds(1573, awning).
holds(1573, table).

sample(1574).
holds(1574, awning).
holds(1574, table).

sample(1575).
holds(1575, powerplant).
holds(1575, industrial).
holds(1575, awning).
holds(1575, chimney).
holds(1575, pipe).

sample(1576).
holds(1576, awning).
holds(1576, table).

sample(1577).
holds(1577, awning).
holds(1577, table).

sample(1578).
holds(1578, powerplant).
holds(1578, watertreatment).
holds(1578, industrial).
holds(1578, awning).
holds(1578, chimney).
holds(1578, pipe).
holds(1578, truck).

sample(1579).
holds(1579, awning).
holds(1579, table).

sample(1580).
holds(1580, awning).
holds(1580, table).

sample(1581).
holds(1581, constructionsite).
holds(1581, powerplant).
holds(1581, industrial).
holds(1581, chimney).
holds(1581, pipe).
holds(1581, machine).

sample(1582).
holds(1582, awning).
holds(1582, table).

sample(1583).
holds(1583, awning).
holds(1583, table).

sample(1584).
holds(1584, powerplant).
holds(1584, industrial).
holds(1584, chimney).
holds(1584, pipe).

sample(1585).
holds(1585, awning).
holds(1585, table).

sample(1586).
holds(1586, awning).
holds(1586, table).

sample(1587).
holds(1587, constructionsite).
holds(1587, industrial).
holds(1587, pipe).
holds(1587, machine).

sample(1588).
holds(1588, awning).
holds(1588, table).

sample(1589).
holds(1589, awning).
holds(1589, table).

sample(1590).
holds(1590, miscindustrial).
holds(1590, industrial).
holds(1590, truck).

sample(1591).
holds(1591, awning).
holds(1591, table).

sample(1592).
holds(1592, miscindustrial).
holds(1592, industrial).
holds(1592, truck).

sample(1593).
holds(1593, powerplant).
holds(1593, industrial).
holds(1593, chimney).
holds(1593, pipe).

sample(1594).
holds(1594, awning).
holds(1594, table).

sample(1595).
holds(1595, awning).
holds(1595, table).

sample(1596).
holds(1596, constructionsite).
holds(1596, powerplant).
holds(1596, industrial).
holds(1596, chimney).
holds(1596, pipe).
holds(1596, machine).

sample(1597).
holds(1597, awning).
holds(1597, table).

sample(1598).
holds(1598, awning).
holds(1598, table).

sample(1599).
holds(1599, miscindustrial).
holds(1599, watertreatment).
holds(1599, industrial).
holds(1599, pipe).
holds(1599, truck).

sample(1600).
holds(1600, awning).
holds(1600, table).

sample(1601).
holds(1601, awning).
holds(1601, table).

sample(1602).
holds(1602, constructionsite).
holds(1602, industrial).
holds(1602, machine).

sample(1603).
holds(1603, awning).
holds(1603, table).

sample(1604).
holds(1604, awning).
holds(1604, table).

sample(1605).
holds(1605, miscindustrial).
holds(1605, powerplant).
holds(1605, watertreatment).
holds(1605, industrial).
holds(1605, chimney).
holds(1605, pipe).
holds(1605, truck).

sample(1606).
holds(1606, awning).
holds(1606, table).

sample(1607).
holds(1607, awning).
holds(1607, table).

sample(1608).
holds(1608, miscindustrial).
holds(1608, powerplant).
holds(1608, watertreatment).
holds(1608, industrial).
holds(1608, chimney).
holds(1608, pipe).
holds(1608, truck).

sample(1609).
holds(1609, awning).
holds(1609, table).

sample(1610).
holds(1610, awning).
holds(1610, table).

sample(1611).
holds(1611, constructionsite).
holds(1611, powerplant).
holds(1611, industrial).
holds(1611, chimney).
holds(1611, pipe).
holds(1611, machine).

sample(1612).
holds(1612, awning).
holds(1612, table).

sample(1613).
holds(1613, awning).
holds(1613, table).

sample(1614).
holds(1614, miscindustrial).
holds(1614, industrial).
holds(1614, truck).

sample(1615).
holds(1615, awning).
holds(1615, table).

sample(1616).
holds(1616, awning).
holds(1616, table).

sample(1617).
holds(1617, watertreatment).
holds(1617, industrial).
holds(1617, awning).
holds(1617, pipe).
holds(1617, truck).

sample(1618).
holds(1618, awning).
holds(1618, table).

sample(1619).
holds(1619, awning).
holds(1619, table).

sample(1620).
holds(1620, miscindustrial).
holds(1620, industrial).
holds(1620, truck).

sample(1621).
holds(1621, awning).
holds(1621, table).

sample(1622).
holds(1622, awning).
holds(1622, table).

sample(1623).
holds(1623, constructionsite).
holds(1623, industrial).
holds(1623, machine).

sample(1624).
holds(1624, awning).
holds(1624, table).

sample(1625).
holds(1625, awning).
holds(1625, table).

sample(1626).
holds(1626, miscindustrial).
holds(1626, watertreatment).
holds(1626, industrial).
holds(1626, pipe).
holds(1626, truck).

sample(1627).
holds(1627, awning).
holds(1627, table).

sample(1628).
holds(1628, awning).
holds(1628, table).

sample(1629).
holds(1629, constructionsite).
holds(1629, industrial).
holds(1629, machine).

sample(1630).
holds(1630, awning).
holds(1630, table).

sample(1631).
holds(1631, awning).
holds(1631, table).

sample(1632).
holds(1632, miscindustrial).
holds(1632, watertreatment).
holds(1632, industrial).
holds(1632, pipe).
holds(1632, truck).

sample(1633).
holds(1633, awning).
holds(1633, table).

sample(1634).
holds(1634, awning).
holds(1634, table).

sample(1635).
holds(1635, powerplant).
holds(1635, industrial).
holds(1635, awning).
holds(1635, chimney).
holds(1635, pipe).

sample(1636).
holds(1636, awning).
holds(1636, table).

sample(1637).
holds(1637, awning).
holds(1637, table).

sample(1638).
holds(1638, constructionsite).
holds(1638, industrial).
holds(1638, machine).

sample(1639).
holds(1639, awning).
holds(1639, table).

sample(1640).
holds(1640, awning).
holds(1640, table).

sample(1641).
holds(1641, miscindustrial).
holds(1641, watertreatment).
holds(1641, industrial).
holds(1641, truck).

sample(1642).
holds(1642, awning).
holds(1642, table).

sample(1643).
holds(1643, awning).
holds(1643, table).

sample(1644).
holds(1644, powerplant).
holds(1644, industrial).
holds(1644, chimney).
holds(1644, pipe).

sample(1645).
holds(1645, awning).
holds(1645, table).

sample(1646).
holds(1646, awning).
holds(1646, table).

sample(1647).
holds(1647, watertreatment).
holds(1647, industrial).
holds(1647, awning).
holds(1647, pipe).
holds(1647, truck).

sample(1648).
holds(1648, awning).
holds(1648, table).

sample(1649).
holds(1649, awning).
holds(1649, table).

sample(1650).
holds(1650, miscindustrial).
holds(1650, watertreatment).
holds(1650, industrial).
holds(1650, truck).

sample(1651).
holds(1651, awning).
holds(1651, table).

sample(1652).
holds(1652, awning).
holds(1652, table).

sample(1653).
holds(1653, miscindustrial).
holds(1653, watertreatment).
holds(1653, industrial).
holds(1653, pipe).
holds(1653, truck).

sample(1654).
holds(1654, awning).
holds(1654, table).

sample(1655).
holds(1655, awning).
holds(1655, table).

sample(1656).
holds(1656, constructionsite).
holds(1656, industrial).
holds(1656, machine).

sample(1657).
holds(1657, awning).
holds(1657, table).

sample(1658).
holds(1658, awning).
holds(1658, table).

sample(1659).
holds(1659, miscindustrial).
holds(1659, watertreatment).
holds(1659, industrial).
holds(1659, pipe).
holds(1659, truck).

sample(1660).
holds(1660, awning).
holds(1660, table).

sample(1661).
holds(1661, awning).
holds(1661, table).

sample(1662).
holds(1662, miscindustrial).
holds(1662, watertreatment).
holds(1662, industrial).
holds(1662, awning).
holds(1662, pipe).
holds(1662, truck).

sample(1663).
holds(1663, awning).
holds(1663, table).

sample(1664).
holds(1664, awning).
holds(1664, table).

sample(1665).
holds(1665, miscindustrial).
holds(1665, industrial).
holds(1665, truck).

sample(1666).
holds(1666, awning).
holds(1666, table).

sample(1667).
holds(1667, awning).
holds(1667, table).

sample(1668).
holds(1668, powerplant).
holds(1668, industrial).
holds(1668, awning).
holds(1668, chimney).
holds(1668, pipe).

sample(1669).
holds(1669, awning).
holds(1669, table).

sample(1670).
holds(1670, awning).
holds(1670, table).

sample(1671).
holds(1671, miscindustrial).
holds(1671, powerplant).
holds(1671, watertreatment).
holds(1671, industrial).
holds(1671, chimney).
holds(1671, pipe).
holds(1671, truck).

sample(1672).
holds(1672, awning).
holds(1672, table).

sample(1673).
holds(1673, awning).
holds(1673, table).

sample(1674).
holds(1674, powerplant).
holds(1674, industrial).
holds(1674, awning).
holds(1674, chimney).
holds(1674, pipe).

sample(1675).
holds(1675, awning).
holds(1675, table).

sample(1676).
holds(1676, awning).
holds(1676, table).

sample(1677).
holds(1677, constructionsite).
holds(1677, industrial).
holds(1677, machine).

sample(1678).
holds(1678, awning).
holds(1678, table).

sample(1679).
holds(1679, awning).
holds(1679, table).

sample(1680).
holds(1680, miscindustrial).
holds(1680, watertreatment).
holds(1680, industrial).
holds(1680, pipe).
holds(1680, truck).

sample(1681).
holds(1681, awning).
holds(1681, table).

sample(1682).
holds(1682, awning).
holds(1682, table).

sample(1683).
holds(1683, miscindustrial).
holds(1683, powerplant).
holds(1683, watertreatment).
holds(1683, industrial).
holds(1683, chimney).
holds(1683, pipe).
holds(1683, truck).

sample(1684).
holds(1684, awning).
holds(1684, table).

sample(1685).
holds(1685, awning).
holds(1685, table).

sample(1686).
holds(1686, miscindustrial).
holds(1686, watertreatment).
holds(1686, industrial).
holds(1686, pipe).
holds(1686, truck).

sample(1687).
holds(1687, awning).
holds(1687, table).

sample(1688).
holds(1688, awning).
holds(1688, table).

sample(1689).
holds(1689, miscindustrial).
holds(1689, powerplant).
holds(1689, watertreatment).
holds(1689, industrial).
holds(1689, chimney).
holds(1689, pipe).
holds(1689, truck).

sample(1690).
holds(1690, awning).
holds(1690, table).

sample(1691).
holds(1691, awning).
holds(1691, table).

sample(1692).
holds(1692, miscindustrial).
holds(1692, industrial).
holds(1692, truck).

sample(1693).
holds(1693, awning).
holds(1693, table).

sample(1694).
holds(1694, awning).
holds(1694, table).

sample(1695).
holds(1695, constructionsite).
holds(1695, powerplant).
holds(1695, industrial).
holds(1695, chimney).
holds(1695, pipe).
holds(1695, machine).

sample(1696).
holds(1696, awning).
holds(1696, table).

sample(1697).
holds(1697, awning).
holds(1697, table).

sample(1698).
holds(1698, miscindustrial).
holds(1698, industrial).
holds(1698, truck).

sample(1699).
holds(1699, awning).
holds(1699, table).

sample(1700).
holds(1700, awning).
holds(1700, table).

sample(1701).
holds(1701, miscindustrial).
holds(1701, powerplant).
holds(1701, watertreatment).
holds(1701, industrial).
holds(1701, chimney).
holds(1701, pipe).
holds(1701, truck).

sample(1702).
holds(1702, awning).
holds(1702, table).

sample(1703).
holds(1703, awning).
holds(1703, table).

sample(1704).
holds(1704, miscindustrial).
holds(1704, powerplant).
holds(1704, watertreatment).
holds(1704, industrial).
holds(1704, chimney).
holds(1704, pipe).
holds(1704, truck).

sample(1705).
holds(1705, awning).
holds(1705, table).

sample(1706).
holds(1706, awning).
holds(1706, table).

sample(1707).
holds(1707, watertreatment).
holds(1707, industrial).
holds(1707, awning).
holds(1707, pipe).
holds(1707, truck).

sample(1708).
holds(1708, awning).
holds(1708, table).

sample(1709).
holds(1709, awning).
holds(1709, table).

sample(1710).
holds(1710, powerplant).
holds(1710, watertreatment).
holds(1710, industrial).
holds(1710, awning).
holds(1710, chimney).
holds(1710, pipe).
holds(1710, truck).

sample(1711).
holds(1711, awning).
holds(1711, table).

sample(1712).
holds(1712, awning).
holds(1712, table).

sample(1713).
holds(1713, miscindustrial).
holds(1713, powerplant).
holds(1713, watertreatment).
holds(1713, industrial).
holds(1713, chimney).
holds(1713, pipe).
holds(1713, truck).

sample(1714).
holds(1714, awning).
holds(1714, table).

sample(1715).
holds(1715, awning).
holds(1715, table).

sample(1716).
holds(1716, constructionsite).
holds(1716, powerplant).
holds(1716, industrial).
holds(1716, chimney).
holds(1716, pipe).
holds(1716, machine).

sample(1717).
holds(1717, awning).
holds(1717, table).

sample(1718).
holds(1718, awning).
holds(1718, table).

sample(1719).
holds(1719, powerplant).
holds(1719, industrial).
holds(1719, chimney).
holds(1719, pipe).

sample(1720).
holds(1720, awning).
holds(1720, table).

sample(1721).
holds(1721, awning).
holds(1721, table).

sample(1722).
holds(1722, watertreatment).
holds(1722, industrial).
holds(1722, awning).
holds(1722, pipe).
holds(1722, truck).

sample(1723).
holds(1723, awning).
holds(1723, table).

sample(1724).
holds(1724, awning).
holds(1724, table).

sample(1725).
holds(1725, constructionsite).
holds(1725, industrial).
holds(1725, machine).

sample(1726).
holds(1726, awning).
holds(1726, table).

sample(1727).
holds(1727, awning).
holds(1727, table).

sample(1728).
holds(1728, miscindustrial).
holds(1728, watertreatment).
holds(1728, industrial).
holds(1728, pipe).
holds(1728, truck).

sample(1729).
holds(1729, awning).
holds(1729, table).

sample(1730).
holds(1730, awning).
holds(1730, table).

sample(1731).
holds(1731, constructionsite).
holds(1731, powerplant).
holds(1731, industrial).
holds(1731, chimney).
holds(1731, pipe).
holds(1731, machine).

sample(1732).
holds(1732, awning).
holds(1732, table).

sample(1733).
holds(1733, awning).
holds(1733, table).

sample(1734).
holds(1734, miscindustrial).
holds(1734, watertreatment).
holds(1734, industrial).
holds(1734, pipe).
holds(1734, truck).

sample(1735).
holds(1735, awning).
holds(1735, table).

sample(1736).
holds(1736, awning).
holds(1736, table).

sample(1737).
holds(1737, constructionsite).
holds(1737, industrial).
holds(1737, machine).

sample(1738).
holds(1738, awning).
holds(1738, table).

sample(1739).
holds(1739, awning).
holds(1739, table).

sample(1740).
holds(1740, constructionsite).
holds(1740, industrial).
holds(1740, machine).

sample(1741).
holds(1741, awning).
holds(1741, table).

sample(1742).
holds(1742, awning).
holds(1742, table).

sample(1743).
holds(1743, constructionsite).
holds(1743, powerplant).
holds(1743, industrial).
holds(1743, chimney).
holds(1743, pipe).
holds(1743, machine).

sample(1744).
holds(1744, awning).
holds(1744, table).

sample(1745).
holds(1745, awning).
holds(1745, table).

sample(1746).
holds(1746, constructionsite).
holds(1746, powerplant).
holds(1746, industrial).
holds(1746, chimney).
holds(1746, pipe).
holds(1746, machine).

sample(1747).
holds(1747, awning).
holds(1747, table).

sample(1748).
holds(1748, awning).
holds(1748, table).

sample(1749).
holds(1749, constructionsite).
holds(1749, powerplant).
holds(1749, industrial).
holds(1749, chimney).
holds(1749, pipe).
holds(1749, machine).

sample(1750).
holds(1750, awning).
holds(1750, table).

sample(1751).
holds(1751, awning).
holds(1751, table).

sample(1752).
holds(1752, powerplant).
holds(1752, watertreatment).
holds(1752, industrial).
holds(1752, awning).
holds(1752, chimney).
holds(1752, pipe).
holds(1752, truck).

sample(1753).
holds(1753, awning).
holds(1753, table).

sample(1754).
holds(1754, awning).
holds(1754, table).

sample(1755).
holds(1755, powerplant).
holds(1755, industrial).
holds(1755, chimney).
holds(1755, pipe).

sample(1756).
holds(1756, awning).
holds(1756, table).

sample(1757).
holds(1757, awning).
holds(1757, table).

sample(1758).
holds(1758, powerplant).
holds(1758, industrial).
holds(1758, chimney).
holds(1758, pipe).

sample(1759).
holds(1759, awning).
holds(1759, table).

sample(1760).
holds(1760, awning).
holds(1760, table).

sample(1761).
holds(1761, miscindustrial).
holds(1761, powerplant).
holds(1761, watertreatment).
holds(1761, industrial).
holds(1761, chimney).
holds(1761, pipe).
holds(1761, truck).

sample(1762).
holds(1762, awning).
holds(1762, table).

sample(1763).
holds(1763, awning).
holds(1763, table).

sample(1764).
holds(1764, constructionsite).
holds(1764, industrial).
holds(1764, pipe).
holds(1764, machine).

sample(1765).
holds(1765, awning).
holds(1765, table).

sample(1766).
holds(1766, awning).
holds(1766, table).

sample(1767).
holds(1767, constructionsite).
holds(1767, industrial).
holds(1767, machine).

sample(1768).
holds(1768, awning).
holds(1768, table).

sample(1769).
holds(1769, awning).
holds(1769, table).

sample(1770).
holds(1770, powerplant).
holds(1770, industrial).
holds(1770, awning).
holds(1770, chimney).
holds(1770, pipe).

sample(1771).
holds(1771, awning).
holds(1771, table).

sample(1772).
holds(1772, awning).
holds(1772, table).

sample(1773).
holds(1773, constructionsite).
holds(1773, powerplant).
holds(1773, industrial).
holds(1773, chimney).
holds(1773, pipe).
holds(1773, machine).

sample(1774).
holds(1774, awning).
holds(1774, table).

sample(1775).
holds(1775, awning).
holds(1775, table).

sample(1776).
holds(1776, miscindustrial).
holds(1776, powerplant).
holds(1776, watertreatment).
holds(1776, industrial).
holds(1776, chimney).
holds(1776, pipe).
holds(1776, truck).

sample(1777).
holds(1777, awning).
holds(1777, table).

sample(1778).
holds(1778, awning).
holds(1778, chimney).

sample(1779).
holds(1779, watertreatment).
holds(1779, industrial).
holds(1779, awning).
holds(1779, pipe).
holds(1779, truck).

sample(1780).
holds(1780, awning).
holds(1780, table).

sample(1781).
holds(1781, awning).
holds(1781, table).

sample(1782).
holds(1782, constructionsite).
holds(1782, industrial).
holds(1782, machine).

sample(1783).
holds(1783, awning).
holds(1783, table).

sample(1784).
holds(1784, awning).
holds(1784, table).

sample(1785).
holds(1785, miscindustrial).
holds(1785, watertreatment).
holds(1785, industrial).
holds(1785, pipe).
holds(1785, truck).

sample(1786).
holds(1786, awning).
holds(1786, table).

sample(1787).
holds(1787, awning).
holds(1787, table).

sample(1788).
holds(1788, miscindustrial).
holds(1788, industrial).
holds(1788, truck).

sample(1789).
holds(1789, awning).
holds(1789, table).

sample(1790).
holds(1790, awning).
holds(1790, table).

sample(1791).
holds(1791, constructionsite).
holds(1791, industrial).
holds(1791, pipe).
holds(1791, machine).

sample(1792).
holds(1792, awning).
holds(1792, table).

sample(1793).
holds(1793, awning).
holds(1793, table).

sample(1794).
holds(1794, constructionsite).
holds(1794, powerplant).
holds(1794, industrial).
holds(1794, chimney).
holds(1794, pipe).
holds(1794, machine).

sample(1795).
holds(1795, awning).
holds(1795, table).

sample(1796).
holds(1796, awning).
holds(1796, table).

sample(1797).
holds(1797, miscindustrial).
holds(1797, powerplant).
holds(1797, watertreatment).
holds(1797, industrial).
holds(1797, chimney).
holds(1797, pipe).
holds(1797, truck).

sample(1798).
holds(1798, awning).
holds(1798, table).

sample(1799).
holds(1799, awning).
holds(1799, table).

sample(1800).
holds(1800, miscindustrial).
holds(1800, powerplant).
holds(1800, watertreatment).
holds(1800, industrial).
holds(1800, chimney).
holds(1800, pipe).
holds(1800, truck).

sample(1801).
holds(1801, awning).
holds(1801, table).

sample(1802).
holds(1802, awning).
holds(1802, table).

sample(1803).
holds(1803, miscindustrial).
holds(1803, powerplant).
holds(1803, watertreatment).
holds(1803, industrial).
holds(1803, chimney).
holds(1803, pipe).
holds(1803, truck).

sample(1804).
holds(1804, awning).
holds(1804, table).

sample(1805).
holds(1805, awning).
holds(1805, table).

sample(1806).
holds(1806, miscindustrial).
holds(1806, industrial).
holds(1806, truck).

sample(1807).
holds(1807, awning).
holds(1807, table).

sample(1808).
holds(1808, awning).
holds(1808, table).

sample(1809).
holds(1809, watertreatment).
holds(1809, industrial).
holds(1809, awning).
holds(1809, pipe).
holds(1809, truck).

sample(1810).
holds(1810, awning).
holds(1810, table).

sample(1811).
holds(1811, awning).
holds(1811, table).

sample(1812).
holds(1812, powerplant).
holds(1812, industrial).
holds(1812, chimney).
holds(1812, pipe).

sample(1813).
holds(1813, awning).
holds(1813, table).

sample(1814).
holds(1814, awning).
holds(1814, table).

sample(1815).
holds(1815, miscindustrial).
holds(1815, watertreatment).
holds(1815, industrial).
holds(1815, pipe).
holds(1815, truck).

sample(1816).
holds(1816, awning).
holds(1816, table).

sample(1817).
holds(1817, awning).
holds(1817, table).

sample(1818).
holds(1818, constructionsite).
holds(1818, industrial).
holds(1818, machine).

sample(1819).
holds(1819, awning).
holds(1819, table).

sample(1820).
holds(1820, awning).
holds(1820, table).

sample(1821).
holds(1821, miscindustrial).
holds(1821, powerplant).
holds(1821, watertreatment).
holds(1821, industrial).
holds(1821, chimney).
holds(1821, pipe).
holds(1821, truck).

sample(1822).
holds(1822, awning).
holds(1822, table).

sample(1823).
holds(1823, awning).
holds(1823, table).

sample(1824).
holds(1824, miscindustrial).
holds(1824, powerplant).
holds(1824, watertreatment).
holds(1824, industrial).
holds(1824, chimney).
holds(1824, pipe).
holds(1824, truck).

sample(1825).
holds(1825, awning).
holds(1825, table).

sample(1826).
holds(1826, awning).
holds(1826, table).

sample(1827).
holds(1827, watertreatment).
holds(1827, industrial).
holds(1827, awning).
holds(1827, pipe).
holds(1827, truck).

sample(1828).
holds(1828, awning).
holds(1828, table).

sample(1829).
holds(1829, awning).
holds(1829, table).

sample(1830).
holds(1830, powerplant).
holds(1830, industrial).
holds(1830, awning).
holds(1830, chimney).
holds(1830, pipe).

sample(1831).
holds(1831, awning).
holds(1831, table).

sample(1832).
holds(1832, awning).
holds(1832, table).

sample(1833).
holds(1833, powerplant).
holds(1833, industrial).
holds(1833, awning).
holds(1833, chimney).
holds(1833, pipe).

sample(1834).
holds(1834, awning).
holds(1834, table).

sample(1835).
holds(1835, awning).
holds(1835, table).

sample(1836).
holds(1836, powerplant).
holds(1836, watertreatment).
holds(1836, industrial).
holds(1836, awning).
holds(1836, chimney).
holds(1836, pipe).
holds(1836, truck).

sample(1837).
holds(1837, awning).
holds(1837, table).

sample(1838).
holds(1838, awning).
holds(1838, table).

sample(1839).
holds(1839, constructionsite).
holds(1839, powerplant).
holds(1839, industrial).
holds(1839, chimney).
holds(1839, pipe).
holds(1839, machine).

sample(1840).
holds(1840, awning).
holds(1840, table).

sample(1841).
holds(1841, awning).
holds(1841, table).

sample(1842).
holds(1842, miscindustrial).
holds(1842, watertreatment).
holds(1842, industrial).
holds(1842, pipe).
holds(1842, truck).

sample(1843).
holds(1843, awning).
holds(1843, table).

sample(1844).
holds(1844, awning).
holds(1844, table).

sample(1845).
holds(1845, powerplant).
holds(1845, watertreatment).
holds(1845, industrial).
holds(1845, awning).
holds(1845, chimney).
holds(1845, pipe).
holds(1845, truck).

sample(1846).
holds(1846, awning).
holds(1846, table).

sample(1847).
holds(1847, awning).
holds(1847, table).

sample(1848).
holds(1848, miscindustrial).
holds(1848, watertreatment).
holds(1848, industrial).
holds(1848, pipe).
holds(1848, truck).

sample(1849).
holds(1849, awning).
holds(1849, table).

sample(1850).
holds(1850, awning).
holds(1850, table).

sample(1851).
holds(1851, constructionsite).
holds(1851, industrial).
holds(1851, machine).

sample(1852).
holds(1852, awning).
holds(1852, table).

sample(1853).
holds(1853, awning).
holds(1853, table).

sample(1854).
holds(1854, constructionsite).
holds(1854, industrial).
holds(1854, machine).

sample(1855).
holds(1855, awning).
holds(1855, table).

sample(1856).
holds(1856, awning).
holds(1856, table).

sample(1857).
holds(1857, powerplant).
holds(1857, industrial).
holds(1857, awning).
holds(1857, chimney).
holds(1857, pipe).

sample(1858).
holds(1858, awning).
holds(1858, table).

sample(1859).
holds(1859, awning).
holds(1859, table).

sample(1860).
holds(1860, powerplant).
holds(1860, industrial).
holds(1860, chimney).
holds(1860, pipe).

sample(1861).
holds(1861, awning).
holds(1861, table).

sample(1862).
holds(1862, awning).
holds(1862, table).

sample(1863).
holds(1863, powerplant).
holds(1863, industrial).
holds(1863, chimney).
holds(1863, pipe).

sample(1864).
holds(1864, awning).
holds(1864, table).

sample(1865).
holds(1865, awning).
holds(1865, table).

sample(1866).
holds(1866, constructionsite).
holds(1866, powerplant).
holds(1866, industrial).
holds(1866, chimney).
holds(1866, pipe).
holds(1866, machine).

sample(1867).
holds(1867, awning).
holds(1867, table).

sample(1868).
holds(1868, awning).
holds(1868, table).

sample(1869).
holds(1869, constructionsite).
holds(1869, industrial).
holds(1869, machine).

sample(1870).
holds(1870, awning).
holds(1870, table).

sample(1871).
holds(1871, awning).
holds(1871, table).

sample(1872).
holds(1872, miscindustrial).
holds(1872, powerplant).
holds(1872, watertreatment).
holds(1872, industrial).
holds(1872, awning).
holds(1872, chimney).
holds(1872, pipe).
holds(1872, truck).

sample(1873).
holds(1873, awning).
holds(1873, table).

sample(1874).
holds(1874, awning).
holds(1874, table).

sample(1875).
holds(1875, powerplant).
holds(1875, watertreatment).
holds(1875, industrial).
holds(1875, awning).
holds(1875, chimney).
holds(1875, pipe).
holds(1875, truck).

sample(1876).
holds(1876, awning).
holds(1876, table).

sample(1877).
holds(1877, awning).
holds(1877, table).

sample(1878).
holds(1878, constructionsite).
holds(1878, industrial).
holds(1878, machine).

sample(1879).
holds(1879, awning).
holds(1879, table).

sample(1880).
holds(1880, awning).
holds(1880, table).

sample(1881).
holds(1881, miscindustrial).
holds(1881, powerplant).
holds(1881, watertreatment).
holds(1881, industrial).
holds(1881, chimney).
holds(1881, pipe).
holds(1881, truck).

sample(1882).
holds(1882, awning).
holds(1882, table).

sample(1883).
holds(1883, awning).
holds(1883, table).

sample(1884).
holds(1884, powerplant).
holds(1884, industrial).
holds(1884, chimney).
holds(1884, pipe).

sample(1885).
holds(1885, awning).
holds(1885, table).

sample(1886).
holds(1886, awning).
holds(1886, table).

sample(1887).
holds(1887, miscindustrial).
holds(1887, industrial).
holds(1887, truck).

sample(1888).
holds(1888, awning).
holds(1888, table).

sample(1889).
holds(1889, awning).
holds(1889, table).

sample(1890).
holds(1890, miscindustrial).
holds(1890, powerplant).
holds(1890, watertreatment).
holds(1890, industrial).
holds(1890, chimney).
holds(1890, pipe).
holds(1890, truck).

sample(1891).
holds(1891, awning).
holds(1891, table).

sample(1892).
holds(1892, awning).
holds(1892, table).

sample(1893).
holds(1893, powerplant).
holds(1893, industrial).
holds(1893, awning).
holds(1893, chimney).
holds(1893, pipe).

sample(1894).
holds(1894, awning).
holds(1894, table).

sample(1895).
holds(1895, awning).
holds(1895, table).

sample(1896).
holds(1896, powerplant).
holds(1896, industrial).
holds(1896, chimney).
holds(1896, pipe).

sample(1897).
holds(1897, awning).
holds(1897, table).

sample(1898).
holds(1898, awning).
holds(1898, table).

sample(1899).
holds(1899, miscindustrial).
holds(1899, powerplant).
holds(1899, watertreatment).
holds(1899, industrial).
holds(1899, chimney).
holds(1899, pipe).
holds(1899, truck).

sample(1900).
holds(1900, awning).
holds(1900, table).

sample(1901).
holds(1901, awning).
holds(1901, table).

sample(1902).
holds(1902, constructionsite).
holds(1902, powerplant).
holds(1902, industrial).
holds(1902, chimney).
holds(1902, pipe).
holds(1902, machine).

sample(1903).
holds(1903, awning).
holds(1903, table).

sample(1904).
holds(1904, awning).
holds(1904, table).

sample(1905).
holds(1905, constructionsite).
holds(1905, industrial).
holds(1905, machine).

sample(1906).
holds(1906, awning).
holds(1906, table).

sample(1907).
holds(1907, awning).
holds(1907, table).

sample(1908).
holds(1908, miscindustrial).
holds(1908, powerplant).
holds(1908, watertreatment).
holds(1908, industrial).
holds(1908, chimney).
holds(1908, pipe).
holds(1908, truck).

sample(1909).
holds(1909, awning).
holds(1909, table).

sample(1910).
holds(1910, awning).
holds(1910, table).

sample(1911).
holds(1911, miscindustrial).
holds(1911, industrial).
holds(1911, truck).

sample(1912).
holds(1912, awning).
holds(1912, table).

sample(1913).
holds(1913, awning).
holds(1913, table).

sample(1914).
holds(1914, powerplant).
holds(1914, watertreatment).
holds(1914, industrial).
holds(1914, awning).
holds(1914, chimney).
holds(1914, pipe).
holds(1914, truck).

sample(1915).
holds(1915, awning).
holds(1915, table).

sample(1916).
holds(1916, awning).
holds(1916, table).

sample(1917).
holds(1917, miscindustrial).
holds(1917, watertreatment).
holds(1917, industrial).
holds(1917, pipe).
holds(1917, truck).

sample(1918).
holds(1918, awning).
holds(1918, table).

sample(1919).
holds(1919, awning).
holds(1919, table).

sample(1920).
holds(1920, miscindustrial).
holds(1920, watertreatment).
holds(1920, industrial).
holds(1920, pipe).
holds(1920, truck).

sample(1921).
holds(1921, awning).
holds(1921, table).

sample(1922).
holds(1922, awning).
holds(1922, table).

sample(1923).
holds(1923, powerplant).
holds(1923, watertreatment).
holds(1923, industrial).
holds(1923, awning).
holds(1923, chimney).
holds(1923, pipe).
holds(1923, truck).

sample(1924).
holds(1924, awning).
holds(1924, table).

sample(1925).
holds(1925, awning).
holds(1925, table).

sample(1926).
holds(1926, watertreatment).
holds(1926, industrial).
holds(1926, awning).
holds(1926, pipe).
holds(1926, truck).

sample(1927).
holds(1927, awning).
holds(1927, table).

sample(1928).
holds(1928, awning).
holds(1928, table).

sample(1929).
holds(1929, miscindustrial).
holds(1929, powerplant).
holds(1929, watertreatment).
holds(1929, industrial).
holds(1929, chimney).
holds(1929, pipe).
holds(1929, truck).

sample(1930).
holds(1930, awning).
holds(1930, table).

sample(1931).
holds(1931, awning).
holds(1931, table).

sample(1932).
holds(1932, powerplant).
holds(1932, industrial).
holds(1932, awning).
holds(1932, chimney).
holds(1932, pipe).

sample(1933).
holds(1933, awning).
holds(1933, table).

sample(1934).
holds(1934, awning).
holds(1934, table).

sample(1935).
holds(1935, miscindustrial).
holds(1935, watertreatment).
holds(1935, industrial).
holds(1935, truck).

sample(1936).
holds(1936, awning).
holds(1936, table).

sample(1937).
holds(1937, awning).
holds(1937, table).

sample(1938).
holds(1938, miscindustrial).
holds(1938, powerplant).
holds(1938, watertreatment).
holds(1938, industrial).
holds(1938, chimney).
holds(1938, pipe).
holds(1938, truck).

sample(1939).
holds(1939, awning).
holds(1939, table).

sample(1940).
holds(1940, awning).
holds(1940, table).

sample(1941).
holds(1941, constructionsite).
holds(1941, powerplant).
holds(1941, industrial).
holds(1941, chimney).
holds(1941, pipe).
holds(1941, machine).

sample(1942).
holds(1942, awning).
holds(1942, table).

sample(1943).
holds(1943, awning).
holds(1943, table).

sample(1944).
holds(1944, miscindustrial).
holds(1944, powerplant).
holds(1944, watertreatment).
holds(1944, industrial).
holds(1944, chimney).
holds(1944, pipe).
holds(1944, truck).

sample(1945).
holds(1945, awning).
holds(1945, table).

sample(1946).
holds(1946, awning).
holds(1946, table).

sample(1947).
holds(1947, miscindustrial).
holds(1947, powerplant).
holds(1947, watertreatment).
holds(1947, industrial).
holds(1947, chimney).
holds(1947, pipe).
holds(1947, truck).

sample(1948).
holds(1948, awning).
holds(1948, table).

sample(1949).
holds(1949, awning).
holds(1949, table).

sample(1950).
holds(1950, miscindustrial).
holds(1950, powerplant).
holds(1950, watertreatment).
holds(1950, industrial).
holds(1950, chimney).
holds(1950, truck).

sample(1951).
holds(1951, awning).
holds(1951, table).

sample(1952).
holds(1952, awning).
holds(1952, table).

sample(1953).
holds(1953, miscindustrial).
holds(1953, watertreatment).
holds(1953, industrial).
holds(1953, pipe).
holds(1953, truck).

sample(1954).
holds(1954, awning).
holds(1954, table).

sample(1955).
holds(1955, awning).
holds(1955, table).

sample(1956).
holds(1956, constructionsite).
holds(1956, industrial).
holds(1956, machine).

sample(1957).
holds(1957, awning).
holds(1957, table).

sample(1958).
holds(1958, awning).
holds(1958, table).

sample(1959).
holds(1959, miscindustrial).
holds(1959, watertreatment).
holds(1959, industrial).
holds(1959, pipe).
holds(1959, truck).

sample(1960).
holds(1960, awning).
holds(1960, table).

sample(1961).
holds(1961, awning).
holds(1961, table).

sample(1962).
holds(1962, powerplant).
holds(1962, industrial).
holds(1962, chimney).
holds(1962, pipe).

sample(1963).
holds(1963, awning).
holds(1963, table).

sample(1964).
holds(1964, awning).
holds(1964, table).

sample(1965).
holds(1965, miscindustrial).
holds(1965, powerplant).
holds(1965, watertreatment).
holds(1965, industrial).
holds(1965, chimney).
holds(1965, pipe).
holds(1965, truck).

sample(1966).
holds(1966, awning).
holds(1966, table).

sample(1967).
holds(1967, awning).
holds(1967, table).

sample(1968).
holds(1968, constructionsite).
holds(1968, industrial).
holds(1968, machine).

sample(1969).
holds(1969, awning).
holds(1969, table).

sample(1970).
holds(1970, awning).
holds(1970, table).

sample(1971).
holds(1971, constructionsite).
holds(1971, powerplant).
holds(1971, industrial).
holds(1971, chimney).
holds(1971, pipe).
holds(1971, machine).

sample(1972).
holds(1972, awning).
holds(1972, table).

sample(1973).
holds(1973, awning).
holds(1973, table).

sample(1974).
holds(1974, watertreatment).
holds(1974, industrial).
holds(1974, awning).
holds(1974, pipe).
holds(1974, truck).

sample(1975).
holds(1975, awning).
holds(1975, table).

sample(1976).
holds(1976, awning).
holds(1976, table).

sample(1977).
holds(1977, powerplant).
holds(1977, industrial).
holds(1977, awning).
holds(1977, chimney).
holds(1977, pipe).

sample(1978).
holds(1978, awning).
holds(1978, table).

sample(1979).
holds(1979, awning).
holds(1979, table).

sample(1980).
holds(1980, miscindustrial).
holds(1980, watertreatment).
holds(1980, industrial).
holds(1980, pipe).
holds(1980, truck).

sample(1981).
holds(1981, awning).
holds(1981, table).

sample(1982).
holds(1982, awning).
holds(1982, table).

sample(1983).
holds(1983, constructionsite).
holds(1983, industrial).
holds(1983, machine).

sample(1984).
holds(1984, awning).
holds(1984, table).

sample(1985).
holds(1985, awning).
holds(1985, table).

sample(1986).
holds(1986, powerplant).
holds(1986, watertreatment).
holds(1986, industrial).
holds(1986, awning).
holds(1986, chimney).
holds(1986, pipe).
holds(1986, truck).

sample(1987).
holds(1987, awning).
holds(1987, table).

sample(1988).
holds(1988, awning).
holds(1988, table).

sample(1989).
holds(1989, constructionsite).
holds(1989, industrial).
holds(1989, machine).

sample(1990).
holds(1990, awning).
holds(1990, table).

sample(1991).
holds(1991, awning).
holds(1991, table).

sample(1992).
holds(1992, miscindustrial).
holds(1992, watertreatment).
holds(1992, industrial).
holds(1992, pipe).
holds(1992, truck).

sample(1993).
holds(1993, awning).
holds(1993, table).

sample(1994).
holds(1994, awning).
holds(1994, table).

sample(1995).
holds(1995, miscindustrial).
holds(1995, watertreatment).
holds(1995, industrial).
holds(1995, truck).

sample(1996).
holds(1996, awning).
holds(1996, table).

sample(1997).
holds(1997, awning).
holds(1997, table).

sample(1998).
holds(1998, powerplant).
holds(1998, industrial).
holds(1998, chimney).
holds(1998, pipe).

sample(1999).
holds(1999, awning).
holds(1999, table).

sample(2000).
holds(2000, awning).
holds(2000, table).

sample(2001).
holds(2001, miscindustrial).
holds(2001, watertreatment).
holds(2001, industrial).
holds(2001, pipe).
holds(2001, truck).

sample(2002).
holds(2002, awning).
holds(2002, table).

sample(2003).
holds(2003, awning).
holds(2003, table).

sample(2004).
holds(2004, constructionsite).
holds(2004, industrial).
holds(2004, machine).

sample(2005).
holds(2005, awning).
holds(2005, table).

sample(2006).
holds(2006, awning).
holds(2006, table).

sample(2007).
holds(2007, constructionsite).
holds(2007, industrial).
holds(2007, machine).

sample(2008).
holds(2008, awning).
holds(2008, table).

sample(2009).
holds(2009, awning).
holds(2009, table).

sample(2010).
holds(2010, miscindustrial).
holds(2010, watertreatment).
holds(2010, industrial).
holds(2010, pipe).
holds(2010, truck).

sample(2011).
holds(2011, awning).
holds(2011, table).

sample(2012).
holds(2012, awning).
holds(2012, table).

sample(2013).
holds(2013, constructionsite).
holds(2013, powerplant).
holds(2013, industrial).
holds(2013, chimney).
holds(2013, machine).

sample(2014).
holds(2014, awning).
holds(2014, table).

sample(2015).
holds(2015, awning).
holds(2015, table).

sample(2016).
holds(2016, constructionsite).
holds(2016, powerplant).
holds(2016, industrial).
holds(2016, chimney).
holds(2016, pipe).
holds(2016, machine).

sample(2017).
holds(2017, awning).
holds(2017, table).

sample(2018).
holds(2018, awning).
holds(2018, table).

sample(2019).
holds(2019, miscindustrial).
holds(2019, powerplant).
holds(2019, watertreatment).
holds(2019, industrial).
holds(2019, chimney).
holds(2019, pipe).
holds(2019, truck).

sample(2020).
holds(2020, awning).
holds(2020, table).

sample(2021).
holds(2021, awning).
holds(2021, table).

sample(2022).
holds(2022, constructionsite).
holds(2022, industrial).
holds(2022, machine).

sample(2023).
holds(2023, awning).
holds(2023, table).

sample(2024).
holds(2024, awning).
holds(2024, table).

sample(2025).
holds(2025, miscindustrial).
holds(2025, watertreatment).
holds(2025, industrial).
holds(2025, pipe).
holds(2025, truck).

sample(2026).
holds(2026, awning).
holds(2026, table).

sample(2027).
holds(2027, awning).
holds(2027, table).

sample(2028).
holds(2028, miscindustrial).
holds(2028, powerplant).
holds(2028, watertreatment).
holds(2028, industrial).
holds(2028, chimney).
holds(2028, pipe).
holds(2028, truck).

sample(2029).
holds(2029, awning).
holds(2029, table).

sample(2030).
holds(2030, awning).
holds(2030, table).

sample(2031).
holds(2031, watertreatment).
holds(2031, industrial).
holds(2031, awning).
holds(2031, pipe).
holds(2031, truck).

sample(2032).
holds(2032, awning).
holds(2032, table).

sample(2033).
holds(2033, awning).
holds(2033, table).

sample(2034).
holds(2034, watertreatment).
holds(2034, industrial).
holds(2034, awning).
holds(2034, pipe).
holds(2034, truck).

sample(2035).
holds(2035, awning).
holds(2035, table).

sample(2036).
holds(2036, awning).
holds(2036, table).

sample(2037).
holds(2037, miscindustrial).
holds(2037, powerplant).
holds(2037, watertreatment).
holds(2037, industrial).
holds(2037, chimney).
holds(2037, pipe).
holds(2037, truck).

sample(2038).
holds(2038, awning).
holds(2038, table).

sample(2039).
holds(2039, awning).
holds(2039, table).

sample(2040).
holds(2040, powerplant).
holds(2040, industrial).
holds(2040, awning).
holds(2040, chimney).
holds(2040, pipe).

sample(2041).
holds(2041, awning).
holds(2041, table).

sample(2042).
holds(2042, awning).
holds(2042, table).

sample(2043).
holds(2043, miscindustrial).
holds(2043, powerplant).
holds(2043, watertreatment).
holds(2043, industrial).
holds(2043, chimney).
holds(2043, pipe).
holds(2043, truck).

sample(2044).
holds(2044, awning).
holds(2044, table).

sample(2045).
holds(2045, awning).
holds(2045, table).

sample(2046).
holds(2046, constructionsite).
holds(2046, industrial).
holds(2046, machine).

sample(2047).
holds(2047, awning).
holds(2047, table).

sample(2048).
holds(2048, awning).
holds(2048, table).

sample(2049).
holds(2049, constructionsite).
holds(2049, industrial).
holds(2049, pipe).
holds(2049, machine).

sample(2050).
holds(2050, awning).
holds(2050, table).

sample(2051).
holds(2051, awning).
holds(2051, table).

sample(2052).
holds(2052, miscindustrial).
holds(2052, industrial).
holds(2052, truck).

sample(2053).
holds(2053, awning).
holds(2053, table).

sample(2054).
holds(2054, awning).
holds(2054, table).

sample(2055).
holds(2055, miscindustrial).
holds(2055, powerplant).
holds(2055, watertreatment).
holds(2055, industrial).
holds(2055, chimney).
holds(2055, pipe).
holds(2055, truck).

sample(2056).
holds(2056, awning).
holds(2056, table).

sample(2057).
holds(2057, awning).
holds(2057, table).

sample(2058).
holds(2058, constructionsite).
holds(2058, powerplant).
holds(2058, industrial).
holds(2058, chimney).
holds(2058, pipe).
holds(2058, machine).

sample(2059).
holds(2059, awning).
holds(2059, table).

sample(2060).
holds(2060, awning).
holds(2060, table).

sample(2061).
holds(2061, constructionsite).
holds(2061, industrial).
holds(2061, machine).

sample(2062).
holds(2062, awning).
holds(2062, table).

sample(2063).
holds(2063, awning).
holds(2063, table).

sample(2064).
holds(2064, constructionsite).
holds(2064, industrial).
holds(2064, machine).

sample(2065).
holds(2065, awning).
holds(2065, table).

sample(2066).
holds(2066, awning).
holds(2066, table).

sample(2067).
holds(2067, powerplant).
holds(2067, watertreatment).
holds(2067, industrial).
holds(2067, awning).
holds(2067, chimney).
holds(2067, pipe).
holds(2067, truck).

sample(2068).
holds(2068, awning).
holds(2068, table).

sample(2069).
holds(2069, awning).
holds(2069, table).

sample(2070).
holds(2070, miscindustrial).
holds(2070, watertreatment).
holds(2070, industrial).
holds(2070, pipe).
holds(2070, truck).

sample(2071).
holds(2071, awning).
holds(2071, table).

sample(2072).
holds(2072, awning).
holds(2072, table).

sample(2073).
holds(2073, miscindustrial).
holds(2073, powerplant).
holds(2073, watertreatment).
holds(2073, industrial).
holds(2073, chimney).
holds(2073, pipe).
holds(2073, truck).

sample(2074).
holds(2074, awning).
holds(2074, table).

sample(2075).
holds(2075, awning).
holds(2075, table).

sample(2076).
holds(2076, powerplant).
holds(2076, watertreatment).
holds(2076, industrial).
holds(2076, awning).
holds(2076, chimney).
holds(2076, pipe).
holds(2076, truck).

sample(2077).
holds(2077, awning).
holds(2077, table).

sample(2078).
holds(2078, awning).
holds(2078, table).

sample(2079).
holds(2079, miscindustrial).
holds(2079, powerplant).
holds(2079, watertreatment).
holds(2079, industrial).
holds(2079, chimney).
holds(2079, pipe).
holds(2079, truck).

sample(2080).
holds(2080, awning).
holds(2080, table).

sample(2081).
holds(2081, awning).
holds(2081, table).

sample(2082).
holds(2082, constructionsite).
holds(2082, industrial).
holds(2082, pipe).
holds(2082, machine).

sample(2083).
holds(2083, awning).
holds(2083, table).

sample(2084).
holds(2084, awning).
holds(2084, table).

sample(2085).
holds(2085, powerplant).
holds(2085, watertreatment).
holds(2085, industrial).
holds(2085, awning).
holds(2085, chimney).
holds(2085, pipe).
holds(2085, truck).

sample(2086).
holds(2086, awning).
holds(2086, table).

sample(2087).
holds(2087, awning).
holds(2087, table).

sample(2088).
holds(2088, miscindustrial).
holds(2088, powerplant).
holds(2088, watertreatment).
holds(2088, industrial).
holds(2088, chimney).
holds(2088, pipe).
holds(2088, truck).

sample(2089).
holds(2089, awning).
holds(2089, table).

sample(2090).
holds(2090, awning).
holds(2090, table).

sample(2091).
holds(2091, constructionsite).
holds(2091, industrial).
holds(2091, pipe).
holds(2091, machine).

sample(2092).
holds(2092, awning).
holds(2092, table).

sample(2093).
holds(2093, awning).
holds(2093, table).

sample(2094).
holds(2094, constructionsite).
holds(2094, industrial).
holds(2094, machine).

sample(2095).
holds(2095, awning).
holds(2095, table).

sample(2096).
holds(2096, awning).
holds(2096, table).

sample(2097).
holds(2097, miscindustrial).
holds(2097, watertreatment).
holds(2097, industrial).
holds(2097, pipe).
holds(2097, truck).

sample(2098).
holds(2098, awning).
holds(2098, table).

sample(2099).
holds(2099, awning).
holds(2099, table).

sample(2100).
holds(2100, powerplant).
holds(2100, industrial).
holds(2100, awning).
holds(2100, chimney).
holds(2100, pipe).

sample(2101).
holds(2101, awning).
holds(2101, table).

sample(2102).
holds(2102, awning).
holds(2102, table).

sample(2103).
holds(2103, miscindustrial).
holds(2103, powerplant).
holds(2103, watertreatment).
holds(2103, industrial).
holds(2103, chimney).
holds(2103, pipe).
holds(2103, truck).

sample(2104).
holds(2104, awning).
holds(2104, table).

sample(2105).
holds(2105, awning).
holds(2105, table).

sample(2106).
holds(2106, miscindustrial).
holds(2106, industrial).
holds(2106, truck).

sample(2107).
holds(2107, awning).
holds(2107, table).

sample(2108).
holds(2108, awning).
holds(2108, table).

sample(2109).
holds(2109, miscindustrial).
holds(2109, powerplant).
holds(2109, watertreatment).
holds(2109, industrial).
holds(2109, chimney).
holds(2109, pipe).
holds(2109, truck).

sample(2110).
holds(2110, awning).
holds(2110, table).

sample(2111).
holds(2111, awning).
holds(2111, table).

sample(2112).
holds(2112, miscindustrial).
holds(2112, powerplant).
holds(2112, watertreatment).
holds(2112, industrial).
holds(2112, chimney).
holds(2112, pipe).
holds(2112, truck).

sample(2113).
holds(2113, awning).
holds(2113, table).

sample(2114).
holds(2114, awning).
holds(2114, table).

sample(2115).
holds(2115, constructionsite).
holds(2115, industrial).
holds(2115, machine).

sample(2116).
holds(2116, awning).
holds(2116, table).

sample(2117).
holds(2117, awning).
holds(2117, table).

sample(2118).
holds(2118, constructionsite).
holds(2118, industrial).
holds(2118, pipe).
holds(2118, machine).

sample(2119).
holds(2119, awning).
holds(2119, table).

sample(2120).
holds(2120, awning).
holds(2120, table).

sample(2121).
holds(2121, miscindustrial).
holds(2121, powerplant).
holds(2121, watertreatment).
holds(2121, industrial).
holds(2121, chimney).
holds(2121, pipe).
holds(2121, truck).

sample(2122).
holds(2122, awning).
holds(2122, table).

sample(2123).
holds(2123, awning).
holds(2123, table).

sample(2124).
holds(2124, miscindustrial).
holds(2124, watertreatment).
holds(2124, industrial).
holds(2124, pipe).
holds(2124, truck).

sample(2125).
holds(2125, awning).
holds(2125, table).

sample(2126).
holds(2126, awning).
holds(2126, table).

sample(2127).
holds(2127, constructionsite).
holds(2127, powerplant).
holds(2127, industrial).
holds(2127, chimney).
holds(2127, pipe).
holds(2127, machine).

sample(2128).
holds(2128, awning).
holds(2128, table).

sample(2129).
holds(2129, awning).
holds(2129, table).

sample(2130).
holds(2130, miscindustrial).
holds(2130, industrial).
holds(2130, truck).

sample(2131).
holds(2131, awning).
holds(2131, table).

sample(2132).
holds(2132, awning).
holds(2132, table).

sample(2133).
holds(2133, miscindustrial).
holds(2133, powerplant).
holds(2133, watertreatment).
holds(2133, industrial).
holds(2133, chimney).
holds(2133, pipe).
holds(2133, truck).

sample(2134).
holds(2134, awning).
holds(2134, table).

sample(2135).
holds(2135, awning).
holds(2135, table).

sample(2136).
holds(2136, miscindustrial).
holds(2136, industrial).
holds(2136, truck).

sample(2137).
holds(2137, awning).
holds(2137, table).

sample(2138).
holds(2138, awning).
holds(2138, table).

sample(2139).
holds(2139, powerplant).
holds(2139, industrial).
holds(2139, chimney).
holds(2139, pipe).

sample(2140).
holds(2140, awning).
holds(2140, table).

sample(2141).
holds(2141, awning).
holds(2141, table).

sample(2142).
holds(2142, constructionsite).
holds(2142, powerplant).
holds(2142, industrial).
holds(2142, chimney).
holds(2142, pipe).
holds(2142, machine).

sample(2143).
holds(2143, awning).
holds(2143, table).

sample(2144).
holds(2144, awning).
holds(2144, table).

sample(2145).
holds(2145, miscindustrial).
holds(2145, industrial).
holds(2145, truck).

sample(2146).
holds(2146, awning).
holds(2146, table).

sample(2147).
holds(2147, awning).
holds(2147, table).

sample(2148).
holds(2148, miscindustrial).
holds(2148, watertreatment).
holds(2148, industrial).
holds(2148, pipe).
holds(2148, truck).

sample(2149).
holds(2149, awning).
holds(2149, table).

sample(2150).
holds(2150, awning).
holds(2150, table).

sample(2151).
holds(2151, watertreatment).
holds(2151, industrial).
holds(2151, awning).
holds(2151, pipe).
holds(2151, truck).

sample(2152).
holds(2152, awning).
holds(2152, table).

sample(2153).
holds(2153, awning).
holds(2153, table).

sample(2154).
holds(2154, miscindustrial).
holds(2154, industrial).
holds(2154, truck).

sample(2155).
holds(2155, awning).
holds(2155, table).

sample(2156).
holds(2156, awning).
holds(2156, table).

sample(2157).
holds(2157, miscindustrial).
holds(2157, watertreatment).
holds(2157, industrial).
holds(2157, pipe).
holds(2157, truck).

sample(2158).
holds(2158, awning).
holds(2158, table).

sample(2159).
holds(2159, awning).
holds(2159, table).

sample(2160).
holds(2160, constructionsite).
holds(2160, industrial).
holds(2160, machine).

sample(2161).
holds(2161, awning).
holds(2161, table).

sample(2162).
holds(2162, awning).
holds(2162, table).

sample(2163).
holds(2163, miscindustrial).
holds(2163, powerplant).
holds(2163, watertreatment).
holds(2163, industrial).
holds(2163, chimney).
holds(2163, pipe).
holds(2163, truck).

sample(2164).
holds(2164, awning).
holds(2164, table).

sample(2165).
holds(2165, awning).
holds(2165, table).

sample(2166).
holds(2166, powerplant).
holds(2166, watertreatment).
holds(2166, industrial).
holds(2166, awning).
holds(2166, chimney).
holds(2166, pipe).
holds(2166, truck).

sample(2167).
holds(2167, awning).
holds(2167, table).

sample(2168).
holds(2168, awning).
holds(2168, table).

sample(2169).
holds(2169, miscindustrial).
holds(2169, powerplant).
holds(2169, watertreatment).
holds(2169, industrial).
holds(2169, chimney).
holds(2169, pipe).
holds(2169, truck).

sample(2170).
holds(2170, awning).
holds(2170, table).

sample(2171).
holds(2171, awning).
holds(2171, table).

sample(2172).
holds(2172, powerplant).
holds(2172, industrial).
holds(2172, chimney).
holds(2172, pipe).

sample(2173).
holds(2173, awning).
holds(2173, table).

sample(2174).
holds(2174, awning).
holds(2174, table).

sample(2175).
holds(2175, miscindustrial).
holds(2175, watertreatment).
holds(2175, industrial).
holds(2175, pipe).
holds(2175, truck).

sample(2176).
holds(2176, awning).
holds(2176, table).

sample(2177).
holds(2177, awning).
holds(2177, table).

sample(2178).
holds(2178, miscindustrial).
holds(2178, watertreatment).
holds(2178, industrial).
holds(2178, pipe).
holds(2178, truck).

sample(2179).
holds(2179, awning).
holds(2179, table).

sample(2180).
holds(2180, awning).
holds(2180, table).

sample(2181).
holds(2181, miscindustrial).
holds(2181, watertreatment).
holds(2181, industrial).
holds(2181, pipe).
holds(2181, truck).

sample(2182).
holds(2182, awning).
holds(2182, table).

sample(2183).
holds(2183, awning).
holds(2183, table).

sample(2184).
holds(2184, constructionsite).
holds(2184, industrial).
holds(2184, machine).

sample(2185).
holds(2185, awning).
holds(2185, table).

sample(2186).
holds(2186, awning).
holds(2186, table).

sample(2187).
holds(2187, powerplant).
holds(2187, watertreatment).
holds(2187, industrial).
holds(2187, awning).
holds(2187, chimney).
holds(2187, pipe).
holds(2187, truck).

sample(2188).
holds(2188, awning).
holds(2188, table).

sample(2189).
holds(2189, awning).
holds(2189, table).

sample(2190).
holds(2190, miscindustrial).
holds(2190, watertreatment).
holds(2190, industrial).
holds(2190, pipe).
holds(2190, truck).

sample(2191).
holds(2191, awning).
holds(2191, table).

sample(2192).
holds(2192, awning).
holds(2192, table).

sample(2193).
holds(2193, watertreatment).
holds(2193, industrial).
holds(2193, awning).
holds(2193, pipe).
holds(2193, truck).

sample(2194).
holds(2194, awning).
holds(2194, table).

sample(2195).
holds(2195, awning).
holds(2195, table).

sample(2196).
holds(2196, constructionsite).
holds(2196, powerplant).
holds(2196, industrial).
holds(2196, chimney).
holds(2196, pipe).
holds(2196, machine).

sample(2197).
holds(2197, awning).
holds(2197, table).

sample(2198).
holds(2198, awning).
holds(2198, table).

sample(2199).
holds(2199, miscindustrial).
holds(2199, powerplant).
holds(2199, watertreatment).
holds(2199, industrial).
holds(2199, chimney).
holds(2199, pipe).
holds(2199, truck).

sample(2200).
holds(2200, awning).
holds(2200, table).

sample(2201).
holds(2201, awning).
holds(2201, table).

sample(2202).
holds(2202, constructionsite).
holds(2202, powerplant).
holds(2202, industrial).
holds(2202, chimney).
holds(2202, pipe).
holds(2202, machine).

sample(2203).
holds(2203, awning).
holds(2203, table).

sample(2204).
holds(2204, awning).
holds(2204, table).

sample(2205).
holds(2205, miscindustrial).
holds(2205, powerplant).
holds(2205, watertreatment).
holds(2205, industrial).
holds(2205, chimney).
holds(2205, pipe).
holds(2205, truck).

sample(2206).
holds(2206, awning).
holds(2206, table).

sample(2207).
holds(2207, awning).
holds(2207, table).

sample(2208).
holds(2208, constructionsite).
holds(2208, industrial).
holds(2208, machine).

sample(2209).
holds(2209, awning).
holds(2209, table).

sample(2210).
holds(2210, awning).
holds(2210, table).

sample(2211).
holds(2211, powerplant).
holds(2211, industrial).
holds(2211, chimney).
holds(2211, pipe).

sample(2212).
holds(2212, awning).
holds(2212, table).

sample(2213).
holds(2213, awning).
holds(2213, table).

sample(2214).
holds(2214, miscindustrial).
holds(2214, industrial).
holds(2214, truck).

sample(2215).
holds(2215, awning).
holds(2215, table).

sample(2216).
holds(2216, awning).
holds(2216, table).

sample(2217).
holds(2217, constructionsite).
holds(2217, powerplant).
holds(2217, industrial).
holds(2217, chimney).
holds(2217, machine).

sample(2218).
holds(2218, awning).
holds(2218, table).

sample(2219).
holds(2219, awning).
holds(2219, table).

sample(2220).
holds(2220, constructionsite).
holds(2220, industrial).
holds(2220, machine).

sample(2221).
holds(2221, awning).
holds(2221, table).

sample(2222).
holds(2222, awning).
holds(2222, table).

sample(2223).
holds(2223, watertreatment).
holds(2223, industrial).
holds(2223, awning).
holds(2223, pipe).
holds(2223, truck).

sample(2224).
holds(2224, awning).
holds(2224, table).

sample(2225).
holds(2225, awning).
holds(2225, table).

sample(2226).
holds(2226, miscindustrial).
holds(2226, industrial).
holds(2226, truck).

sample(2227).
holds(2227, awning).
holds(2227, table).

sample(2228).
holds(2228, awning).
holds(2228, table).

sample(2229).
holds(2229, miscindustrial).
holds(2229, watertreatment).
holds(2229, industrial).
holds(2229, truck).

sample(2230).
holds(2230, awning).
holds(2230, table).

sample(2231).
holds(2231, awning).
holds(2231, table).

sample(2232).
holds(2232, constructionsite).
holds(2232, industrial).
holds(2232, machine).

sample(2233).
holds(2233, awning).
holds(2233, table).

sample(2234).
holds(2234, awning).
holds(2234, table).

sample(2235).
holds(2235, constructionsite).
holds(2235, powerplant).
holds(2235, industrial).
holds(2235, chimney).
holds(2235, pipe).
holds(2235, machine).

sample(2236).
holds(2236, awning).
holds(2236, table).

sample(2237).
holds(2237, awning).
holds(2237, table).

sample(2238).
holds(2238, powerplant).
holds(2238, industrial).
holds(2238, chimney).
holds(2238, pipe).

sample(2239).
holds(2239, awning).
holds(2239, table).

sample(2240).
holds(2240, awning).
holds(2240, table).

sample(2241).
holds(2241, constructionsite).
holds(2241, powerplant).
holds(2241, industrial).
holds(2241, chimney).
holds(2241, pipe).
holds(2241, machine).

sample(2242).
holds(2242, awning).
holds(2242, table).

sample(2243).
holds(2243, awning).
holds(2243, table).

sample(2244).
holds(2244, constructionsite).
holds(2244, powerplant).
holds(2244, industrial).
holds(2244, chimney).
holds(2244, pipe).
holds(2244, machine).

sample(2245).
holds(2245, awning).
holds(2245, table).

sample(2246).
holds(2246, awning).
holds(2246, table).

sample(2247).
holds(2247, miscindustrial).
holds(2247, powerplant).
holds(2247, watertreatment).
holds(2247, industrial).
holds(2247, chimney).
holds(2247, pipe).
holds(2247, truck).

sample(2248).
holds(2248, awning).
holds(2248, table).

sample(2249).
holds(2249, awning).
holds(2249, table).

sample(2250).
holds(2250, powerplant).
holds(2250, industrial).
holds(2250, chimney).
holds(2250, pipe).

sample(2251).
holds(2251, awning).
holds(2251, table).

sample(2252).
holds(2252, awning).
holds(2252, table).

sample(2253).
holds(2253, constructionsite).
holds(2253, industrial).
holds(2253, machine).

sample(2254).
holds(2254, awning).
holds(2254, table).

sample(2255).
holds(2255, awning).
holds(2255, table).

sample(2256).
holds(2256, watertreatment).
holds(2256, industrial).
holds(2256, awning).
holds(2256, pipe).
holds(2256, truck).

sample(2257).
holds(2257, awning).
holds(2257, table).

sample(2258).
holds(2258, awning).
holds(2258, table).

sample(2259).
holds(2259, miscindustrial).
holds(2259, industrial).
holds(2259, truck).

sample(2260).
holds(2260, awning).
holds(2260, table).

sample(2261).
holds(2261, awning).
holds(2261, table).

sample(2262).
holds(2262, miscindustrial).
holds(2262, powerplant).
holds(2262, watertreatment).
holds(2262, industrial).
holds(2262, chimney).
holds(2262, pipe).
holds(2262, truck).

sample(2263).
holds(2263, awning).
holds(2263, table).

sample(2264).
holds(2264, awning).
holds(2264, table).

sample(2265).
holds(2265, watertreatment).
holds(2265, industrial).
holds(2265, awning).
holds(2265, pipe).
holds(2265, truck).

sample(2266).
holds(2266, awning).
holds(2266, table).

sample(2267).
holds(2267, awning).
holds(2267, table).

sample(2268).
holds(2268, constructionsite).
holds(2268, industrial).
holds(2268, machine).

sample(2269).
holds(2269, awning).
holds(2269, table).

sample(2270).
holds(2270, awning).
holds(2270, table).

sample(2271).
holds(2271, miscindustrial).
holds(2271, watertreatment).
holds(2271, industrial).
holds(2271, pipe).
holds(2271, truck).

sample(2272).
holds(2272, awning).
holds(2272, table).

sample(2273).
holds(2273, awning).
holds(2273, table).

sample(2274).
holds(2274, miscindustrial).
holds(2274, watertreatment).
holds(2274, industrial).
holds(2274, pipe).
holds(2274, truck).

sample(2275).
holds(2275, awning).
holds(2275, table).

sample(2276).
holds(2276, awning).
holds(2276, table).

sample(2277).
holds(2277, miscindustrial).
holds(2277, powerplant).
holds(2277, watertreatment).
holds(2277, industrial).
holds(2277, chimney).
holds(2277, pipe).
holds(2277, truck).

sample(2278).
holds(2278, awning).
holds(2278, table).

sample(2279).
holds(2279, awning).
holds(2279, table).

sample(2280).
holds(2280, constructionsite).
holds(2280, industrial).
holds(2280, pipe).
holds(2280, machine).

sample(2281).
holds(2281, awning).
holds(2281, table).

sample(2282).
holds(2282, awning).
holds(2282, table).

sample(2283).
holds(2283, powerplant).
holds(2283, watertreatment).
holds(2283, industrial).
holds(2283, awning).
holds(2283, chimney).
holds(2283, pipe).
holds(2283, truck).

sample(2284).
holds(2284, awning).
holds(2284, table).

sample(2285).
holds(2285, awning).
holds(2285, table).

sample(2286).
holds(2286, constructionsite).
holds(2286, powerplant).
holds(2286, industrial).
holds(2286, chimney).
holds(2286, pipe).
holds(2286, machine).

sample(2287).
holds(2287, awning).
holds(2287, table).

sample(2288).
holds(2288, awning).
holds(2288, table).

sample(2289).
holds(2289, miscindustrial).
holds(2289, powerplant).
holds(2289, watertreatment).
holds(2289, industrial).
holds(2289, chimney).
holds(2289, pipe).
holds(2289, truck).

sample(2290).
holds(2290, awning).
holds(2290, table).

sample(2291).
holds(2291, awning).
holds(2291, table).

sample(2292).
holds(2292, powerplant).
holds(2292, watertreatment).
holds(2292, industrial).
holds(2292, awning).
holds(2292, chimney).
holds(2292, pipe).
holds(2292, truck).

sample(2293).
holds(2293, awning).
holds(2293, table).

sample(2294).
holds(2294, awning).
holds(2294, table).

sample(2295).
holds(2295, miscindustrial).
holds(2295, watertreatment).
holds(2295, industrial).
holds(2295, awning).
holds(2295, pipe).
holds(2295, truck).

sample(2296).
holds(2296, awning).
holds(2296, table).

sample(2297).
holds(2297, awning).
holds(2297, table).

sample(2298).
holds(2298, miscindustrial).
holds(2298, industrial).
holds(2298, truck).

sample(2299).
holds(2299, awning).
holds(2299, table).

sample(2300).
holds(2300, awning).
holds(2300, table).

sample(2301).
holds(2301, miscindustrial).
holds(2301, industrial).
holds(2301, truck).

sample(2302).
holds(2302, awning).
holds(2302, table).

sample(2303).
holds(2303, awning).
holds(2303, table).

sample(2304).
holds(2304, constructionsite).
holds(2304, industrial).
holds(2304, pipe).
holds(2304, machine).

sample(2305).
holds(2305, awning).
holds(2305, table).

sample(2306).
holds(2306, awning).
holds(2306, table).

sample(2307).
holds(2307, miscindustrial).
holds(2307, industrial).
holds(2307, truck).

sample(2308).
holds(2308, awning).
holds(2308, table).

sample(2309).
holds(2309, awning).
holds(2309, table).

sample(2310).
holds(2310, powerplant).
holds(2310, industrial).
holds(2310, chimney).
holds(2310, pipe).

sample(2311).
holds(2311, awning).
holds(2311, table).

sample(2312).
holds(2312, awning).
holds(2312, table).

sample(2313).
holds(2313, constructionsite).
holds(2313, powerplant).
holds(2313, industrial).
holds(2313, chimney).
holds(2313, pipe).
holds(2313, machine).

sample(2314).
holds(2314, awning).
holds(2314, table).

sample(2315).
holds(2315, awning).
holds(2315, table).

sample(2316).
holds(2316, miscindustrial).
holds(2316, watertreatment).
holds(2316, industrial).
holds(2316, pipe).
holds(2316, truck).

sample(2317).
holds(2317, awning).
holds(2317, table).

sample(2318).
holds(2318, awning).
holds(2318, table).

sample(2319).
holds(2319, constructionsite).
holds(2319, industrial).
holds(2319, pipe).
holds(2319, machine).

sample(2320).
holds(2320, awning).
holds(2320, table).

sample(2321).
holds(2321, awning).
holds(2321, table).

sample(2322).
holds(2322, powerplant).
holds(2322, industrial).
holds(2322, awning).
holds(2322, chimney).
holds(2322, pipe).

sample(2323).
holds(2323, awning).
holds(2323, table).

sample(2324).
holds(2324, awning).
holds(2324, table).

sample(2325).
holds(2325, constructionsite).
holds(2325, industrial).
holds(2325, machine).

sample(2326).
holds(2326, awning).
holds(2326, table).

sample(2327).
holds(2327, awning).
holds(2327, table).

sample(2328).
holds(2328, miscindustrial).
holds(2328, watertreatment).
holds(2328, industrial).
holds(2328, pipe).
holds(2328, truck).

sample(2329).
holds(2329, awning).
holds(2329, table).

sample(2330).
holds(2330, awning).
holds(2330, table).

sample(2331).
holds(2331, miscindustrial).
holds(2331, powerplant).
holds(2331, watertreatment).
holds(2331, industrial).
holds(2331, chimney).
holds(2331, pipe).
holds(2331, truck).

sample(2332).
holds(2332, awning).
holds(2332, table).

sample(2333).
holds(2333, awning).
holds(2333, table).

sample(2334).
holds(2334, miscindustrial).
holds(2334, watertreatment).
holds(2334, industrial).
holds(2334, pipe).
holds(2334, truck).

sample(2335).
holds(2335, awning).
holds(2335, table).

sample(2336).
holds(2336, awning).
holds(2336, table).

sample(2337).
holds(2337, powerplant).
holds(2337, industrial).
holds(2337, awning).
holds(2337, chimney).
holds(2337, pipe).

sample(2338).
holds(2338, awning).
holds(2338, table).

sample(2339).
holds(2339, awning).
holds(2339, table).

sample(2340).
holds(2340, constructionsite).
holds(2340, industrial).
holds(2340, machine).

sample(2341).
holds(2341, awning).
holds(2341, table).

sample(2342).
holds(2342, awning).
holds(2342, table).

sample(2343).
holds(2343, constructionsite).
holds(2343, industrial).
holds(2343, machine).

sample(2344).
holds(2344, awning).
holds(2344, table).

sample(2345).
holds(2345, awning).
holds(2345, table).

sample(2346).
holds(2346, constructionsite).
holds(2346, powerplant).
holds(2346, industrial).
holds(2346, chimney).
holds(2346, pipe).
holds(2346, machine).

sample(2347).
holds(2347, awning).
holds(2347, table).

sample(2348).
holds(2348, awning).
holds(2348, table).

sample(2349).
holds(2349, miscindustrial).
holds(2349, industrial).
holds(2349, truck).

sample(2350).
holds(2350, awning).
holds(2350, table).

sample(2351).
holds(2351, awning).
holds(2351, table).

sample(2352).
holds(2352, miscindustrial).
holds(2352, industrial).
holds(2352, truck).

sample(2353).
holds(2353, awning).
holds(2353, table).

sample(2354).
holds(2354, awning).
holds(2354, table).

sample(2355).
holds(2355, miscindustrial).
holds(2355, powerplant).
holds(2355, watertreatment).
holds(2355, industrial).
holds(2355, chimney).
holds(2355, pipe).
holds(2355, truck).

sample(2356).
holds(2356, awning).
holds(2356, table).

sample(2357).
holds(2357, awning).
holds(2357, table).

sample(2358).
holds(2358, miscindustrial).
holds(2358, watertreatment).
holds(2358, industrial).
holds(2358, truck).

sample(2359).
holds(2359, awning).
holds(2359, table).

sample(2360).
holds(2360, awning).
holds(2360, table).

sample(2361).
holds(2361, powerplant).
holds(2361, industrial).
holds(2361, awning).
holds(2361, chimney).
holds(2361, pipe).

sample(2362).
holds(2362, awning).
holds(2362, table).

sample(2363).
holds(2363, awning).
holds(2363, table).

sample(2364).
holds(2364, constructionsite).
holds(2364, industrial).
holds(2364, machine).

sample(2365).
holds(2365, awning).
holds(2365, table).

sample(2366).
holds(2366, awning).
holds(2366, table).

sample(2367).
holds(2367, miscindustrial).
holds(2367, powerplant).
holds(2367, watertreatment).
holds(2367, industrial).
holds(2367, chimney).
holds(2367, pipe).
holds(2367, truck).

sample(2368).
holds(2368, awning).
holds(2368, table).

sample(2369).
holds(2369, awning).
holds(2369, table).

sample(2370).
holds(2370, miscindustrial).
holds(2370, watertreatment).
holds(2370, industrial).
holds(2370, pipe).
holds(2370, truck).

sample(2371).
holds(2371, awning).
holds(2371, table).

sample(2372).
holds(2372, awning).
holds(2372, table).

sample(2373).
holds(2373, miscindustrial).
holds(2373, industrial).
holds(2373, truck).

sample(2374).
holds(2374, awning).
holds(2374, table).

sample(2375).
holds(2375, awning).
holds(2375, table).

sample(2376).
holds(2376, watertreatment).
holds(2376, industrial).
holds(2376, awning).
holds(2376, pipe).
holds(2376, truck).

sample(2377).
holds(2377, awning).
holds(2377, table).

sample(2378).
holds(2378, awning).
holds(2378, table).

sample(2379).
holds(2379, constructionsite).
holds(2379, powerplant).
holds(2379, industrial).
holds(2379, chimney).
holds(2379, pipe).
holds(2379, machine).

sample(2380).
holds(2380, awning).
holds(2380, table).

sample(2381).
holds(2381, awning).
holds(2381, table).

sample(2382).
holds(2382, watertreatment).
holds(2382, industrial).
holds(2382, awning).
holds(2382, pipe).
holds(2382, truck).

sample(2383).
holds(2383, awning).
holds(2383, table).

sample(2384).
holds(2384, awning).
holds(2384, table).

sample(2385).
holds(2385, constructionsite).
holds(2385, industrial).
holds(2385, machine).

sample(2386).
holds(2386, awning).
holds(2386, table).

sample(2387).
holds(2387, awning).
holds(2387, table).

sample(2388).
holds(2388, miscindustrial).
holds(2388, watertreatment).
holds(2388, industrial).
holds(2388, pipe).
holds(2388, truck).

sample(2389).
holds(2389, awning).
holds(2389, table).

sample(2390).
holds(2390, awning).
holds(2390, table).

sample(2391).
holds(2391, constructionsite).
holds(2391, industrial).
holds(2391, pipe).
holds(2391, machine).

sample(2392).
holds(2392, awning).
holds(2392, table).

sample(2393).
holds(2393, awning).
holds(2393, table).

sample(2394).
holds(2394, miscindustrial).
holds(2394, watertreatment).
holds(2394, industrial).
holds(2394, pipe).
holds(2394, truck).

sample(2395).
holds(2395, awning).
holds(2395, table).

sample(2396).
holds(2396, awning).
holds(2396, table).

sample(2397).
holds(2397, constructionsite).
holds(2397, powerplant).
holds(2397, industrial).
holds(2397, chimney).
holds(2397, pipe).
holds(2397, machine).

sample(2398).
holds(2398, awning).
holds(2398, table).

sample(2399).
holds(2399, awning).
holds(2399, table).

sample(2400).
holds(2400, powerplant).
holds(2400, industrial).
holds(2400, chimney).
holds(2400, pipe).

sample(2401).
holds(2401, awning).
holds(2401, table).

sample(2402).
holds(2402, awning).
holds(2402, table).

sample(2403).
holds(2403, miscindustrial).
holds(2403, watertreatment).
holds(2403, industrial).
holds(2403, pipe).
holds(2403, truck).

sample(2404).
holds(2404, awning).
holds(2404, table).

sample(2405).
holds(2405, awning).
holds(2405, table).

sample(2406).
holds(2406, powerplant).
holds(2406, industrial).
holds(2406, awning).
holds(2406, chimney).
holds(2406, pipe).

sample(2407).
holds(2407, awning).
holds(2407, table).

sample(2408).
holds(2408, awning).
holds(2408, table).

sample(2409).
holds(2409, constructionsite).
holds(2409, powerplant).
holds(2409, industrial).
holds(2409, chimney).
holds(2409, pipe).
holds(2409, machine).

sample(2410).
holds(2410, awning).
holds(2410, table).

sample(2411).
holds(2411, awning).
holds(2411, table).

sample(2412).
holds(2412, miscindustrial).
holds(2412, powerplant).
holds(2412, watertreatment).
holds(2412, industrial).
holds(2412, chimney).
holds(2412, pipe).
holds(2412, truck).

sample(2413).
holds(2413, awning).
holds(2413, table).

sample(2414).
holds(2414, awning).
holds(2414, table).

sample(2415).
holds(2415, constructionsite).
holds(2415, powerplant).
holds(2415, industrial).
holds(2415, chimney).
holds(2415, pipe).
holds(2415, machine).

sample(2416).
holds(2416, awning).
holds(2416, table).

sample(2417).
holds(2417, awning).
holds(2417, table).

sample(2418).
holds(2418, powerplant).
holds(2418, industrial).
holds(2418, chimney).
holds(2418, pipe).

sample(2419).
holds(2419, awning).
holds(2419, table).

sample(2420).
holds(2420, awning).
holds(2420, table).

sample(2421).
holds(2421, powerplant).
holds(2421, industrial).
holds(2421, awning).
holds(2421, chimney).
holds(2421, pipe).

sample(2422).
holds(2422, awning).
holds(2422, table).

sample(2423).
holds(2423, awning).
holds(2423, table).

sample(2424).
holds(2424, watertreatment).
holds(2424, industrial).
holds(2424, awning).
holds(2424, pipe).
holds(2424, truck).

sample(2425).
holds(2425, awning).
holds(2425, table).

sample(2426).
holds(2426, awning).
holds(2426, table).

sample(2427).
holds(2427, miscindustrial).
holds(2427, powerplant).
holds(2427, watertreatment).
holds(2427, industrial).
holds(2427, chimney).
holds(2427, pipe).
holds(2427, truck).

sample(2428).
holds(2428, awning).
holds(2428, table).

sample(2429).
holds(2429, awning).
holds(2429, table).

sample(2430).
holds(2430, powerplant).
holds(2430, watertreatment).
holds(2430, industrial).
holds(2430, awning).
holds(2430, chimney).
holds(2430, pipe).
holds(2430, truck).

sample(2431).
holds(2431, awning).
holds(2431, table).

sample(2432).
holds(2432, awning).
holds(2432, table).

sample(2433).
holds(2433, constructionsite).
holds(2433, powerplant).
holds(2433, industrial).
holds(2433, chimney).
holds(2433, pipe).
holds(2433, machine).

sample(2434).
holds(2434, awning).
holds(2434, table).

sample(2435).
holds(2435, awning).
holds(2435, table).

sample(2436).
holds(2436, miscindustrial).
holds(2436, powerplant).
holds(2436, watertreatment).
holds(2436, industrial).
holds(2436, chimney).
holds(2436, pipe).
holds(2436, truck).

sample(2437).
holds(2437, awning).
holds(2437, table).

sample(2438).
holds(2438, awning).
holds(2438, table).

sample(2439).
holds(2439, powerplant).
holds(2439, industrial).
holds(2439, awning).
holds(2439, chimney).
holds(2439, pipe).

sample(2440).
holds(2440, awning).
holds(2440, table).

sample(2441).
holds(2441, awning).
holds(2441, table).

sample(2442).
holds(2442, powerplant).
holds(2442, watertreatment).
holds(2442, industrial).
holds(2442, awning).
holds(2442, chimney).
holds(2442, pipe).
holds(2442, truck).

sample(2443).
holds(2443, awning).
holds(2443, table).

sample(2444).
holds(2444, awning).
holds(2444, table).

sample(2445).
holds(2445, miscindustrial).
holds(2445, watertreatment).
holds(2445, industrial).
holds(2445, pipe).
holds(2445, truck).

sample(2446).
holds(2446, awning).
holds(2446, table).

sample(2447).
holds(2447, awning).
holds(2447, table).

sample(2448).
holds(2448, powerplant).
holds(2448, industrial).
holds(2448, chimney).
holds(2448, pipe).

sample(2449).
holds(2449, awning).
holds(2449, table).

sample(2450).
holds(2450, awning).
holds(2450, table).

sample(2451).
holds(2451, watertreatment).
holds(2451, industrial).
holds(2451, awning).
holds(2451, pipe).
holds(2451, truck).

sample(2452).
holds(2452, awning).
holds(2452, table).

sample(2453).
holds(2453, awning).
holds(2453, table).

sample(2454).
holds(2454, powerplant).
holds(2454, industrial).
holds(2454, chimney).
holds(2454, pipe).

sample(2455).
holds(2455, awning).
holds(2455, table).

sample(2456).
holds(2456, awning).
holds(2456, table).

sample(2457).
holds(2457, constructionsite).
holds(2457, industrial).
holds(2457, machine).

sample(2458).
holds(2458, awning).
holds(2458, table).

sample(2459).
holds(2459, awning).
holds(2459, table).

sample(2460).
holds(2460, watertreatment).
holds(2460, industrial).
holds(2460, awning).
holds(2460, pipe).
holds(2460, truck).

sample(2461).
holds(2461, awning).
holds(2461, table).

sample(2462).
holds(2462, awning).
holds(2462, table).

sample(2463).
holds(2463, miscindustrial).
holds(2463, industrial).
holds(2463, truck).

sample(2464).
holds(2464, awning).
holds(2464, table).

sample(2465).
holds(2465, awning).
holds(2465, table).

sample(2466).
holds(2466, constructionsite).
holds(2466, industrial).
holds(2466, pipe).
holds(2466, machine).

sample(2467).
holds(2467, awning).
holds(2467, table).

sample(2468).
holds(2468, awning).
holds(2468, table).

sample(2469).
holds(2469, powerplant).
holds(2469, industrial).
holds(2469, chimney).
holds(2469, pipe).

sample(2470).
holds(2470, awning).
holds(2470, table).

sample(2471).
holds(2471, awning).
holds(2471, table).

sample(2472).
holds(2472, powerplant).
holds(2472, industrial).
holds(2472, awning).
holds(2472, chimney).
holds(2472, pipe).

sample(2473).
holds(2473, awning).
holds(2473, table).

sample(2474).
holds(2474, awning).
holds(2474, table).

sample(2475).
holds(2475, miscindustrial).
holds(2475, watertreatment).
holds(2475, industrial).
holds(2475, truck).

sample(2476).
holds(2476, awning).
holds(2476, table).

sample(2477).
holds(2477, awning).
holds(2477, table).

sample(2478).
holds(2478, constructionsite).
holds(2478, industrial).
holds(2478, machine).

sample(2479).
holds(2479, awning).
holds(2479, table).

sample(2480).
holds(2480, awning).
holds(2480, table).

sample(2481).
holds(2481, powerplant).
holds(2481, industrial).
holds(2481, chimney).
holds(2481, pipe).

sample(2482).
holds(2482, awning).
holds(2482, table).

sample(2483).
holds(2483, awning).
holds(2483, table).

sample(2484).
holds(2484, miscindustrial).
holds(2484, powerplant).
holds(2484, watertreatment).
holds(2484, industrial).
holds(2484, chimney).
holds(2484, pipe).
holds(2484, truck).

sample(2485).
holds(2485, awning).
holds(2485, table).

sample(2486).
holds(2486, awning).
holds(2486, table).

sample(2487).
holds(2487, powerplant).
holds(2487, industrial).
holds(2487, awning).
holds(2487, chimney).
holds(2487, pipe).

sample(2488).
holds(2488, awning).
holds(2488, table).

sample(2489).
holds(2489, awning).
holds(2489, table).

sample(2490).
holds(2490, powerplant).
holds(2490, industrial).
holds(2490, chimney).
holds(2490, pipe).

sample(2491).
holds(2491, awning).
holds(2491, table).

sample(2492).
holds(2492, awning).
holds(2492, table).

sample(2493).
holds(2493, miscindustrial).
holds(2493, powerplant).
holds(2493, watertreatment).
holds(2493, industrial).
holds(2493, chimney).
holds(2493, pipe).
holds(2493, truck).

sample(2494).
holds(2494, awning).
holds(2494, table).

sample(2495).
holds(2495, awning).
holds(2495, table).

sample(2496).
holds(2496, miscindustrial).
holds(2496, powerplant).
holds(2496, watertreatment).
holds(2496, industrial).
holds(2496, chimney).
holds(2496, pipe).
holds(2496, truck).

sample(2497).
holds(2497, awning).
holds(2497, table).

sample(2498).
holds(2498, awning).
holds(2498, table).

sample(2499).
holds(2499, miscindustrial).
holds(2499, powerplant).
holds(2499, watertreatment).
holds(2499, industrial).
holds(2499, chimney).
holds(2499, pipe).
holds(2499, truck).

sample(2500).
holds(2500, awning).
holds(2500, table).

sample(2501).
holds(2501, awning).
holds(2501, table).

sample(2502).
holds(2502, constructionsite).
holds(2502, powerplant).
holds(2502, industrial).
holds(2502, chimney).
holds(2502, pipe).
holds(2502, machine).

sample(2503).
holds(2503, awning).
holds(2503, table).

sample(2504).
holds(2504, awning).
holds(2504, table).

sample(2505).
holds(2505, powerplant).
holds(2505, watertreatment).
holds(2505, industrial).
holds(2505, awning).
holds(2505, chimney).
holds(2505, pipe).
holds(2505, truck).

sample(2506).
holds(2506, awning).
holds(2506, table).

sample(2507).
holds(2507, awning).
holds(2507, table).

sample(2508).
holds(2508, miscindustrial).
holds(2508, industrial).
holds(2508, truck).

sample(2509).
holds(2509, awning).
holds(2509, table).

sample(2510).
holds(2510, powerplant).
holds(2510, industrial).
holds(2510, awning).
holds(2510, chimney).
holds(2510, pipe).

sample(2511).
holds(2511, miscindustrial).
holds(2511, industrial).
holds(2511, truck).

sample(2512).
holds(2512, awning).
holds(2512, table).

sample(2513).
holds(2513, powerplant).
holds(2513, awning).
holds(2513, chimney).
holds(2513, pipe).

sample(2514).
holds(2514, constructionsite).
holds(2514, industrial).
holds(2514, machine).

sample(2515).
holds(2515, awning).
holds(2515, table).

sample(2516).
holds(2516, awning).
holds(2516, table).

sample(2517).
holds(2517, powerplant).
holds(2517, watertreatment).
holds(2517, industrial).
holds(2517, awning).
holds(2517, chimney).
holds(2517, pipe).
holds(2517, truck).

sample(2518).
holds(2518, awning).
holds(2518, table).

sample(2519).
holds(2519, awning).
holds(2519, table).

sample(2520).
holds(2520, powerplant).
holds(2520, watertreatment).
holds(2520, industrial).
holds(2520, awning).
holds(2520, chimney).
holds(2520, pipe).
holds(2520, truck).

sample(2521).
holds(2521, awning).
holds(2521, table).

sample(2522).
holds(2522, awning).
holds(2522, table).

sample(2523).
holds(2523, constructionsite).
holds(2523, industrial).
holds(2523, machine).

sample(2524).
holds(2524, awning).
holds(2524, table).

sample(2525).
holds(2525, awning).
holds(2525, table).

sample(2526).
holds(2526, miscindustrial).
holds(2526, industrial).
holds(2526, truck).

sample(2527).
holds(2527, awning).
holds(2527, table).

sample(2528).
holds(2528, awning).
holds(2528, table).

sample(2529).
holds(2529, miscindustrial).
holds(2529, watertreatment).
holds(2529, industrial).
holds(2529, pipe).
holds(2529, truck).

sample(2530).
holds(2530, awning).
holds(2530, table).

sample(2531).
holds(2531, awning).
holds(2531, table).

sample(2532).
holds(2532, miscindustrial).
holds(2532, powerplant).
holds(2532, watertreatment).
holds(2532, industrial).
holds(2532, chimney).
holds(2532, pipe).
holds(2532, truck).

sample(2533).
holds(2533, awning).
holds(2533, table).

sample(2534).
holds(2534, awning).
holds(2534, table).

sample(2535).
holds(2535, constructionsite).
holds(2535, powerplant).
holds(2535, industrial).
holds(2535, chimney).
holds(2535, pipe).
holds(2535, machine).

sample(2536).
holds(2536, awning).
holds(2536, table).

sample(2537).
holds(2537, awning).
holds(2537, table).

sample(2538).
holds(2538, miscindustrial).
holds(2538, watertreatment).
holds(2538, industrial).
holds(2538, truck).

sample(2539).
holds(2539, awning).
holds(2539, table).

sample(2540).
holds(2540, awning).
holds(2540, table).

sample(2541).
holds(2541, constructionsite).
holds(2541, powerplant).
holds(2541, industrial).
holds(2541, chimney).
holds(2541, pipe).
holds(2541, machine).

sample(2542).
holds(2542, awning).
holds(2542, table).

sample(2543).
holds(2543, awning).
holds(2543, table).

sample(2544).
holds(2544, constructionsite).
holds(2544, powerplant).
holds(2544, industrial).
holds(2544, chimney).
holds(2544, pipe).
holds(2544, machine).

sample(2545).
holds(2545, awning).
holds(2545, table).

sample(2546).
holds(2546, awning).
holds(2546, table).

sample(2547).
holds(2547, miscindustrial).
holds(2547, industrial).
holds(2547, truck).

sample(2548).
holds(2548, awning).
holds(2548, table).

sample(2549).
holds(2549, awning).
holds(2549, table).

sample(2550).
holds(2550, constructionsite).
holds(2550, powerplant).
holds(2550, industrial).
holds(2550, chimney).
holds(2550, pipe).
holds(2550, machine).

sample(2551).
holds(2551, awning).
holds(2551, table).

sample(2552).
holds(2552, awning).
holds(2552, table).

sample(2553).
holds(2553, miscindustrial).
holds(2553, industrial).
holds(2553, truck).

sample(2554).
holds(2554, awning).
holds(2554, table).

sample(2555).
holds(2555, awning).
holds(2555, table).

sample(2556).
holds(2556, miscindustrial).
holds(2556, powerplant).
holds(2556, watertreatment).
holds(2556, industrial).
holds(2556, chimney).
holds(2556, pipe).
holds(2556, truck).

sample(2557).
holds(2557, awning).
holds(2557, table).

sample(2558).
holds(2558, awning).
holds(2558, table).

sample(2559).
holds(2559, constructionsite).
holds(2559, industrial).
holds(2559, pipe).
holds(2559, machine).

sample(2560).
holds(2560, awning).
holds(2560, table).

sample(2561).
holds(2561, awning).
holds(2561, table).

sample(2562).
holds(2562, miscindustrial).
holds(2562, watertreatment).
holds(2562, industrial).
holds(2562, pipe).
holds(2562, truck).

sample(2563).
holds(2563, awning).
holds(2563, table).

sample(2564).
holds(2564, awning).
holds(2564, table).

sample(2565).
holds(2565, miscindustrial).
holds(2565, powerplant).
holds(2565, watertreatment).
holds(2565, industrial).
holds(2565, chimney).
holds(2565, pipe).
holds(2565, truck).

sample(2566).
holds(2566, awning).
holds(2566, table).

sample(2567).
holds(2567, awning).
holds(2567, table).

sample(2568).
holds(2568, miscindustrial).
holds(2568, industrial).
holds(2568, truck).

sample(2569).
holds(2569, awning).
holds(2569, table).

sample(2570).
holds(2570, awning).
holds(2570, table).

sample(2571).
holds(2571, powerplant).
holds(2571, industrial).
holds(2571, awning).
holds(2571, chimney).
holds(2571, pipe).

sample(2572).
holds(2572, awning).
holds(2572, table).

sample(2573).
holds(2573, awning).
holds(2573, table).

sample(2574).
holds(2574, constructionsite).
holds(2574, industrial).
holds(2574, machine).

sample(2575).
holds(2575, awning).
holds(2575, table).

sample(2576).
holds(2576, awning).
holds(2576, table).

sample(2577).
holds(2577, miscindustrial).
holds(2577, watertreatment).
holds(2577, industrial).
holds(2577, truck).

sample(2578).
holds(2578, awning).
holds(2578, table).

sample(2579).
holds(2579, awning).
holds(2579, table).

sample(2580).
holds(2580, constructionsite).
holds(2580, industrial).
holds(2580, machine).

sample(2581).
holds(2581, awning).
holds(2581, table).

sample(2582).
holds(2582, awning).
holds(2582, table).

sample(2583).
holds(2583, miscindustrial).
holds(2583, powerplant).
holds(2583, watertreatment).
holds(2583, industrial).
holds(2583, chimney).
holds(2583, pipe).
holds(2583, truck).

sample(2584).
holds(2584, awning).
holds(2584, table).

sample(2585).
holds(2585, awning).
holds(2585, table).

sample(2586).
holds(2586, miscindustrial).
holds(2586, powerplant).
holds(2586, watertreatment).
holds(2586, industrial).
holds(2586, chimney).
holds(2586, pipe).
holds(2586, truck).

sample(2587).
holds(2587, awning).
holds(2587, table).

sample(2588).
holds(2588, awning).
holds(2588, table).

sample(2589).
holds(2589, miscindustrial).
holds(2589, industrial).
holds(2589, truck).

sample(2590).
holds(2590, awning).
holds(2590, table).

sample(2591).
holds(2591, awning).
holds(2591, table).

sample(2592).
holds(2592, constructionsite).
holds(2592, industrial).
holds(2592, pipe).
holds(2592, machine).

sample(2593).
holds(2593, awning).
holds(2593, table).

sample(2594).
holds(2594, awning).
holds(2594, table).

sample(2595).
holds(2595, constructionsite).
holds(2595, industrial).
holds(2595, machine).

sample(2596).
holds(2596, awning).
holds(2596, table).

sample(2597).
holds(2597, awning).
holds(2597, table).

sample(2598).
holds(2598, miscindustrial).
holds(2598, powerplant).
holds(2598, watertreatment).
holds(2598, industrial).
holds(2598, chimney).
holds(2598, pipe).
holds(2598, truck).

sample(2599).
holds(2599, awning).
holds(2599, table).

sample(2600).
holds(2600, awning).
holds(2600, table).

sample(2601).
holds(2601, miscindustrial).
holds(2601, powerplant).
holds(2601, watertreatment).
holds(2601, industrial).
holds(2601, chimney).
holds(2601, pipe).
holds(2601, truck).

sample(2602).
holds(2602, awning).
holds(2602, table).

sample(2603).
holds(2603, awning).
holds(2603, table).

sample(2604).
holds(2604, constructionsite).
holds(2604, industrial).
holds(2604, machine).

sample(2605).
holds(2605, awning).
holds(2605, table).

sample(2606).
holds(2606, awning).
holds(2606, table).

sample(2607).
holds(2607, constructionsite).
holds(2607, industrial).
holds(2607, pipe).
holds(2607, machine).

sample(2608).
holds(2608, awning).
holds(2608, table).

sample(2609).
holds(2609, awning).
holds(2609, table).

sample(2610).
holds(2610, watertreatment).
holds(2610, industrial).
holds(2610, awning).
holds(2610, pipe).
holds(2610, truck).

sample(2611).
holds(2611, awning).
holds(2611, table).

sample(2612).
holds(2612, awning).
holds(2612, table).

sample(2613).
holds(2613, miscindustrial).
holds(2613, powerplant).
holds(2613, watertreatment).
holds(2613, industrial).
holds(2613, chimney).
holds(2613, pipe).
holds(2613, truck).

sample(2614).
holds(2614, awning).
holds(2614, table).

sample(2615).
holds(2615, awning).
holds(2615, table).

sample(2616).
holds(2616, miscindustrial).
holds(2616, powerplant).
holds(2616, watertreatment).
holds(2616, industrial).
holds(2616, chimney).
holds(2616, pipe).
holds(2616, truck).

sample(2617).
holds(2617, awning).
holds(2617, table).

sample(2618).
holds(2618, awning).
holds(2618, table).

sample(2619).
holds(2619, miscindustrial).
holds(2619, watertreatment).
holds(2619, industrial).
holds(2619, pipe).
holds(2619, truck).

sample(2620).
holds(2620, awning).
holds(2620, table).

sample(2621).
holds(2621, awning).
holds(2621, table).

sample(2622).
holds(2622, constructionsite).
holds(2622, industrial).
holds(2622, machine).

sample(2623).
holds(2623, awning).
holds(2623, table).

sample(2624).
holds(2624, awning).
holds(2624, table).

sample(2625).
holds(2625, miscindustrial).
holds(2625, powerplant).
holds(2625, watertreatment).
holds(2625, industrial).
holds(2625, chimney).
holds(2625, pipe).
holds(2625, truck).

sample(2626).
holds(2626, awning).
holds(2626, table).

sample(2627).
holds(2627, awning).
holds(2627, table).

sample(2628).
holds(2628, powerplant).
holds(2628, industrial).
holds(2628, awning).
holds(2628, chimney).
holds(2628, pipe).

sample(2629).
holds(2629, awning).
holds(2629, table).

sample(2630).
holds(2630, awning).
holds(2630, table).

sample(2631).
holds(2631, miscindustrial).
holds(2631, industrial).
holds(2631, truck).

sample(2632).
holds(2632, awning).
holds(2632, table).

sample(2633).
holds(2633, awning).
holds(2633, table).

sample(2634).
holds(2634, miscindustrial).
holds(2634, powerplant).
holds(2634, watertreatment).
holds(2634, industrial).
holds(2634, chimney).
holds(2634, pipe).
holds(2634, truck).

sample(2635).
holds(2635, awning).
holds(2635, table).

sample(2636).
holds(2636, awning).
holds(2636, table).

sample(2637).
holds(2637, miscindustrial).
holds(2637, powerplant).
holds(2637, watertreatment).
holds(2637, industrial).
holds(2637, chimney).
holds(2637, pipe).
holds(2637, truck).

sample(2638).
holds(2638, awning).
holds(2638, table).

sample(2639).
holds(2639, awning).
holds(2639, table).

sample(2640).
holds(2640, miscindustrial).
holds(2640, powerplant).
holds(2640, watertreatment).
holds(2640, industrial).
holds(2640, chimney).
holds(2640, pipe).
holds(2640, truck).

sample(2641).
holds(2641, awning).
holds(2641, table).

sample(2642).
holds(2642, awning).
holds(2642, table).

sample(2643).
holds(2643, powerplant).
holds(2643, industrial).
holds(2643, awning).
holds(2643, chimney).
holds(2643, pipe).

sample(2644).
holds(2644, awning).
holds(2644, table).

sample(2645).
holds(2645, awning).
holds(2645, table).

sample(2646).
holds(2646, constructionsite).
holds(2646, industrial).
holds(2646, pipe).
holds(2646, machine).

sample(2647).
holds(2647, awning).
holds(2647, table).

sample(2648).
holds(2648, awning).
holds(2648, table).

sample(2649).
holds(2649, constructionsite).
holds(2649, industrial).
holds(2649, pipe).
holds(2649, machine).

sample(2650).
holds(2650, awning).
holds(2650, table).

sample(2651).
holds(2651, awning).
holds(2651, table).

sample(2652).
holds(2652, constructionsite).
holds(2652, industrial).
holds(2652, machine).

sample(2653).
holds(2653, awning).
holds(2653, table).

sample(2654).
holds(2654, awning).
holds(2654, table).

sample(2655).
holds(2655, miscindustrial).
holds(2655, powerplant).
holds(2655, watertreatment).
holds(2655, industrial).
holds(2655, chimney).
holds(2655, pipe).
holds(2655, truck).

sample(2656).
holds(2656, awning).
holds(2656, table).

sample(2657).
holds(2657, awning).
holds(2657, table).

sample(2658).
holds(2658, constructionsite).
holds(2658, powerplant).
holds(2658, industrial).
holds(2658, chimney).
holds(2658, pipe).
holds(2658, machine).

sample(2659).
holds(2659, awning).
holds(2659, table).

sample(2660).
holds(2660, awning).
holds(2660, table).

sample(2661).
holds(2661, powerplant).
holds(2661, industrial).
holds(2661, awning).
holds(2661, chimney).
holds(2661, pipe).

sample(2662).
holds(2662, awning).
holds(2662, table).

sample(2663).
holds(2663, awning).
holds(2663, table).

sample(2664).
holds(2664, constructionsite).
holds(2664, industrial).
holds(2664, pipe).
holds(2664, machine).

sample(2665).
holds(2665, awning).
holds(2665, table).

sample(2666).
holds(2666, awning).
holds(2666, table).

sample(2667).
holds(2667, watertreatment).
holds(2667, industrial).
holds(2667, awning).
holds(2667, pipe).
holds(2667, truck).

sample(2668).
holds(2668, awning).
holds(2668, table).

sample(2669).
holds(2669, awning).
holds(2669, table).

sample(2670).
holds(2670, miscindustrial).
holds(2670, powerplant).
holds(2670, watertreatment).
holds(2670, industrial).
holds(2670, chimney).
holds(2670, pipe).
holds(2670, truck).

sample(2671).
holds(2671, awning).
holds(2671, table).

sample(2672).
holds(2672, awning).
holds(2672, table).

sample(2673).
holds(2673, constructionsite).
holds(2673, industrial).
holds(2673, chimney).
holds(2673, machine).

sample(2674).
holds(2674, awning).
holds(2674, table).

sample(2675).
holds(2675, awning).
holds(2675, table).

sample(2676).
holds(2676, watertreatment).
holds(2676, industrial).
holds(2676, awning).
holds(2676, pipe).
holds(2676, truck).

sample(2677).
holds(2677, awning).
holds(2677, table).

sample(2678).
holds(2678, awning).
holds(2678, table).

sample(2679).
holds(2679, powerplant).
holds(2679, industrial).
holds(2679, chimney).
holds(2679, pipe).

sample(2680).
holds(2680, awning).
holds(2680, table).

sample(2681).
holds(2681, awning).
holds(2681, table).

sample(2682).
holds(2682, miscindustrial).
holds(2682, watertreatment).
holds(2682, industrial).
holds(2682, pipe).
holds(2682, truck).

sample(2683).
holds(2683, awning).
holds(2683, table).

sample(2684).
holds(2684, awning).
holds(2684, table).

sample(2685).
holds(2685, constructionsite).
holds(2685, industrial).
holds(2685, machine).

sample(2686).
holds(2686, awning).
holds(2686, table).

sample(2687).
holds(2687, awning).
holds(2687, table).

sample(2688).
holds(2688, miscindustrial).
holds(2688, watertreatment).
holds(2688, industrial).
holds(2688, pipe).
holds(2688, truck).

sample(2689).
holds(2689, awning).
holds(2689, table).

sample(2690).
holds(2690, awning).
holds(2690, table).

sample(2691).
holds(2691, constructionsite).
holds(2691, industrial).
holds(2691, machine).

sample(2692).
holds(2692, awning).
holds(2692, table).

sample(2693).
holds(2693, awning).
holds(2693, table).

sample(2694).
holds(2694, constructionsite).
holds(2694, industrial).
holds(2694, machine).

sample(2695).
holds(2695, awning).
holds(2695, table).

sample(2696).
holds(2696, awning).
holds(2696, table).

sample(2697).
holds(2697, watertreatment).
holds(2697, industrial).
holds(2697, awning).
holds(2697, pipe).
holds(2697, truck).

sample(2698).
holds(2698, awning).
holds(2698, table).

sample(2699).
holds(2699, awning).
holds(2699, table).

sample(2700).
holds(2700, powerplant).
holds(2700, watertreatment).
holds(2700, industrial).
holds(2700, awning).
holds(2700, chimney).
holds(2700, pipe).
holds(2700, truck).

sample(2701).
holds(2701, watertreatment).
holds(2701, awning).
holds(2701, pipe).
holds(2701, truck).

sample(2702).
holds(2702, awning).
holds(2702, table).

sample(2703).
holds(2703, miscindustrial).
holds(2703, watertreatment).
holds(2703, industrial).
holds(2703, pipe).
holds(2703, truck).

sample(2704).
holds(2704, awning).
holds(2704, table).

sample(2705).
holds(2705, awning).

sample(2706).
holds(2706, powerplant).
holds(2706, industrial).
holds(2706, chimney).
holds(2706, pipe).

sample(2707).
holds(2707, awning).
holds(2707, table).

sample(2708).
holds(2708, awning).
holds(2708, table).

sample(2709).
holds(2709, miscindustrial).
holds(2709, industrial).
holds(2709, truck).

sample(2710).
holds(2710, awning).
holds(2710, table).

sample(2711).
holds(2711, awning).
holds(2711, table).

sample(2712).
holds(2712, constructionsite).
holds(2712, industrial).
holds(2712, machine).

sample(2713).
holds(2713, awning).
holds(2713, table).

sample(2714).
holds(2714, awning).
holds(2714, table).

sample(2715).
holds(2715, powerplant).
holds(2715, industrial).
holds(2715, awning).
holds(2715, chimney).
holds(2715, pipe).

sample(2716).
holds(2716, awning).
holds(2716, table).

sample(2717).
holds(2717, awning).
holds(2717, table).

sample(2718).
holds(2718, powerplant).
holds(2718, industrial).
holds(2718, awning).
holds(2718, chimney).
holds(2718, pipe).

sample(2719).
holds(2719, awning).
holds(2719, table).

sample(2720).
holds(2720, awning).
holds(2720, table).

sample(2721).
holds(2721, miscindustrial).
holds(2721, watertreatment).
holds(2721, industrial).
holds(2721, pipe).
holds(2721, truck).

sample(2722).
holds(2722, awning).
holds(2722, table).

sample(2723).
holds(2723, awning).
holds(2723, table).

sample(2724).
holds(2724, powerplant).
holds(2724, industrial).
holds(2724, awning).
holds(2724, chimney).
holds(2724, pipe).

sample(2725).
holds(2725, awning).
holds(2725, table).

sample(2726).
holds(2726, awning).
holds(2726, table).

sample(2727).
holds(2727, constructionsite).
holds(2727, powerplant).
holds(2727, industrial).
holds(2727, chimney).
holds(2727, pipe).
holds(2727, machine).

sample(2728).
holds(2728, awning).
holds(2728, table).

sample(2729).
holds(2729, awning).
holds(2729, table).

sample(2730).
holds(2730, constructionsite).
holds(2730, powerplant).
holds(2730, industrial).
holds(2730, chimney).
holds(2730, pipe).
holds(2730, machine).

sample(2731).
holds(2731, awning).
holds(2731, table).

sample(2732).
holds(2732, awning).
holds(2732, table).

sample(2733).
holds(2733, powerplant).
holds(2733, industrial).
holds(2733, awning).
holds(2733, chimney).
holds(2733, pipe).

sample(2734).
holds(2734, awning).
holds(2734, table).

sample(2735).
holds(2735, awning).
holds(2735, table).

sample(2736).
holds(2736, miscindustrial).
holds(2736, powerplant).
holds(2736, watertreatment).
holds(2736, industrial).
holds(2736, chimney).
holds(2736, pipe).
holds(2736, truck).

sample(2737).
holds(2737, awning).
holds(2737, table).

sample(2738).
holds(2738, awning).
holds(2738, table).

sample(2739).
holds(2739, constructionsite).
holds(2739, industrial).
holds(2739, machine).

sample(2740).
holds(2740, awning).
holds(2740, table).

sample(2741).
holds(2741, awning).
holds(2741, table).

sample(2742).
holds(2742, powerplant).
holds(2742, industrial).
holds(2742, awning).
holds(2742, chimney).
holds(2742, pipe).

sample(2743).
holds(2743, awning).
holds(2743, table).

sample(2744).
holds(2744, awning).
holds(2744, table).

sample(2745).
holds(2745, miscindustrial).
holds(2745, watertreatment).
holds(2745, industrial).
holds(2745, pipe).
holds(2745, truck).

sample(2746).
holds(2746, awning).
holds(2746, table).

sample(2747).
holds(2747, awning).
holds(2747, table).

sample(2748).
holds(2748, powerplant).
holds(2748, industrial).
holds(2748, awning).
holds(2748, chimney).
holds(2748, pipe).

sample(2749).
holds(2749, awning).
holds(2749, table).

sample(2750).
holds(2750, awning).
holds(2750, table).

sample(2751).
holds(2751, miscindustrial).
holds(2751, powerplant).
holds(2751, watertreatment).
holds(2751, industrial).
holds(2751, chimney).
holds(2751, pipe).
holds(2751, truck).

sample(2752).
holds(2752, awning).
holds(2752, table).

sample(2753).
holds(2753, awning).
holds(2753, table).

sample(2754).
holds(2754, constructionsite).
holds(2754, powerplant).
holds(2754, industrial).
holds(2754, chimney).
holds(2754, pipe).
holds(2754, machine).

sample(2755).
holds(2755, awning).
holds(2755, table).

sample(2756).
holds(2756, awning).
holds(2756, table).

sample(2757).
holds(2757, miscindustrial).
holds(2757, watertreatment).
holds(2757, industrial).
holds(2757, pipe).
holds(2757, truck).

sample(2758).
holds(2758, awning).
holds(2758, table).

sample(2759).
holds(2759, awning).
holds(2759, table).

sample(2760).
holds(2760, constructionsite).
holds(2760, industrial).
holds(2760, machine).

sample(2761).
holds(2761, awning).
holds(2761, table).

sample(2762).
holds(2762, awning).
holds(2762, table).

sample(2763).
holds(2763, miscindustrial).
holds(2763, watertreatment).
holds(2763, industrial).
holds(2763, pipe).
holds(2763, truck).

sample(2764).
holds(2764, awning).
holds(2764, table).

sample(2765).
holds(2765, awning).
holds(2765, table).

sample(2766).
holds(2766, constructionsite).
holds(2766, powerplant).
holds(2766, industrial).
holds(2766, chimney).
holds(2766, pipe).
holds(2766, machine).

sample(2767).
holds(2767, awning).
holds(2767, table).

sample(2768).
holds(2768, awning).
holds(2768, table).

sample(2769).
holds(2769, miscindustrial).
holds(2769, powerplant).
holds(2769, watertreatment).
holds(2769, industrial).
holds(2769, chimney).
holds(2769, pipe).
holds(2769, truck).

sample(2770).
holds(2770, awning).
holds(2770, table).

sample(2771).
holds(2771, awning).
holds(2771, table).

sample(2772).
holds(2772, constructionsite).
holds(2772, powerplant).
holds(2772, industrial).
holds(2772, chimney).
holds(2772, pipe).
holds(2772, machine).

sample(2773).
holds(2773, awning).
holds(2773, table).

sample(2774).
holds(2774, awning).
holds(2774, table).

sample(2775).
holds(2775, miscindustrial).
holds(2775, watertreatment).
holds(2775, industrial).
holds(2775, pipe).
holds(2775, truck).

sample(2776).
holds(2776, awning).
holds(2776, table).

sample(2777).
holds(2777, awning).
holds(2777, table).

sample(2778).
holds(2778, powerplant).
holds(2778, watertreatment).
holds(2778, industrial).
holds(2778, awning).
holds(2778, chimney).
holds(2778, pipe).
holds(2778, truck).

sample(2779).
holds(2779, awning).
holds(2779, table).

sample(2780).
holds(2780, awning).
holds(2780, table).

sample(2781).
holds(2781, powerplant).
holds(2781, industrial).
holds(2781, chimney).
holds(2781, pipe).

sample(2782).
holds(2782, awning).
holds(2782, table).

sample(2783).
holds(2783, awning).
holds(2783, table).

sample(2784).
holds(2784, powerplant).
holds(2784, industrial).
holds(2784, chimney).
holds(2784, pipe).

sample(2785).
holds(2785, awning).
holds(2785, table).

sample(2786).
holds(2786, awning).
holds(2786, table).

sample(2787).
holds(2787, miscindustrial).
holds(2787, powerplant).
holds(2787, watertreatment).
holds(2787, industrial).
holds(2787, chimney).
holds(2787, pipe).
holds(2787, truck).

sample(2788).
holds(2788, awning).
holds(2788, table).

sample(2789).
holds(2789, awning).
holds(2789, table).

sample(2790).
holds(2790, constructionsite).
holds(2790, powerplant).
holds(2790, industrial).
holds(2790, chimney).
holds(2790, pipe).
holds(2790, machine).

sample(2791).
holds(2791, awning).
holds(2791, table).

sample(2792).
holds(2792, awning).
holds(2792, table).

sample(2793).
holds(2793, constructionsite).
holds(2793, industrial).
holds(2793, machine).

sample(2794).
holds(2794, awning).
holds(2794, table).

sample(2795).
holds(2795, awning).
holds(2795, table).

sample(2796).
holds(2796, miscindustrial).
holds(2796, industrial).
holds(2796, truck).

sample(2797).
holds(2797, awning).
holds(2797, table).

sample(2798).
holds(2798, watertreatment).
holds(2798, industrial).
holds(2798, awning).
holds(2798, pipe).
holds(2798, truck).

sample(2799).
holds(2799, powerplant).
holds(2799, industrial).
holds(2799, awning).
holds(2799, chimney).
holds(2799, pipe).

sample(2800).
holds(2800, awning).
holds(2800, table).

sample(2801).
holds(2801, awning).
holds(2801, table).

sample(2802).
holds(2802, constructionsite).
holds(2802, industrial).
holds(2802, machine).

sample(2803).
holds(2803, awning).
holds(2803, table).

sample(2804).
holds(2804, awning).
holds(2804, table).

sample(2805).
holds(2805, miscindustrial).
holds(2805, watertreatment).
holds(2805, industrial).
holds(2805, truck).

sample(2806).
holds(2806, awning).
holds(2806, table).

sample(2807).
holds(2807, awning).
holds(2807, table).

sample(2808).
holds(2808, powerplant).
holds(2808, industrial).
holds(2808, chimney).
holds(2808, pipe).

sample(2809).
holds(2809, awning).
holds(2809, table).

sample(2810).
holds(2810, awning).
holds(2810, table).

sample(2811).
holds(2811, miscindustrial).
holds(2811, powerplant).
holds(2811, watertreatment).
holds(2811, industrial).
holds(2811, chimney).
holds(2811, pipe).
holds(2811, truck).

sample(2812).
holds(2812, awning).
holds(2812, table).

sample(2813).
holds(2813, awning).
holds(2813, table).

sample(2814).
holds(2814, miscindustrial).
holds(2814, watertreatment).
holds(2814, industrial).
holds(2814, pipe).
holds(2814, truck).

sample(2815).
holds(2815, awning).
holds(2815, table).

sample(2816).
holds(2816, awning).
holds(2816, table).

sample(2817).
holds(2817, miscindustrial).
holds(2817, watertreatment).
holds(2817, industrial).
holds(2817, pipe).
holds(2817, truck).

sample(2818).
holds(2818, awning).
holds(2818, table).

sample(2819).
holds(2819, awning).
holds(2819, table).

sample(2820).
holds(2820, powerplant).
holds(2820, watertreatment).
holds(2820, industrial).
holds(2820, awning).
holds(2820, chimney).
holds(2820, pipe).
holds(2820, truck).

sample(2821).
holds(2821, awning).
holds(2821, table).

sample(2822).
holds(2822, awning).
holds(2822, table).

sample(2823).
holds(2823, powerplant).
holds(2823, industrial).
holds(2823, awning).
holds(2823, chimney).
holds(2823, pipe).

sample(2824).
holds(2824, awning).
holds(2824, table).

sample(2825).
holds(2825, awning).
holds(2825, table).

sample(2826).
holds(2826, miscindustrial).
holds(2826, powerplant).
holds(2826, watertreatment).
holds(2826, industrial).
holds(2826, chimney).
holds(2826, pipe).
holds(2826, truck).

sample(2827).
holds(2827, awning).
holds(2827, table).

sample(2828).
holds(2828, awning).
holds(2828, table).

sample(2829).
holds(2829, powerplant).
holds(2829, watertreatment).
holds(2829, industrial).
holds(2829, awning).
holds(2829, chimney).
holds(2829, pipe).
holds(2829, truck).

sample(2830).
holds(2830, awning).
holds(2830, table).

sample(2831).
holds(2831, awning).
holds(2831, table).

sample(2832).
holds(2832, miscindustrial).
holds(2832, watertreatment).
holds(2832, industrial).
holds(2832, pipe).
holds(2832, truck).

sample(2833).
holds(2833, awning).
holds(2833, table).

sample(2834).
holds(2834, awning).
holds(2834, table).

sample(2835).
holds(2835, miscindustrial).
holds(2835, powerplant).
holds(2835, watertreatment).
holds(2835, industrial).
holds(2835, chimney).
holds(2835, pipe).
holds(2835, truck).

sample(2836).
holds(2836, awning).
holds(2836, table).

sample(2837).
holds(2837, awning).
holds(2837, table).

sample(2838).
holds(2838, miscindustrial).
holds(2838, watertreatment).
holds(2838, industrial).
holds(2838, truck).

sample(2839).
holds(2839, awning).
holds(2839, table).

sample(2840).
holds(2840, awning).
holds(2840, table).

sample(2841).
holds(2841, miscindustrial).
holds(2841, industrial).
holds(2841, truck).

sample(2842).
holds(2842, awning).
holds(2842, table).

sample(2843).
holds(2843, awning).
holds(2843, table).

sample(2844).
holds(2844, miscindustrial).
holds(2844, powerplant).
holds(2844, watertreatment).
holds(2844, industrial).
holds(2844, chimney).
holds(2844, pipe).
holds(2844, truck).

sample(2845).
holds(2845, awning).
holds(2845, table).

sample(2846).
holds(2846, awning).
holds(2846, table).

sample(2847).
holds(2847, watertreatment).
holds(2847, industrial).
holds(2847, awning).
holds(2847, pipe).
holds(2847, truck).

sample(2848).
holds(2848, awning).
holds(2848, table).

sample(2849).
holds(2849, awning).
holds(2849, table).

sample(2850).
holds(2850, miscindustrial).
holds(2850, watertreatment).
holds(2850, industrial).
holds(2850, pipe).
holds(2850, truck).

sample(2851).
holds(2851, awning).
holds(2851, table).

sample(2852).
holds(2852, awning).
holds(2852, table).

sample(2853).
holds(2853, miscindustrial).
holds(2853, powerplant).
holds(2853, watertreatment).
holds(2853, industrial).
holds(2853, chimney).
holds(2853, pipe).
holds(2853, truck).

sample(2854).
holds(2854, awning).
holds(2854, table).

sample(2855).
holds(2855, awning).
holds(2855, table).

sample(2856).
holds(2856, powerplant).
holds(2856, industrial).
holds(2856, awning).
holds(2856, chimney).
holds(2856, pipe).

sample(2857).
holds(2857, awning).
holds(2857, table).

sample(2858).
holds(2858, awning).
holds(2858, table).

sample(2859).
holds(2859, miscindustrial).
holds(2859, watertreatment).
holds(2859, industrial).
holds(2859, truck).

sample(2860).
holds(2860, awning).
holds(2860, table).

sample(2861).
holds(2861, awning).
holds(2861, table).

sample(2862).
holds(2862, watertreatment).
holds(2862, industrial).
holds(2862, awning).
holds(2862, pipe).
holds(2862, truck).

sample(2863).
holds(2863, awning).
holds(2863, table).

sample(2864).
holds(2864, awning).
holds(2864, table).

sample(2865).
holds(2865, miscindustrial).
holds(2865, powerplant).
holds(2865, watertreatment).
holds(2865, industrial).
holds(2865, chimney).
holds(2865, pipe).
holds(2865, truck).

sample(2866).
holds(2866, awning).
holds(2866, table).

sample(2867).
holds(2867, awning).
holds(2867, table).

sample(2868).
holds(2868, miscindustrial).
holds(2868, powerplant).
holds(2868, watertreatment).
holds(2868, industrial).
holds(2868, chimney).
holds(2868, pipe).
holds(2868, truck).

sample(2869).
holds(2869, awning).
holds(2869, table).

sample(2870).
holds(2870, awning).
holds(2870, table).

sample(2871).
holds(2871, miscindustrial).
holds(2871, powerplant).
holds(2871, watertreatment).
holds(2871, industrial).
holds(2871, chimney).
holds(2871, pipe).
holds(2871, truck).

sample(2872).
holds(2872, awning).
holds(2872, table).

sample(2873).
holds(2873, awning).
holds(2873, table).

sample(2874).
holds(2874, constructionsite).
holds(2874, industrial).
holds(2874, machine).

sample(2875).
holds(2875, awning).
holds(2875, table).

sample(2876).
holds(2876, awning).
holds(2876, table).

sample(2877).
holds(2877, miscindustrial).
holds(2877, watertreatment).
holds(2877, industrial).
holds(2877, pipe).
holds(2877, truck).

sample(2878).
holds(2878, awning).
holds(2878, table).

sample(2879).
holds(2879, awning).
holds(2879, table).

sample(2880).
holds(2880, miscindustrial).
holds(2880, industrial).
holds(2880, truck).

sample(2881).
holds(2881, awning).
holds(2881, table).

sample(2882).
holds(2882, awning).
holds(2882, table).

sample(2883).
holds(2883, constructionsite).
holds(2883, industrial).
holds(2883, machine).

sample(2884).
holds(2884, awning).
holds(2884, table).

sample(2885).
holds(2885, awning).
holds(2885, table).

sample(2886).
holds(2886, constructionsite).
holds(2886, industrial).
holds(2886, machine).

sample(2887).
holds(2887, awning).
holds(2887, table).

sample(2888).
holds(2888, awning).
holds(2888, table).

sample(2889).
holds(2889, powerplant).
holds(2889, watertreatment).
holds(2889, industrial).
holds(2889, awning).
holds(2889, chimney).
holds(2889, pipe).
holds(2889, truck).

sample(2890).
holds(2890, awning).
holds(2890, table).

sample(2891).
holds(2891, awning).
holds(2891, table).

sample(2892).
holds(2892, powerplant).
holds(2892, watertreatment).
holds(2892, industrial).
holds(2892, awning).
holds(2892, chimney).
holds(2892, pipe).
holds(2892, truck).

sample(2893).
holds(2893, awning).
holds(2893, table).

sample(2894).
holds(2894, awning).
holds(2894, table).

sample(2895).
holds(2895, constructionsite).
holds(2895, industrial).
holds(2895, machine).

sample(2896).
holds(2896, awning).
holds(2896, table).

sample(2897).
holds(2897, awning).
holds(2897, table).

sample(2898).
holds(2898, miscindustrial).
holds(2898, watertreatment).
holds(2898, industrial).
holds(2898, pipe).
holds(2898, truck).

sample(2899).
holds(2899, awning).
holds(2899, table).

sample(2900).
holds(2900, awning).
holds(2900, table).

sample(2901).
holds(2901, constructionsite).
holds(2901, industrial).
holds(2901, machine).

sample(2902).
holds(2902, awning).
holds(2902, table).

sample(2903).
holds(2903, awning).
holds(2903, table).

sample(2904).
holds(2904, miscindustrial).
holds(2904, powerplant).
holds(2904, watertreatment).
holds(2904, industrial).
holds(2904, chimney).
holds(2904, pipe).
holds(2904, truck).

sample(2905).
holds(2905, awning).
holds(2905, table).

sample(2906).
holds(2906, awning).
holds(2906, table).

sample(2907).
holds(2907, miscindustrial).
holds(2907, watertreatment).
holds(2907, industrial).
holds(2907, pipe).
holds(2907, truck).

sample(2908).
holds(2908, awning).
holds(2908, table).

sample(2909).
holds(2909, awning).
holds(2909, table).

sample(2910).
holds(2910, miscindustrial).
holds(2910, powerplant).
holds(2910, watertreatment).
holds(2910, industrial).
holds(2910, chimney).
holds(2910, pipe).
holds(2910, truck).

sample(2911).
holds(2911, awning).
holds(2911, table).

sample(2912).
holds(2912, awning).
holds(2912, table).

sample(2913).
holds(2913, constructionsite).
holds(2913, industrial).
holds(2913, machine).

sample(2914).
holds(2914, awning).
holds(2914, table).

sample(2915).
holds(2915, awning).
holds(2915, table).

sample(2916).
holds(2916, constructionsite).
holds(2916, industrial).
holds(2916, machine).

sample(2917).
holds(2917, awning).
holds(2917, table).

sample(2918).
holds(2918, awning).
holds(2918, table).

sample(2919).
holds(2919, powerplant).
holds(2919, industrial).
holds(2919, chimney).
holds(2919, pipe).

sample(2920).
holds(2920, awning).
holds(2920, table).

sample(2921).
holds(2921, awning).
holds(2921, table).

sample(2922).
holds(2922, constructionsite).
holds(2922, industrial).
holds(2922, machine).

sample(2923).
holds(2923, awning).
holds(2923, table).

sample(2924).
holds(2924, awning).
holds(2924, table).

sample(2925).
holds(2925, miscindustrial).
holds(2925, watertreatment).
holds(2925, industrial).
holds(2925, pipe).
holds(2925, truck).

sample(2926).
holds(2926, awning).
holds(2926, table).

sample(2927).
holds(2927, awning).
holds(2927, table).

sample(2928).
holds(2928, miscindustrial).
holds(2928, powerplant).
holds(2928, watertreatment).
holds(2928, industrial).
holds(2928, chimney).
holds(2928, pipe).
holds(2928, truck).

sample(2929).
holds(2929, awning).
holds(2929, table).

sample(2930).
holds(2930, awning).
holds(2930, table).

sample(2931).
holds(2931, miscindustrial).
holds(2931, watertreatment).
holds(2931, industrial).
holds(2931, truck).

sample(2932).
holds(2932, awning).
holds(2932, table).

sample(2933).
holds(2933, awning).
holds(2933, table).

sample(2934).
holds(2934, powerplant).
holds(2934, watertreatment).
holds(2934, industrial).
holds(2934, awning).
holds(2934, chimney).
holds(2934, pipe).
holds(2934, truck).

sample(2935).
holds(2935, awning).
holds(2935, table).

sample(2936).
holds(2936, awning).
holds(2936, table).

sample(2937).
holds(2937, constructionsite).
holds(2937, industrial).
holds(2937, pipe).
holds(2937, machine).

sample(2938).
holds(2938, awning).
holds(2938, table).

sample(2939).
holds(2939, awning).
holds(2939, table).

sample(2940).
holds(2940, miscindustrial).
holds(2940, watertreatment).
holds(2940, industrial).
holds(2940, pipe).
holds(2940, truck).

sample(2941).
holds(2941, awning).
holds(2941, table).

sample(2942).
holds(2942, awning).
holds(2942, table).

sample(2943).
holds(2943, constructionsite).
holds(2943, powerplant).
holds(2943, industrial).
holds(2943, chimney).
holds(2943, pipe).
holds(2943, machine).

sample(2944).
holds(2944, awning).
holds(2944, table).

sample(2945).
holds(2945, awning).
holds(2945, table).

sample(2946).
holds(2946, constructionsite).
holds(2946, powerplant).
holds(2946, industrial).
holds(2946, chimney).
holds(2946, pipe).
holds(2946, machine).

sample(2947).
holds(2947, awning).
holds(2947, table).

sample(2948).
holds(2948, awning).
holds(2948, table).

sample(2949).
holds(2949, powerplant).
holds(2949, industrial).
holds(2949, chimney).
holds(2949, pipe).

sample(2950).
holds(2950, awning).
holds(2950, table).

sample(2951).
holds(2951, awning).
holds(2951, table).

sample(2952).
holds(2952, constructionsite).
holds(2952, industrial).
holds(2952, pipe).
holds(2952, machine).

sample(2953).
holds(2953, awning).
holds(2953, table).

sample(2954).
holds(2954, awning).
holds(2954, table).

sample(2955).
holds(2955, powerplant).
holds(2955, industrial).
holds(2955, awning).
holds(2955, chimney).
holds(2955, pipe).

sample(2956).
holds(2956, awning).
holds(2956, table).

sample(2957).
holds(2957, awning).
holds(2957, table).

sample(2958).
holds(2958, constructionsite).
holds(2958, industrial).
holds(2958, machine).

sample(2959).
holds(2959, awning).
holds(2959, table).

sample(2960).
holds(2960, awning).
holds(2960, table).

sample(2961).
holds(2961, powerplant).
holds(2961, industrial).
holds(2961, chimney).
holds(2961, pipe).

sample(2962).
holds(2962, awning).
holds(2962, table).

sample(2963).
holds(2963, awning).
holds(2963, table).

sample(2964).
holds(2964, constructionsite).
holds(2964, industrial).
holds(2964, machine).

sample(2965).
holds(2965, awning).
holds(2965, table).

sample(2966).
holds(2966, awning).
holds(2966, table).

sample(2967).
holds(2967, miscindustrial).
holds(2967, powerplant).
holds(2967, watertreatment).
holds(2967, industrial).
holds(2967, chimney).
holds(2967, pipe).
holds(2967, truck).

sample(2968).
holds(2968, awning).
holds(2968, table).

sample(2969).
holds(2969, awning).
holds(2969, table).

sample(2970).
holds(2970, miscindustrial).
holds(2970, powerplant).
holds(2970, watertreatment).
holds(2970, industrial).
holds(2970, chimney).
holds(2970, pipe).
holds(2970, truck).

sample(2971).
holds(2971, awning).
holds(2971, table).

sample(2972).
holds(2972, awning).
holds(2972, table).

sample(2973).
holds(2973, powerplant).
holds(2973, industrial).
holds(2973, awning).
holds(2973, chimney).
holds(2973, pipe).

sample(2974).
holds(2974, awning).
holds(2974, table).

sample(2975).
holds(2975, awning).
holds(2975, table).

sample(2976).
holds(2976, constructionsite).
holds(2976, industrial).
holds(2976, machine).

sample(2977).
holds(2977, awning).
holds(2977, table).

sample(2978).
holds(2978, awning).
holds(2978, table).

sample(2979).
holds(2979, miscindustrial).
holds(2979, powerplant).
holds(2979, watertreatment).
holds(2979, industrial).
holds(2979, chimney).
holds(2979, pipe).
holds(2979, truck).

sample(2980).
holds(2980, awning).
holds(2980, table).

sample(2981).
holds(2981, awning).
holds(2981, table).

sample(2982).
holds(2982, miscindustrial).
holds(2982, powerplant).
holds(2982, watertreatment).
holds(2982, industrial).
holds(2982, chimney).
holds(2982, pipe).
holds(2982, truck).

sample(2983).
holds(2983, awning).
holds(2983, table).

sample(2984).
holds(2984, awning).
holds(2984, table).

sample(2985).
holds(2985, powerplant).
holds(2985, industrial).
holds(2985, awning).
holds(2985, chimney).
holds(2985, pipe).

sample(2986).
holds(2986, awning).
holds(2986, table).

sample(2987).
holds(2987, awning).
holds(2987, table).

sample(2988).
holds(2988, powerplant).
holds(2988, industrial).
holds(2988, awning).
holds(2988, chimney).
holds(2988, pipe).

sample(2989).
holds(2989, awning).
holds(2989, table).

sample(2990).
holds(2990, awning).
holds(2990, table).

sample(2991).
holds(2991, watertreatment).
holds(2991, industrial).
holds(2991, awning).
holds(2991, pipe).
holds(2991, truck).

sample(2992).
holds(2992, awning).
holds(2992, table).

sample(2993).
holds(2993, awning).
holds(2993, table).

sample(2994).
holds(2994, miscindustrial).
holds(2994, industrial).
holds(2994, truck).

sample(2995).
holds(2995, awning).
holds(2995, table).

sample(2996).
holds(2996, awning).
holds(2996, table).

sample(2997).
holds(2997, constructionsite).
holds(2997, industrial).
holds(2997, machine).

sample(2998).
holds(2998, awning).
holds(2998, table).

sample(2999).
holds(2999, awning).
holds(2999, table).

sample(3000).
holds(3000, miscindustrial).
holds(3000, industrial).
holds(3000, truck).

sample(3001).
holds(3001, awning).
holds(3001, table).

sample(3002).
holds(3002, awning).
holds(3002, table).

sample(3003).
holds(3003, powerplant).
holds(3003, industrial).
holds(3003, awning).
holds(3003, chimney).
holds(3003, pipe).

sample(3004).
holds(3004, awning).
holds(3004, table).

sample(3005).
holds(3005, awning).
holds(3005, table).

sample(3006).
holds(3006, miscindustrial).
holds(3006, powerplant).
holds(3006, watertreatment).
holds(3006, industrial).
holds(3006, chimney).
holds(3006, pipe).
holds(3006, truck).

sample(3007).
holds(3007, awning).
holds(3007, table).

sample(3008).
holds(3008, awning).
holds(3008, table).

sample(3009).
holds(3009, powerplant).
holds(3009, industrial).
holds(3009, chimney).
holds(3009, pipe).

sample(3010).
holds(3010, awning).
holds(3010, table).

sample(3011).
holds(3011, industrial).
holds(3011, awning).

sample(3012).
holds(3012, powerplant).
holds(3012, industrial).
holds(3012, awning).
holds(3012, chimney).
holds(3012, pipe).

sample(3013).
holds(3013, awning).
holds(3013, table).

sample(3014).
holds(3014, awning).
holds(3014, table).

sample(3015).
holds(3015, powerplant).
holds(3015, industrial).
holds(3015, awning).
holds(3015, chimney).
holds(3015, pipe).

sample(3016).
holds(3016, awning).
holds(3016, table).

sample(3017).
holds(3017, awning).
holds(3017, table).

sample(3018).
holds(3018, miscindustrial).
holds(3018, industrial).
holds(3018, truck).

sample(3019).
holds(3019, awning).
holds(3019, table).

sample(3020).
holds(3020, awning).
holds(3020, table).
holds(3020, chimney).

sample(3021).
holds(3021, miscindustrial).
holds(3021, watertreatment).
holds(3021, industrial).
holds(3021, truck).

sample(3022).
holds(3022, awning).
holds(3022, table).

sample(3023).
holds(3023, awning).
holds(3023, table).

sample(3024).
holds(3024, powerplant).
holds(3024, industrial).
holds(3024, awning).
holds(3024, chimney).
holds(3024, pipe).

sample(3025).
holds(3025, awning).
holds(3025, table).

sample(3026).
holds(3026, awning).
holds(3026, table).

sample(3027).
holds(3027, powerplant).
holds(3027, industrial).
holds(3027, chimney).
holds(3027, pipe).

sample(3028).
holds(3028, awning).
holds(3028, table).

sample(3029).
holds(3029, awning).
holds(3029, table).

sample(3030).
holds(3030, constructionsite).
holds(3030, industrial).
holds(3030, pipe).
holds(3030, machine).

sample(3031).
holds(3031, awning).
holds(3031, table).

sample(3032).
holds(3032, awning).
holds(3032, table).

sample(3033).
holds(3033, powerplant).
holds(3033, industrial).
holds(3033, chimney).
holds(3033, pipe).

sample(3034).
holds(3034, awning).
holds(3034, table).

sample(3035).
holds(3035, awning).
holds(3035, table).

sample(3036).
holds(3036, miscindustrial).
holds(3036, powerplant).
holds(3036, watertreatment).
holds(3036, industrial).
holds(3036, chimney).
holds(3036, pipe).
holds(3036, truck).

sample(3037).
holds(3037, awning).
holds(3037, table).

sample(3038).
holds(3038, awning).
holds(3038, table).

sample(3039).
holds(3039, constructionsite).
holds(3039, powerplant).
holds(3039, industrial).
holds(3039, chimney).
holds(3039, pipe).
holds(3039, machine).

sample(3040).
holds(3040, awning).
holds(3040, table).

sample(3041).
holds(3041, awning).
holds(3041, table).

sample(3042).
holds(3042, powerplant).
holds(3042, industrial).
holds(3042, awning).
holds(3042, chimney).
holds(3042, pipe).

sample(3043).
holds(3043, awning).
holds(3043, table).

sample(3044).
holds(3044, awning).
holds(3044, table).

sample(3045).
holds(3045, miscindustrial).
holds(3045, watertreatment).
holds(3045, industrial).
holds(3045, pipe).
holds(3045, truck).

sample(3046).
holds(3046, awning).
holds(3046, table).

sample(3047).
holds(3047, awning).
holds(3047, table).

sample(3048).
holds(3048, miscindustrial).
holds(3048, powerplant).
holds(3048, watertreatment).
holds(3048, industrial).
holds(3048, chimney).
holds(3048, pipe).
holds(3048, truck).

sample(3049).
holds(3049, awning).
holds(3049, table).

sample(3050).
holds(3050, awning).
holds(3050, table).

sample(3051).
holds(3051, miscindustrial).
holds(3051, powerplant).
holds(3051, watertreatment).
holds(3051, industrial).
holds(3051, chimney).
holds(3051, pipe).
holds(3051, truck).

sample(3052).
holds(3052, awning).
holds(3052, table).

sample(3053).
holds(3053, awning).
holds(3053, table).

sample(3054).
holds(3054, constructionsite).
holds(3054, industrial).
holds(3054, machine).

sample(3055).
holds(3055, awning).
holds(3055, table).

sample(3056).
holds(3056, awning).
holds(3056, table).

sample(3057).
holds(3057, powerplant).
holds(3057, industrial).
holds(3057, awning).
holds(3057, chimney).
holds(3057, pipe).

sample(3058).
holds(3058, awning).
holds(3058, table).

sample(3059).
holds(3059, awning).
holds(3059, table).

sample(3060).
holds(3060, miscindustrial).
holds(3060, powerplant).
holds(3060, watertreatment).
holds(3060, industrial).
holds(3060, chimney).
holds(3060, pipe).
holds(3060, truck).

sample(3061).
holds(3061, awning).
holds(3061, table).

sample(3062).
holds(3062, awning).
holds(3062, table).

sample(3063).
holds(3063, miscindustrial).
holds(3063, industrial).
holds(3063, truck).

sample(3064).
holds(3064, awning).
holds(3064, table).

sample(3065).
holds(3065, awning).
holds(3065, table).

sample(3066).
holds(3066, constructionsite).
holds(3066, powerplant).
holds(3066, industrial).
holds(3066, chimney).
holds(3066, pipe).
holds(3066, machine).

sample(3067).
holds(3067, awning).
holds(3067, table).

sample(3068).
holds(3068, awning).
holds(3068, table).

sample(3069).
holds(3069, miscindustrial).
holds(3069, industrial).
holds(3069, truck).

sample(3070).
holds(3070, awning).
holds(3070, table).

sample(3071).
holds(3071, awning).
holds(3071, table).

sample(3072).
holds(3072, powerplant).
holds(3072, industrial).
holds(3072, awning).
holds(3072, chimney).
holds(3072, pipe).

sample(3073).
holds(3073, awning).
holds(3073, table).

sample(3074).
holds(3074, awning).
holds(3074, table).

sample(3075).
holds(3075, watertreatment).
holds(3075, industrial).
holds(3075, awning).
holds(3075, pipe).
holds(3075, truck).

sample(3076).
holds(3076, awning).
holds(3076, table).

sample(3077).
holds(3077, awning).
holds(3077, table).

sample(3078).
holds(3078, powerplant).
holds(3078, watertreatment).
holds(3078, industrial).
holds(3078, awning).
holds(3078, chimney).
holds(3078, pipe).
holds(3078, truck).

sample(3079).
holds(3079, awning).
holds(3079, table).

sample(3080).
holds(3080, awning).
holds(3080, table).

sample(3081).
holds(3081, powerplant).
holds(3081, watertreatment).
holds(3081, industrial).
holds(3081, awning).
holds(3081, chimney).
holds(3081, pipe).
holds(3081, truck).

sample(3082).
holds(3082, awning).
holds(3082, table).

sample(3083).
holds(3083, awning).
holds(3083, table).

sample(3084).
holds(3084, constructionsite).
holds(3084, industrial).
holds(3084, machine).

sample(3085).
holds(3085, awning).
holds(3085, table).

sample(3086).
holds(3086, awning).
holds(3086, table).

sample(3087).
holds(3087, miscindustrial).
holds(3087, watertreatment).
holds(3087, industrial).
holds(3087, pipe).
holds(3087, truck).

sample(3088).
holds(3088, awning).
holds(3088, table).

sample(3089).
holds(3089, awning).
holds(3089, table).

sample(3090).
holds(3090, miscindustrial).
holds(3090, powerplant).
holds(3090, watertreatment).
holds(3090, industrial).
holds(3090, chimney).
holds(3090, pipe).
holds(3090, truck).

sample(3091).
holds(3091, awning).
holds(3091, table).

sample(3092).
holds(3092, awning).
holds(3092, table).

sample(3093).
holds(3093, miscindustrial).
holds(3093, industrial).
holds(3093, truck).

sample(3094).
holds(3094, awning).
holds(3094, table).

sample(3095).
holds(3095, awning).
holds(3095, table).

sample(3096).
holds(3096, miscindustrial).
holds(3096, watertreatment).
holds(3096, industrial).
holds(3096, truck).

sample(3097).
holds(3097, awning).
holds(3097, table).

sample(3098).
holds(3098, awning).
holds(3098, table).

sample(3099).
holds(3099, constructionsite).
holds(3099, industrial).
holds(3099, pipe).
holds(3099, machine).

sample(3100).
holds(3100, awning).
holds(3100, table).

sample(3101).
holds(3101, awning).
holds(3101, table).

sample(3102).
holds(3102, miscindustrial).
holds(3102, powerplant).
holds(3102, watertreatment).
holds(3102, industrial).
holds(3102, chimney).
holds(3102, pipe).
holds(3102, truck).

sample(3103).
holds(3103, awning).
holds(3103, table).

sample(3104).
holds(3104, awning).
holds(3104, table).

sample(3105).
holds(3105, constructionsite).
holds(3105, industrial).
holds(3105, machine).

sample(3106).
holds(3106, awning).
holds(3106, table).

sample(3107).
holds(3107, awning).
holds(3107, table).

sample(3108).
holds(3108, constructionsite).
holds(3108, industrial).
holds(3108, pipe).
holds(3108, machine).

sample(3109).
holds(3109, awning).
holds(3109, table).

sample(3110).
holds(3110, awning).
holds(3110, table).

sample(3111).
holds(3111, constructionsite).
holds(3111, powerplant).
holds(3111, industrial).
holds(3111, chimney).
holds(3111, pipe).
holds(3111, machine).

sample(3112).
holds(3112, awning).
holds(3112, table).

sample(3113).
holds(3113, awning).
holds(3113, table).

sample(3114).
holds(3114, miscindustrial).
holds(3114, powerplant).
holds(3114, watertreatment).
holds(3114, industrial).
holds(3114, chimney).
holds(3114, pipe).
holds(3114, truck).

sample(3115).
holds(3115, awning).
holds(3115, table).

sample(3116).
holds(3116, awning).
holds(3116, table).

sample(3117).
holds(3117, constructionsite).
holds(3117, powerplant).
holds(3117, industrial).
holds(3117, chimney).
holds(3117, pipe).
holds(3117, machine).

sample(3118).
holds(3118, awning).
holds(3118, table).

sample(3119).
holds(3119, awning).
holds(3119, table).

sample(3120).
holds(3120, constructionsite).
holds(3120, powerplant).
holds(3120, industrial).
holds(3120, chimney).
holds(3120, pipe).
holds(3120, machine).

sample(3121).
holds(3121, awning).
holds(3121, table).

sample(3122).
holds(3122, awning).
holds(3122, table).

sample(3123).
holds(3123, miscindustrial).
holds(3123, powerplant).
holds(3123, watertreatment).
holds(3123, industrial).
holds(3123, chimney).
holds(3123, pipe).
holds(3123, truck).

sample(3124).
holds(3124, awning).
holds(3124, table).

sample(3125).
holds(3125, awning).
holds(3125, table).

sample(3126).
holds(3126, miscindustrial).
holds(3126, powerplant).
holds(3126, watertreatment).
holds(3126, industrial).
holds(3126, chimney).
holds(3126, pipe).
holds(3126, truck).

sample(3127).
holds(3127, awning).
holds(3127, table).

sample(3128).
holds(3128, awning).
holds(3128, table).

sample(3129).
holds(3129, constructionsite).
holds(3129, powerplant).
holds(3129, industrial).
holds(3129, chimney).
holds(3129, pipe).
holds(3129, machine).

sample(3130).
holds(3130, awning).
holds(3130, table).

sample(3131).
holds(3131, awning).
holds(3131, table).

sample(3132).
holds(3132, miscindustrial).
holds(3132, watertreatment).
holds(3132, industrial).
holds(3132, pipe).
holds(3132, truck).

sample(3133).
holds(3133, awning).
holds(3133, table).

sample(3134).
holds(3134, awning).
holds(3134, table).

sample(3135).
holds(3135, miscindustrial).
holds(3135, industrial).
holds(3135, truck).

sample(3136).
holds(3136, awning).
holds(3136, table).

sample(3137).
holds(3137, awning).
holds(3137, table).

sample(3138).
holds(3138, powerplant).
holds(3138, industrial).
holds(3138, chimney).
holds(3138, pipe).

sample(3139).
holds(3139, awning).
holds(3139, table).

sample(3140).
holds(3140, awning).
holds(3140, table).

sample(3141).
holds(3141, miscindustrial).
holds(3141, industrial).
holds(3141, truck).

sample(3142).
holds(3142, awning).
holds(3142, table).

sample(3143).
holds(3143, awning).
holds(3143, table).

sample(3144).
holds(3144, miscindustrial).
holds(3144, watertreatment).
holds(3144, industrial).
holds(3144, pipe).
holds(3144, truck).

sample(3145).
holds(3145, awning).
holds(3145, table).

sample(3146).
holds(3146, awning).
holds(3146, table).

sample(3147).
holds(3147, miscindustrial).
holds(3147, powerplant).
holds(3147, watertreatment).
holds(3147, industrial).
holds(3147, chimney).
holds(3147, pipe).
holds(3147, truck).

sample(3148).
holds(3148, awning).
holds(3148, table).

sample(3149).
holds(3149, awning).
holds(3149, table).

sample(3150).
holds(3150, powerplant).
holds(3150, watertreatment).
holds(3150, industrial).
holds(3150, awning).
holds(3150, chimney).
holds(3150, pipe).
holds(3150, truck).

sample(3151).
holds(3151, awning).
holds(3151, table).

sample(3152).
holds(3152, awning).
holds(3152, table).

sample(3153).
holds(3153, constructionsite).
holds(3153, industrial).
holds(3153, pipe).
holds(3153, machine).

sample(3154).
holds(3154, awning).
holds(3154, table).

sample(3155).
holds(3155, awning).
holds(3155, table).

sample(3156).
holds(3156, constructionsite).
holds(3156, industrial).
holds(3156, machine).

sample(3157).
holds(3157, awning).
holds(3157, table).

sample(3158).
holds(3158, awning).
holds(3158, table).

sample(3159).
holds(3159, constructionsite).
holds(3159, industrial).
holds(3159, machine).

sample(3160).
holds(3160, awning).
holds(3160, table).

sample(3161).
holds(3161, awning).
holds(3161, table).

sample(3162).
holds(3162, watertreatment).
holds(3162, industrial).
holds(3162, awning).
holds(3162, pipe).
holds(3162, truck).

sample(3163).
holds(3163, awning).
holds(3163, table).

sample(3164).
holds(3164, awning).
holds(3164, table).

sample(3165).
holds(3165, miscindustrial).
holds(3165, watertreatment).
holds(3165, industrial).
holds(3165, pipe).
holds(3165, truck).

sample(3166).
holds(3166, awning).
holds(3166, table).

sample(3167).
holds(3167, awning).
holds(3167, table).

sample(3168).
holds(3168, powerplant).
holds(3168, industrial).
holds(3168, chimney).
holds(3168, pipe).

sample(3169).
holds(3169, awning).
holds(3169, table).

sample(3170).
holds(3170, awning).
holds(3170, table).

sample(3171).
holds(3171, miscindustrial).
holds(3171, powerplant).
holds(3171, watertreatment).
holds(3171, industrial).
holds(3171, chimney).
holds(3171, pipe).
holds(3171, truck).

sample(3172).
holds(3172, awning).
holds(3172, table).

sample(3173).
holds(3173, awning).
holds(3173, table).

sample(3174).
holds(3174, miscindustrial).
holds(3174, powerplant).
holds(3174, watertreatment).
holds(3174, industrial).
holds(3174, chimney).
holds(3174, pipe).
holds(3174, truck).

sample(3175).
holds(3175, awning).
holds(3175, table).

sample(3176).
holds(3176, awning).
holds(3176, table).

sample(3177).
holds(3177, powerplant).
holds(3177, industrial).
holds(3177, awning).
holds(3177, chimney).
holds(3177, pipe).

sample(3178).
holds(3178, awning).
holds(3178, table).

sample(3179).
holds(3179, awning).
holds(3179, table).

sample(3180).
holds(3180, miscindustrial).
holds(3180, watertreatment).
holds(3180, industrial).
holds(3180, pipe).
holds(3180, truck).

sample(3181).
holds(3181, awning).
holds(3181, table).

sample(3182).
holds(3182, awning).
holds(3182, table).

sample(3183).
holds(3183, constructionsite).
holds(3183, industrial).
holds(3183, pipe).
holds(3183, machine).

sample(3184).
holds(3184, awning).
holds(3184, table).

sample(3185).
holds(3185, awning).
holds(3185, table).

sample(3186).
holds(3186, constructionsite).
holds(3186, powerplant).
holds(3186, industrial).
holds(3186, chimney).
holds(3186, pipe).
holds(3186, machine).

sample(3187).
holds(3187, awning).
holds(3187, table).

sample(3188).
holds(3188, awning).
holds(3188, table).

sample(3189).
holds(3189, powerplant).
holds(3189, watertreatment).
holds(3189, industrial).
holds(3189, awning).
holds(3189, chimney).
holds(3189, pipe).
holds(3189, truck).

sample(3190).
holds(3190, awning).
holds(3190, table).

sample(3191).
holds(3191, awning).
holds(3191, table).

sample(3192).
holds(3192, constructionsite).
holds(3192, industrial).
holds(3192, pipe).
holds(3192, machine).

sample(3193).
holds(3193, awning).
holds(3193, table).

sample(3194).
holds(3194, awning).
holds(3194, table).

sample(3195).
holds(3195, powerplant).
holds(3195, industrial).
holds(3195, awning).
holds(3195, chimney).
holds(3195, pipe).

sample(3196).
holds(3196, awning).
holds(3196, table).

sample(3197).
holds(3197, awning).
holds(3197, table).

sample(3198).
holds(3198, powerplant).
holds(3198, industrial).
holds(3198, awning).
holds(3198, chimney).
holds(3198, pipe).

sample(3199).
holds(3199, awning).
holds(3199, table).

sample(3200).
holds(3200, awning).
holds(3200, table).

sample(3201).
holds(3201, constructionsite).
holds(3201, powerplant).
holds(3201, industrial).
holds(3201, chimney).
holds(3201, pipe).
holds(3201, machine).

sample(3202).
holds(3202, awning).
holds(3202, table).

sample(3203).
holds(3203, awning).
holds(3203, table).

sample(3204).
holds(3204, constructionsite).
holds(3204, powerplant).
holds(3204, industrial).
holds(3204, chimney).
holds(3204, pipe).
holds(3204, machine).

sample(3205).
holds(3205, awning).
holds(3205, table).

sample(3206).
holds(3206, awning).
holds(3206, table).

sample(3207).
holds(3207, constructionsite).
holds(3207, powerplant).
holds(3207, industrial).
holds(3207, chimney).
holds(3207, pipe).
holds(3207, machine).

sample(3208).
holds(3208, awning).
holds(3208, table).

sample(3209).
holds(3209, awning).
holds(3209, table).

sample(3210).
holds(3210, constructionsite).
holds(3210, powerplant).
holds(3210, industrial).
holds(3210, chimney).
holds(3210, pipe).
holds(3210, machine).

sample(3211).
holds(3211, awning).
holds(3211, table).

sample(3212).
holds(3212, awning).
holds(3212, table).

sample(3213).
holds(3213, miscindustrial).
holds(3213, industrial).
holds(3213, truck).

sample(3214).
holds(3214, awning).
holds(3214, table).

sample(3215).
holds(3215, awning).
holds(3215, table).

sample(3216).
holds(3216, miscindustrial).
holds(3216, industrial).
holds(3216, truck).

sample(3217).
holds(3217, awning).
holds(3217, table).

sample(3218).
holds(3218, awning).
holds(3218, table).

sample(3219).
holds(3219, miscindustrial).
holds(3219, powerplant).
holds(3219, watertreatment).
holds(3219, industrial).
holds(3219, chimney).
holds(3219, pipe).
holds(3219, truck).

sample(3220).
holds(3220, awning).
holds(3220, table).

sample(3221).
holds(3221, awning).
holds(3221, table).

sample(3222).
holds(3222, constructionsite).
holds(3222, powerplant).
holds(3222, industrial).
holds(3222, chimney).
holds(3222, pipe).
holds(3222, machine).

sample(3223).
holds(3223, awning).
holds(3223, table).

sample(3224).
holds(3224, awning).
holds(3224, table).

sample(3225).
holds(3225, miscindustrial).
holds(3225, industrial).
holds(3225, truck).

sample(3226).
holds(3226, awning).
holds(3226, table).

sample(3227).
holds(3227, awning).
holds(3227, table).

sample(3228).
holds(3228, constructionsite).
holds(3228, industrial).
holds(3228, machine).

sample(3229).
holds(3229, awning).
holds(3229, table).

sample(3230).
holds(3230, awning).
holds(3230, table).

sample(3231).
holds(3231, miscindustrial).
holds(3231, watertreatment).
holds(3231, industrial).
holds(3231, pipe).
holds(3231, truck).

sample(3232).
holds(3232, awning).
holds(3232, table).

sample(3233).
holds(3233, awning).
holds(3233, table).

sample(3234).
holds(3234, powerplant).
holds(3234, watertreatment).
holds(3234, industrial).
holds(3234, awning).
holds(3234, chimney).
holds(3234, pipe).
holds(3234, truck).

sample(3235).
holds(3235, awning).
holds(3235, table).

sample(3236).
holds(3236, awning).
holds(3236, table).

sample(3237).
holds(3237, constructionsite).
holds(3237, powerplant).
holds(3237, industrial).
holds(3237, chimney).
holds(3237, pipe).
holds(3237, machine).

sample(3238).
holds(3238, awning).
holds(3238, table).

sample(3239).
holds(3239, awning).
holds(3239, table).

sample(3240).
holds(3240, constructionsite).
holds(3240, powerplant).
holds(3240, industrial).
holds(3240, chimney).
holds(3240, pipe).
holds(3240, machine).

sample(3241).
holds(3241, awning).
holds(3241, table).

sample(3242).
holds(3242, awning).
holds(3242, table).

sample(3243).
holds(3243, watertreatment).
holds(3243, industrial).
holds(3243, awning).
holds(3243, pipe).
holds(3243, truck).

sample(3244).
holds(3244, awning).
holds(3244, table).

sample(3245).
holds(3245, awning).
holds(3245, table).

sample(3246).
holds(3246, miscindustrial).
holds(3246, powerplant).
holds(3246, watertreatment).
holds(3246, industrial).
holds(3246, chimney).
holds(3246, pipe).
holds(3246, truck).

sample(3247).
holds(3247, awning).
holds(3247, table).

sample(3248).
holds(3248, awning).
holds(3248, table).

sample(3249).
holds(3249, constructionsite).
holds(3249, industrial).
holds(3249, pipe).
holds(3249, machine).

sample(3250).
holds(3250, awning).
holds(3250, table).

sample(3251).
holds(3251, awning).
holds(3251, table).

sample(3252).
holds(3252, powerplant).
holds(3252, watertreatment).
holds(3252, industrial).
holds(3252, awning).
holds(3252, chimney).
holds(3252, pipe).
holds(3252, truck).

sample(3253).
holds(3253, awning).
holds(3253, table).

sample(3254).
holds(3254, awning).
holds(3254, table).

sample(3255).
holds(3255, constructionsite).
holds(3255, industrial).
holds(3255, machine).

sample(3256).
holds(3256, awning).
holds(3256, table).

sample(3257).
holds(3257, awning).
holds(3257, table).

sample(3258).
holds(3258, miscindustrial).
holds(3258, powerplant).
holds(3258, watertreatment).
holds(3258, industrial).
holds(3258, chimney).
holds(3258, pipe).
holds(3258, truck).

sample(3259).
holds(3259, awning).
holds(3259, table).

sample(3260).
holds(3260, awning).
holds(3260, table).

sample(3261).
holds(3261, miscindustrial).
holds(3261, watertreatment).
holds(3261, industrial).
holds(3261, pipe).
holds(3261, truck).

sample(3262).
holds(3262, awning).
holds(3262, table).

sample(3263).
holds(3263, awning).
holds(3263, table).

sample(3264).
holds(3264, powerplant).
holds(3264, industrial).
holds(3264, chimney).
holds(3264, pipe).

sample(3265).
holds(3265, awning).
holds(3265, table).

sample(3266).
holds(3266, awning).
holds(3266, table).

sample(3267).
holds(3267, powerplant).
holds(3267, watertreatment).
holds(3267, industrial).
holds(3267, awning).
holds(3267, chimney).
holds(3267, pipe).
holds(3267, truck).

sample(3268).
holds(3268, awning).
holds(3268, table).

sample(3269).
holds(3269, awning).
holds(3269, table).

sample(3270).
holds(3270, miscindustrial).
holds(3270, watertreatment).
holds(3270, industrial).
holds(3270, pipe).
holds(3270, truck).

sample(3271).
holds(3271, awning).
holds(3271, table).

sample(3272).
holds(3272, awning).
holds(3272, table).

sample(3273).
holds(3273, constructionsite).
holds(3273, powerplant).
holds(3273, industrial).
holds(3273, chimney).
holds(3273, pipe).
holds(3273, machine).

sample(3274).
holds(3274, awning).
holds(3274, table).

sample(3275).
holds(3275, awning).
holds(3275, table).

sample(3276).
holds(3276, miscindustrial).
holds(3276, industrial).
holds(3276, truck).

sample(3277).
holds(3277, awning).
holds(3277, table).

sample(3278).
holds(3278, awning).
holds(3278, table).

sample(3279).
holds(3279, miscindustrial).
holds(3279, industrial).
holds(3279, truck).

sample(3280).
holds(3280, awning).
holds(3280, table).

sample(3281).
holds(3281, awning).
holds(3281, table).

sample(3282).
holds(3282, powerplant).
holds(3282, industrial).
holds(3282, awning).
holds(3282, chimney).
holds(3282, pipe).

sample(3283).
holds(3283, awning).
holds(3283, table).

sample(3284).
holds(3284, powerplant).
holds(3284, awning).
holds(3284, chimney).

sample(3285).
holds(3285, constructionsite).
holds(3285, powerplant).
holds(3285, industrial).
holds(3285, chimney).
holds(3285, pipe).
holds(3285, machine).

sample(3286).
holds(3286, awning).
holds(3286, table).

sample(3287).
holds(3287, awning).
holds(3287, table).

sample(3288).
holds(3288, miscindustrial).
holds(3288, industrial).
holds(3288, truck).

sample(3289).
holds(3289, awning).
holds(3289, table).

sample(3290).
holds(3290, awning).
holds(3290, table).

sample(3291).
holds(3291, miscindustrial).
holds(3291, watertreatment).
holds(3291, industrial).
holds(3291, pipe).
holds(3291, truck).

sample(3292).
holds(3292, awning).
holds(3292, table).

sample(3293).
holds(3293, awning).
holds(3293, table).

sample(3294).
holds(3294, miscindustrial).
holds(3294, powerplant).
holds(3294, watertreatment).
holds(3294, industrial).
holds(3294, chimney).
holds(3294, pipe).
holds(3294, truck).

sample(3295).
holds(3295, awning).
holds(3295, table).

sample(3296).
holds(3296, awning).
holds(3296, table).

sample(3297).
holds(3297, constructionsite).
holds(3297, industrial).
holds(3297, machine).

sample(3298).
holds(3298, awning).
holds(3298, table).

sample(3299).
holds(3299, awning).
holds(3299, table).

sample(3300).
holds(3300, powerplant).
holds(3300, industrial).
holds(3300, awning).
holds(3300, chimney).
holds(3300, pipe).

sample(3301).
holds(3301, awning).
holds(3301, table).

sample(3302).
holds(3302, awning).
holds(3302, table).

sample(3303).
holds(3303, constructionsite).
holds(3303, industrial).
holds(3303, pipe).
holds(3303, machine).

sample(3304).
holds(3304, awning).
holds(3304, table).

sample(3305).
holds(3305, awning).
holds(3305, table).

sample(3306).
holds(3306, constructionsite).
holds(3306, industrial).
holds(3306, machine).

sample(3307).
holds(3307, awning).
holds(3307, table).

sample(3308).
holds(3308, awning).
holds(3308, table).

sample(3309).
holds(3309, powerplant).
holds(3309, watertreatment).
holds(3309, industrial).
holds(3309, awning).
holds(3309, chimney).
holds(3309, pipe).
holds(3309, truck).

sample(3310).
holds(3310, awning).
holds(3310, table).

sample(3311).
holds(3311, awning).
holds(3311, table).

sample(3312).
holds(3312, constructionsite).
holds(3312, powerplant).
holds(3312, industrial).
holds(3312, chimney).
holds(3312, pipe).
holds(3312, machine).

sample(3313).
holds(3313, awning).
holds(3313, table).

sample(3314).
holds(3314, awning).
holds(3314, table).

sample(3315).
holds(3315, miscindustrial).
holds(3315, industrial).
holds(3315, truck).

sample(3316).
holds(3316, awning).
holds(3316, table).

sample(3317).
holds(3317, awning).
holds(3317, table).

sample(3318).
holds(3318, miscindustrial).
holds(3318, powerplant).
holds(3318, watertreatment).
holds(3318, industrial).
holds(3318, chimney).
holds(3318, pipe).
holds(3318, truck).

sample(3319).
holds(3319, awning).
holds(3319, table).

sample(3320).
holds(3320, awning).
holds(3320, table).

sample(3321).
holds(3321, miscindustrial).
holds(3321, powerplant).
holds(3321, watertreatment).
holds(3321, industrial).
holds(3321, chimney).
holds(3321, pipe).
holds(3321, truck).

sample(3322).
holds(3322, awning).
holds(3322, table).

sample(3323).
holds(3323, awning).
holds(3323, table).

sample(3324).
holds(3324, constructionsite).
holds(3324, industrial).
holds(3324, machine).

sample(3325).
holds(3325, awning).
holds(3325, table).

sample(3326).
holds(3326, awning).
holds(3326, table).

sample(3327).
holds(3327, miscindustrial).
holds(3327, watertreatment).
holds(3327, industrial).
holds(3327, pipe).
holds(3327, truck).

sample(3328).
holds(3328, awning).
holds(3328, table).

sample(3329).
holds(3329, awning).
holds(3329, table).

sample(3330).
holds(3330, powerplant).
holds(3330, industrial).
holds(3330, chimney).
holds(3330, pipe).

sample(3331).
holds(3331, awning).
holds(3331, table).

sample(3332).
holds(3332, awning).
holds(3332, table).

sample(3333).
holds(3333, miscindustrial).
holds(3333, powerplant).
holds(3333, watertreatment).
holds(3333, industrial).
holds(3333, chimney).
holds(3333, pipe).
holds(3333, truck).

sample(3334).
holds(3334, awning).
holds(3334, table).

sample(3335).
holds(3335, awning).
holds(3335, table).

sample(3336).
holds(3336, constructionsite).
holds(3336, powerplant).
holds(3336, industrial).
holds(3336, chimney).
holds(3336, pipe).
holds(3336, machine).

sample(3337).
holds(3337, awning).
holds(3337, table).

sample(3338).
holds(3338, awning).
holds(3338, table).

sample(3339).
holds(3339, miscindustrial).
holds(3339, powerplant).
holds(3339, watertreatment).
holds(3339, industrial).
holds(3339, chimney).
holds(3339, pipe).
holds(3339, truck).

sample(3340).
holds(3340, awning).
holds(3340, table).

sample(3341).
holds(3341, awning).
holds(3341, table).

sample(3342).
holds(3342, constructionsite).
holds(3342, industrial).
holds(3342, pipe).
holds(3342, machine).

sample(3343).
holds(3343, awning).
holds(3343, table).

sample(3344).
holds(3344, awning).
holds(3344, table).

sample(3345).
holds(3345, constructionsite).
holds(3345, industrial).
holds(3345, machine).

sample(3346).
holds(3346, awning).
holds(3346, table).

sample(3347).
holds(3347, awning).
holds(3347, table).

sample(3348).
holds(3348, powerplant).
holds(3348, industrial).
holds(3348, awning).
holds(3348, chimney).
holds(3348, pipe).

sample(3349).
holds(3349, awning).
holds(3349, table).

sample(3350).
holds(3350, awning).
holds(3350, chimney).

sample(3351).
holds(3351, constructionsite).
holds(3351, industrial).
holds(3351, pipe).
holds(3351, machine).

sample(3352).
holds(3352, awning).
holds(3352, table).

sample(3353).
holds(3353, awning).
holds(3353, table).

sample(3354).
holds(3354, miscindustrial).
holds(3354, watertreatment).
holds(3354, industrial).
holds(3354, pipe).
holds(3354, truck).

sample(3355).
holds(3355, awning).
holds(3355, table).

sample(3356).
holds(3356, awning).
holds(3356, table).

sample(3357).
holds(3357, constructionsite).
holds(3357, industrial).
holds(3357, machine).

sample(3358).
holds(3358, awning).
holds(3358, table).

sample(3359).
holds(3359, awning).
holds(3359, table).

sample(3360).
holds(3360, watertreatment).
holds(3360, industrial).
holds(3360, awning).
holds(3360, pipe).
holds(3360, truck).

sample(3361).
holds(3361, awning).
holds(3361, table).

sample(3362).
holds(3362, awning).
holds(3362, table).

sample(3363).
holds(3363, miscindustrial).
holds(3363, industrial).
holds(3363, truck).

sample(3364).
holds(3364, awning).
holds(3364, table).

sample(3365).
holds(3365, awning).
holds(3365, table).

sample(3366).
holds(3366, powerplant).
holds(3366, watertreatment).
holds(3366, industrial).
holds(3366, awning).
holds(3366, chimney).
holds(3366, pipe).
holds(3366, truck).

sample(3367).
holds(3367, awning).
holds(3367, table).

sample(3368).
holds(3368, awning).
holds(3368, table).

sample(3369).
holds(3369, miscindustrial).
holds(3369, powerplant).
holds(3369, watertreatment).
holds(3369, industrial).
holds(3369, chimney).
holds(3369, pipe).
holds(3369, truck).

sample(3370).
holds(3370, awning).
holds(3370, table).

sample(3371).
holds(3371, awning).
holds(3371, table).

sample(3372).
holds(3372, powerplant).
holds(3372, industrial).
holds(3372, awning).
holds(3372, chimney).
holds(3372, pipe).

sample(3373).
holds(3373, awning).
holds(3373, table).

sample(3374).
holds(3374, awning).
holds(3374, table).

sample(3375).
holds(3375, constructionsite).
holds(3375, powerplant).
holds(3375, industrial).
holds(3375, chimney).
holds(3375, pipe).
holds(3375, machine).

sample(3376).
holds(3376, awning).
holds(3376, table).

sample(3377).
holds(3377, awning).
holds(3377, table).

sample(3378).
holds(3378, constructionsite).
holds(3378, industrial).
holds(3378, pipe).
holds(3378, machine).

sample(3379).
holds(3379, awning).
holds(3379, table).

sample(3380).
holds(3380, awning).
holds(3380, table).

sample(3381).
holds(3381, constructionsite).
holds(3381, industrial).
holds(3381, machine).

sample(3382).
holds(3382, awning).
holds(3382, table).

sample(3383).
holds(3383, awning).
holds(3383, table).

sample(3384).
holds(3384, powerplant).
holds(3384, industrial).
holds(3384, chimney).
holds(3384, pipe).

sample(3385).
holds(3385, awning).
holds(3385, table).

sample(3386).
holds(3386, awning).
holds(3386, table).

sample(3387).
holds(3387, powerplant).
holds(3387, watertreatment).
holds(3387, industrial).
holds(3387, awning).
holds(3387, chimney).
holds(3387, pipe).
holds(3387, truck).

sample(3388).
holds(3388, awning).
holds(3388, table).

sample(3389).
holds(3389, awning).
holds(3389, table).

sample(3390).
holds(3390, miscindustrial).
holds(3390, powerplant).
holds(3390, watertreatment).
holds(3390, industrial).
holds(3390, chimney).
holds(3390, pipe).
holds(3390, truck).

sample(3391).
holds(3391, awning).
holds(3391, table).

sample(3392).
holds(3392, awning).
holds(3392, table).

sample(3393).
holds(3393, constructionsite).
holds(3393, powerplant).
holds(3393, industrial).
holds(3393, chimney).
holds(3393, pipe).
holds(3393, machine).

sample(3394).
holds(3394, awning).
holds(3394, table).

sample(3395).
holds(3395, awning).
holds(3395, table).

sample(3396).
holds(3396, miscindustrial).
holds(3396, watertreatment).
holds(3396, industrial).
holds(3396, pipe).
holds(3396, truck).

sample(3397).
holds(3397, awning).
holds(3397, table).

sample(3398).
holds(3398, awning).
holds(3398, table).

sample(3399).
holds(3399, miscindustrial).
holds(3399, watertreatment).
holds(3399, industrial).
holds(3399, pipe).
holds(3399, truck).

sample(3400).
holds(3400, awning).
holds(3400, table).

sample(3401).
holds(3401, awning).
holds(3401, table).

sample(3402).
holds(3402, miscindustrial).
holds(3402, watertreatment).
holds(3402, industrial).
holds(3402, truck).

sample(3403).
holds(3403, awning).
holds(3403, table).

sample(3404).
holds(3404, awning).
holds(3404, table).

sample(3405).
holds(3405, powerplant).
holds(3405, industrial).
holds(3405, awning).
holds(3405, chimney).
holds(3405, pipe).

sample(3406).
holds(3406, awning).
holds(3406, table).

sample(3407).
holds(3407, awning).
holds(3407, table).

sample(3408).
holds(3408, constructionsite).
holds(3408, powerplant).
holds(3408, industrial).
holds(3408, chimney).
holds(3408, pipe).
holds(3408, machine).

sample(3409).
holds(3409, awning).
holds(3409, table).

sample(3410).
holds(3410, awning).
holds(3410, table).

sample(3411).
holds(3411, miscindustrial).
holds(3411, watertreatment).
holds(3411, industrial).
holds(3411, pipe).
holds(3411, truck).

sample(3412).
holds(3412, awning).
holds(3412, table).

sample(3413).
holds(3413, awning).
holds(3413, table).

sample(3414).
holds(3414, miscindustrial).
holds(3414, watertreatment).
holds(3414, industrial).
holds(3414, truck).

sample(3415).
holds(3415, awning).
holds(3415, table).

sample(3416).
holds(3416, awning).
holds(3416, table).

sample(3417).
holds(3417, miscindustrial).
holds(3417, powerplant).
holds(3417, watertreatment).
holds(3417, industrial).
holds(3417, chimney).
holds(3417, pipe).
holds(3417, truck).

sample(3418).
holds(3418, awning).
holds(3418, table).

sample(3419).
holds(3419, awning).
holds(3419, table).

sample(3420).
holds(3420, constructionsite).
holds(3420, industrial).
holds(3420, machine).

sample(3421).
holds(3421, awning).
holds(3421, table).

sample(3422).
holds(3422, awning).
holds(3422, table).

sample(3423).
holds(3423, miscindustrial).
holds(3423, watertreatment).
holds(3423, industrial).
holds(3423, pipe).
holds(3423, truck).

sample(3424).
holds(3424, awning).
holds(3424, table).

sample(3425).
holds(3425, awning).
holds(3425, table).

sample(3426).
holds(3426, miscindustrial).
holds(3426, industrial).
holds(3426, truck).

sample(3427).
holds(3427, awning).
holds(3427, table).

sample(3428).
holds(3428, awning).
holds(3428, table).

sample(3429).
holds(3429, miscindustrial).
holds(3429, watertreatment).
holds(3429, industrial).
holds(3429, pipe).
holds(3429, truck).

sample(3430).
holds(3430, awning).
holds(3430, table).

sample(3431).
holds(3431, awning).
holds(3431, table).

sample(3432).
holds(3432, constructionsite).
holds(3432, powerplant).
holds(3432, industrial).
holds(3432, chimney).
holds(3432, pipe).
holds(3432, machine).

sample(3433).
holds(3433, awning).
holds(3433, table).

sample(3434).
holds(3434, awning).
holds(3434, table).

sample(3435).
holds(3435, constructionsite).
holds(3435, industrial).
holds(3435, machine).

sample(3436).
holds(3436, awning).
holds(3436, table).

sample(3437).
holds(3437, awning).
holds(3437, table).

sample(3438).
holds(3438, miscindustrial).
holds(3438, watertreatment).
holds(3438, industrial).
holds(3438, pipe).
holds(3438, truck).

sample(3439).
holds(3439, awning).
holds(3439, table).

sample(3440).
holds(3440, awning).
holds(3440, table).

sample(3441).
holds(3441, miscindustrial).
holds(3441, watertreatment).
holds(3441, industrial).
holds(3441, pipe).
holds(3441, truck).

sample(3442).
holds(3442, awning).
holds(3442, table).

sample(3443).
holds(3443, awning).
holds(3443, table).

sample(3444).
holds(3444, miscindustrial).
holds(3444, industrial).
holds(3444, truck).

sample(3445).
holds(3445, awning).
holds(3445, table).

sample(3446).
holds(3446, awning).
holds(3446, table).

sample(3447).
holds(3447, powerplant).
holds(3447, industrial).
holds(3447, chimney).
holds(3447, pipe).

sample(3448).
holds(3448, awning).
holds(3448, table).

sample(3449).
holds(3449, awning).
holds(3449, table).

sample(3450).
holds(3450, miscindustrial).
holds(3450, watertreatment).
holds(3450, industrial).
holds(3450, pipe).
holds(3450, truck).

sample(3451).
holds(3451, awning).
holds(3451, table).

sample(3452).
holds(3452, awning).
holds(3452, table).

sample(3453).
holds(3453, miscindustrial).
holds(3453, watertreatment).
holds(3453, industrial).
holds(3453, pipe).
holds(3453, truck).

sample(3454).
holds(3454, awning).
holds(3454, table).

sample(3455).
holds(3455, awning).
holds(3455, table).

sample(3456).
holds(3456, miscindustrial).
holds(3456, watertreatment).
holds(3456, industrial).
holds(3456, truck).

sample(3457).
holds(3457, awning).
holds(3457, table).

sample(3458).
holds(3458, awning).
holds(3458, table).

sample(3459).
holds(3459, miscindustrial).
holds(3459, watertreatment).
holds(3459, industrial).
holds(3459, truck).

sample(3460).
holds(3460, awning).
holds(3460, table).

sample(3461).
holds(3461, awning).
holds(3461, table).

sample(3462).
holds(3462, powerplant).
holds(3462, industrial).
holds(3462, awning).
holds(3462, chimney).
holds(3462, pipe).

sample(3463).
holds(3463, awning).
holds(3463, table).

sample(3464).
holds(3464, awning).
holds(3464, table).

sample(3465).
holds(3465, powerplant).
holds(3465, industrial).
holds(3465, awning).
holds(3465, chimney).
holds(3465, pipe).

sample(3466).
holds(3466, awning).
holds(3466, table).

sample(3467).
holds(3467, awning).
holds(3467, table).

sample(3468).
holds(3468, constructionsite).
holds(3468, industrial).
holds(3468, machine).

sample(3469).
holds(3469, awning).
holds(3469, table).

sample(3470).
holds(3470, awning).
holds(3470, table).

sample(3471).
holds(3471, powerplant).
holds(3471, watertreatment).
holds(3471, industrial).
holds(3471, awning).
holds(3471, chimney).
holds(3471, pipe).
holds(3471, truck).

sample(3472).
holds(3472, awning).
holds(3472, table).

sample(3473).
holds(3473, awning).
holds(3473, table).

sample(3474).
holds(3474, powerplant).
holds(3474, industrial).
holds(3474, chimney).
holds(3474, pipe).

sample(3475).
holds(3475, awning).
holds(3475, table).

sample(3476).
holds(3476, awning).
holds(3476, table).

sample(3477).
holds(3477, watertreatment).
holds(3477, industrial).
holds(3477, awning).
holds(3477, pipe).
holds(3477, truck).

sample(3478).
holds(3478, awning).
holds(3478, table).

sample(3479).
holds(3479, awning).
holds(3479, table).

sample(3480).
holds(3480, miscindustrial).
holds(3480, watertreatment).
holds(3480, industrial).
holds(3480, pipe).
holds(3480, truck).

sample(3481).
holds(3481, awning).
holds(3481, table).

sample(3482).
holds(3482, awning).
holds(3482, table).

sample(3483).
holds(3483, miscindustrial).
holds(3483, powerplant).
holds(3483, watertreatment).
holds(3483, industrial).
holds(3483, chimney).
holds(3483, pipe).
holds(3483, truck).

sample(3484).
holds(3484, awning).
holds(3484, table).

sample(3485).
holds(3485, awning).
holds(3485, table).

sample(3486).
holds(3486, constructionsite).
holds(3486, industrial).
holds(3486, machine).

sample(3487).
holds(3487, awning).
holds(3487, table).

sample(3488).
holds(3488, awning).
holds(3488, table).

sample(3489).
holds(3489, constructionsite).
holds(3489, powerplant).
holds(3489, industrial).
holds(3489, chimney).
holds(3489, pipe).
holds(3489, machine).

sample(3490).
holds(3490, awning).
holds(3490, table).

sample(3491).
holds(3491, awning).
holds(3491, table).

sample(3492).
holds(3492, constructionsite).
holds(3492, powerplant).
holds(3492, industrial).
holds(3492, chimney).
holds(3492, pipe).
holds(3492, machine).

sample(3493).
holds(3493, awning).
holds(3493, table).

sample(3494).
holds(3494, awning).
holds(3494, table).

sample(3495).
holds(3495, constructionsite).
holds(3495, industrial).
holds(3495, machine).

sample(3496).
holds(3496, awning).
holds(3496, table).

sample(3497).
holds(3497, awning).
holds(3497, table).

sample(3498).
holds(3498, watertreatment).
holds(3498, industrial).
holds(3498, awning).
holds(3498, pipe).
holds(3498, truck).

sample(3499).
holds(3499, awning).
holds(3499, table).

sample(3500).
holds(3500, awning).
holds(3500, table).

sample(3501).
holds(3501, miscindustrial).
holds(3501, watertreatment).
holds(3501, industrial).
holds(3501, truck).

sample(3502).
holds(3502, awning).
holds(3502, table).

sample(3503).
holds(3503, awning).
holds(3503, table).

sample(3504).
holds(3504, miscindustrial).
holds(3504, powerplant).
holds(3504, watertreatment).
holds(3504, industrial).
holds(3504, chimney).
holds(3504, pipe).
holds(3504, truck).

sample(3505).
holds(3505, awning).
holds(3505, table).

sample(3506).
holds(3506, awning).
holds(3506, table).

sample(3507).
holds(3507, powerplant).
holds(3507, industrial).
holds(3507, chimney).
holds(3507, pipe).

sample(3508).
holds(3508, awning).
holds(3508, table).

sample(3509).
holds(3509, awning).
holds(3509, table).

sample(3510).
holds(3510, powerplant).
holds(3510, industrial).
holds(3510, awning).
holds(3510, chimney).
holds(3510, pipe).

sample(3511).
holds(3511, awning).
holds(3511, table).

sample(3512).
holds(3512, awning).
holds(3512, table).

sample(3513).
holds(3513, constructionsite).
holds(3513, industrial).
holds(3513, machine).

sample(3514).
holds(3514, awning).
holds(3514, table).

sample(3515).
holds(3515, awning).
holds(3515, table).

sample(3516).
holds(3516, powerplant).
holds(3516, industrial).
holds(3516, chimney).
holds(3516, pipe).

sample(3517).
holds(3517, awning).
holds(3517, table).

sample(3518).
holds(3518, awning).
holds(3518, table).

sample(3519).
holds(3519, watertreatment).
holds(3519, industrial).
holds(3519, awning).
holds(3519, pipe).
holds(3519, truck).

sample(3520).
holds(3520, awning).
holds(3520, table).

sample(3521).
holds(3521, awning).
holds(3521, table).

sample(3522).
holds(3522, constructionsite).
holds(3522, powerplant).
holds(3522, industrial).
holds(3522, chimney).
holds(3522, pipe).
holds(3522, machine).

sample(3523).
holds(3523, awning).
holds(3523, table).

sample(3524).
holds(3524, awning).
holds(3524, table).

sample(3525).
holds(3525, constructionsite).
holds(3525, industrial).
holds(3525, pipe).
holds(3525, machine).

sample(3526).
holds(3526, awning).
holds(3526, table).

sample(3527).
holds(3527, awning).
holds(3527, table).

sample(3528).
holds(3528, powerplant).
holds(3528, industrial).
holds(3528, awning).
holds(3528, chimney).
holds(3528, pipe).

sample(3529).
holds(3529, awning).
holds(3529, table).

sample(3530).
holds(3530, awning).
holds(3530, table).

sample(3531).
holds(3531, miscindustrial).
holds(3531, watertreatment).
holds(3531, industrial).
holds(3531, pipe).
holds(3531, truck).

sample(3532).
holds(3532, awning).
holds(3532, table).

sample(3533).
holds(3533, awning).
holds(3533, table).

sample(3534).
holds(3534, miscindustrial).
holds(3534, industrial).
holds(3534, truck).

sample(3535).
holds(3535, awning).
holds(3535, table).

sample(3536).
holds(3536, awning).
holds(3536, table).

sample(3537).
holds(3537, miscindustrial).
holds(3537, powerplant).
holds(3537, watertreatment).
holds(3537, industrial).
holds(3537, chimney).
holds(3537, pipe).
holds(3537, truck).

sample(3538).
holds(3538, awning).
holds(3538, table).

sample(3539).
holds(3539, awning).
holds(3539, table).

sample(3540).
holds(3540, miscindustrial).
holds(3540, watertreatment).
holds(3540, industrial).
holds(3540, pipe).
holds(3540, truck).

sample(3541).
holds(3541, awning).
holds(3541, table).

sample(3542).
holds(3542, awning).
holds(3542, table).

sample(3543).
holds(3543, powerplant).
holds(3543, industrial).
holds(3543, chimney).
holds(3543, pipe).

sample(3544).
holds(3544, awning).
holds(3544, table).

sample(3545).
holds(3545, awning).
holds(3545, table).

sample(3546).
holds(3546, miscindustrial).
holds(3546, watertreatment).
holds(3546, industrial).
holds(3546, pipe).
holds(3546, truck).

sample(3547).
holds(3547, awning).
holds(3547, table).

sample(3548).
holds(3548, awning).
holds(3548, table).

sample(3549).
holds(3549, miscindustrial).
holds(3549, watertreatment).
holds(3549, industrial).
holds(3549, pipe).
holds(3549, truck).

sample(3550).
holds(3550, awning).
holds(3550, table).

sample(3551).
holds(3551, awning).
holds(3551, table).

sample(3552).
holds(3552, constructionsite).
holds(3552, industrial).
holds(3552, machine).

sample(3553).
holds(3553, awning).
holds(3553, table).

sample(3554).
holds(3554, awning).
holds(3554, table).

sample(3555).
holds(3555, miscindustrial).
holds(3555, powerplant).
holds(3555, watertreatment).
holds(3555, industrial).
holds(3555, chimney).
holds(3555, pipe).
holds(3555, truck).

sample(3556).
holds(3556, awning).
holds(3556, table).

sample(3557).
holds(3557, awning).
holds(3557, table).

sample(3558).
holds(3558, miscindustrial).
holds(3558, industrial).
holds(3558, truck).

sample(3559).
holds(3559, awning).
holds(3559, table).

sample(3560).
holds(3560, awning).
holds(3560, table).

sample(3561).
holds(3561, miscindustrial).
holds(3561, industrial).
holds(3561, truck).

sample(3562).
holds(3562, awning).
holds(3562, table).

sample(3563).
holds(3563, awning).
holds(3563, table).

sample(3564).
holds(3564, miscindustrial).
holds(3564, powerplant).
holds(3564, watertreatment).
holds(3564, industrial).
holds(3564, chimney).
holds(3564, pipe).
holds(3564, truck).

sample(3565).
holds(3565, awning).
holds(3565, table).

sample(3566).
holds(3566, awning).
holds(3566, table).

sample(3567).
holds(3567, watertreatment).
holds(3567, industrial).
holds(3567, awning).
holds(3567, pipe).
holds(3567, truck).

sample(3568).
holds(3568, awning).
holds(3568, table).

sample(3569).
holds(3569, awning).
holds(3569, table).

sample(3570).
holds(3570, powerplant).
holds(3570, watertreatment).
holds(3570, industrial).
holds(3570, awning).
holds(3570, chimney).
holds(3570, pipe).
holds(3570, truck).

sample(3571).
holds(3571, awning).
holds(3571, table).

sample(3572).
holds(3572, awning).
holds(3572, table).

sample(3573).
holds(3573, miscindustrial).
holds(3573, powerplant).
holds(3573, watertreatment).
holds(3573, industrial).
holds(3573, chimney).
holds(3573, pipe).
holds(3573, truck).

sample(3574).
holds(3574, awning).
holds(3574, table).

sample(3575).
holds(3575, awning).
holds(3575, table).

sample(3576).
holds(3576, watertreatment).
holds(3576, industrial).
holds(3576, awning).
holds(3576, pipe).
holds(3576, truck).

sample(3577).
holds(3577, awning).
holds(3577, table).

sample(3578).
holds(3578, awning).
holds(3578, table).

sample(3579).
holds(3579, constructionsite).
holds(3579, industrial).
holds(3579, machine).

sample(3580).
holds(3580, awning).
holds(3580, table).

sample(3581).
holds(3581, awning).
holds(3581, table).

sample(3582).
holds(3582, powerplant).
holds(3582, industrial).
holds(3582, awning).
holds(3582, chimney).
holds(3582, pipe).

sample(3583).
holds(3583, awning).
holds(3583, table).

sample(3584).
holds(3584, awning).
holds(3584, table).

sample(3585).
holds(3585, powerplant).
holds(3585, industrial).
holds(3585, chimney).
holds(3585, pipe).

sample(3586).
holds(3586, awning).
holds(3586, table).

sample(3587).
holds(3587, awning).
holds(3587, table).

sample(3588).
holds(3588, constructionsite).
holds(3588, industrial).
holds(3588, machine).

sample(3589).
holds(3589, awning).
holds(3589, table).

sample(3590).
holds(3590, awning).
holds(3590, table).

sample(3591).
holds(3591, constructionsite).
holds(3591, industrial).
holds(3591, machine).

sample(3592).
holds(3592, awning).
holds(3592, table).

sample(3593).
holds(3593, awning).
holds(3593, table).

sample(3594).
holds(3594, constructionsite).
holds(3594, industrial).
holds(3594, machine).

sample(3595).
holds(3595, awning).
holds(3595, table).

sample(3596).
holds(3596, awning).
holds(3596, table).

sample(3597).
holds(3597, miscindustrial).
holds(3597, powerplant).
holds(3597, watertreatment).
holds(3597, industrial).
holds(3597, chimney).
holds(3597, pipe).
holds(3597, truck).

sample(3598).
holds(3598, awning).
holds(3598, table).

sample(3599).
holds(3599, awning).
holds(3599, table).

sample(3600).
holds(3600, miscindustrial).
holds(3600, watertreatment).
holds(3600, industrial).
holds(3600, truck).

sample(3601).
holds(3601, awning).
holds(3601, table).

sample(3602).
holds(3602, awning).
holds(3602, table).

sample(3603).
holds(3603, miscindustrial).
holds(3603, watertreatment).
holds(3603, industrial).
holds(3603, truck).

sample(3604).
holds(3604, awning).
holds(3604, table).

sample(3605).
holds(3605, awning).
holds(3605, table).

sample(3606).
holds(3606, powerplant).
holds(3606, watertreatment).
holds(3606, industrial).
holds(3606, awning).
holds(3606, chimney).
holds(3606, pipe).
holds(3606, truck).

sample(3607).
holds(3607, awning).
holds(3607, table).

sample(3608).
holds(3608, awning).
holds(3608, table).

sample(3609).
holds(3609, constructionsite).
holds(3609, industrial).
holds(3609, machine).

sample(3610).
holds(3610, awning).
holds(3610, table).

sample(3611).
holds(3611, awning).
holds(3611, table).

sample(3612).
holds(3612, miscindustrial).
holds(3612, industrial).
holds(3612, truck).

sample(3613).
holds(3613, awning).
holds(3613, table).

sample(3614).
holds(3614, awning).
holds(3614, table).

sample(3615).
holds(3615, miscindustrial).
holds(3615, industrial).
holds(3615, truck).

sample(3616).
holds(3616, awning).
holds(3616, table).

sample(3617).
holds(3617, awning).
holds(3617, table).

sample(3618).
holds(3618, miscindustrial).
holds(3618, watertreatment).
holds(3618, industrial).
holds(3618, truck).

sample(3619).
holds(3619, awning).
holds(3619, table).

sample(3620).
holds(3620, awning).
holds(3620, table).

sample(3621).
holds(3621, miscindustrial).
holds(3621, powerplant).
holds(3621, watertreatment).
holds(3621, industrial).
holds(3621, chimney).
holds(3621, pipe).
holds(3621, truck).

sample(3622).
holds(3622, awning).
holds(3622, table).

sample(3623).
holds(3623, awning).
holds(3623, table).

sample(3624).
holds(3624, miscindustrial).
holds(3624, watertreatment).
holds(3624, industrial).
holds(3624, pipe).
holds(3624, truck).

sample(3625).
holds(3625, awning).
holds(3625, table).

sample(3626).
holds(3626, awning).
holds(3626, table).

sample(3627).
holds(3627, miscindustrial).
holds(3627, industrial).
holds(3627, truck).

sample(3628).
holds(3628, awning).
holds(3628, table).

sample(3629).
holds(3629, awning).
holds(3629, table).

sample(3630).
holds(3630, constructionsite).
holds(3630, powerplant).
holds(3630, industrial).
holds(3630, chimney).
holds(3630, pipe).
holds(3630, machine).

sample(3631).
holds(3631, awning).
holds(3631, table).

sample(3632).
holds(3632, awning).
holds(3632, table).

sample(3633).
holds(3633, miscindustrial).
holds(3633, powerplant).
holds(3633, watertreatment).
holds(3633, industrial).
holds(3633, chimney).
holds(3633, pipe).
holds(3633, truck).

sample(3634).
holds(3634, awning).
holds(3634, table).

sample(3635).
holds(3635, awning).
holds(3635, table).

sample(3636).
holds(3636, powerplant).
holds(3636, watertreatment).
holds(3636, industrial).
holds(3636, awning).
holds(3636, chimney).
holds(3636, pipe).
holds(3636, truck).

sample(3637).
holds(3637, awning).
holds(3637, table).

sample(3638).
holds(3638, awning).
holds(3638, table).

sample(3639).
holds(3639, miscindustrial).
holds(3639, powerplant).
holds(3639, watertreatment).
holds(3639, industrial).
holds(3639, chimney).
holds(3639, pipe).
holds(3639, truck).

sample(3640).
holds(3640, awning).
holds(3640, table).

sample(3641).
holds(3641, awning).
holds(3641, table).

sample(3642).
holds(3642, powerplant).
holds(3642, industrial).
holds(3642, chimney).
holds(3642, pipe).

sample(3643).
holds(3643, awning).
holds(3643, table).

sample(3644).
holds(3644, awning).
holds(3644, table).

sample(3645).
holds(3645, miscindustrial).
holds(3645, watertreatment).
holds(3645, industrial).
holds(3645, truck).

sample(3646).
holds(3646, awning).
holds(3646, table).

sample(3647).
holds(3647, awning).
holds(3647, table).

sample(3648).
holds(3648, powerplant).
holds(3648, industrial).
holds(3648, awning).
holds(3648, chimney).
holds(3648, pipe).

sample(3649).
holds(3649, awning).
holds(3649, table).

sample(3650).
holds(3650, awning).
holds(3650, table).

sample(3651).
holds(3651, miscindustrial).
holds(3651, watertreatment).
holds(3651, industrial).
holds(3651, pipe).
holds(3651, truck).

sample(3652).
holds(3652, awning).
holds(3652, table).

sample(3653).
holds(3653, awning).
holds(3653, table).

sample(3654).
holds(3654, miscindustrial).
holds(3654, industrial).
holds(3654, truck).

sample(3655).
holds(3655, awning).
holds(3655, table).

sample(3656).
holds(3656, awning).
holds(3656, table).

sample(3657).
holds(3657, miscindustrial).
holds(3657, powerplant).
holds(3657, watertreatment).
holds(3657, industrial).
holds(3657, chimney).
holds(3657, pipe).
holds(3657, truck).

sample(3658).
holds(3658, awning).
holds(3658, table).

sample(3659).
holds(3659, awning).
holds(3659, table).

sample(3660).
holds(3660, powerplant).
holds(3660, industrial).
holds(3660, awning).
holds(3660, chimney).
holds(3660, pipe).

sample(3661).
holds(3661, awning).
holds(3661, table).

sample(3662).
holds(3662, awning).
holds(3662, table).

sample(3663).
holds(3663, powerplant).
holds(3663, industrial).
holds(3663, awning).
holds(3663, chimney).
holds(3663, pipe).

sample(3664).
holds(3664, awning).
holds(3664, table).

sample(3665).
holds(3665, awning).
holds(3665, table).

sample(3666).
holds(3666, miscindustrial).
holds(3666, watertreatment).
holds(3666, industrial).
holds(3666, pipe).
holds(3666, truck).

sample(3667).
holds(3667, awning).
holds(3667, table).

sample(3668).
holds(3668, awning).
holds(3668, table).

sample(3669).
holds(3669, powerplant).
holds(3669, industrial).
holds(3669, awning).
holds(3669, chimney).
holds(3669, pipe).

sample(3670).
holds(3670, awning).
holds(3670, table).

sample(3671).
holds(3671, awning).
holds(3671, table).

sample(3672).
holds(3672, miscindustrial).
holds(3672, watertreatment).
holds(3672, industrial).
holds(3672, pipe).
holds(3672, truck).

sample(3673).
holds(3673, awning).
holds(3673, table).

sample(3674).
holds(3674, awning).
holds(3674, table).

sample(3675).
holds(3675, watertreatment).
holds(3675, industrial).
holds(3675, awning).
holds(3675, pipe).
holds(3675, truck).

sample(3676).
holds(3676, awning).
holds(3676, table).

sample(3677).
holds(3677, awning).
holds(3677, table).

sample(3678).
holds(3678, miscindustrial).
holds(3678, industrial).
holds(3678, truck).

sample(3679).
holds(3679, awning).
holds(3679, table).

sample(3680).
holds(3680, awning).
holds(3680, table).

sample(3681).
holds(3681, miscindustrial).
holds(3681, powerplant).
holds(3681, watertreatment).
holds(3681, industrial).
holds(3681, chimney).
holds(3681, pipe).
holds(3681, truck).

sample(3682).
holds(3682, awning).
holds(3682, table).

sample(3683).
holds(3683, awning).
holds(3683, table).

sample(3684).
holds(3684, powerplant).
holds(3684, watertreatment).
holds(3684, industrial).
holds(3684, awning).
holds(3684, chimney).
holds(3684, pipe).
holds(3684, truck).

sample(3685).
holds(3685, awning).
holds(3685, table).

sample(3686).
holds(3686, awning).
holds(3686, table).

sample(3687).
holds(3687, miscindustrial).
holds(3687, watertreatment).
holds(3687, industrial).
holds(3687, pipe).
holds(3687, truck).

sample(3688).
holds(3688, awning).
holds(3688, table).

sample(3689).
holds(3689, awning).
holds(3689, table).

sample(3690).
holds(3690, constructionsite).
holds(3690, industrial).
holds(3690, machine).

sample(3691).
holds(3691, awning).
holds(3691, table).

sample(3692).
holds(3692, awning).
holds(3692, table).

sample(3693).
holds(3693, constructionsite).
holds(3693, powerplant).
holds(3693, industrial).
holds(3693, chimney).
holds(3693, pipe).
holds(3693, machine).

sample(3694).
holds(3694, awning).
holds(3694, table).

sample(3695).
holds(3695, awning).
holds(3695, table).

sample(3696).
holds(3696, miscindustrial).
holds(3696, powerplant).
holds(3696, watertreatment).
holds(3696, industrial).
holds(3696, chimney).
holds(3696, pipe).
holds(3696, truck).

sample(3697).
holds(3697, awning).
holds(3697, table).

sample(3698).
holds(3698, awning).
holds(3698, table).

sample(3699).
holds(3699, miscindustrial).
holds(3699, powerplant).
holds(3699, watertreatment).
holds(3699, industrial).
holds(3699, chimney).
holds(3699, pipe).
holds(3699, truck).

sample(3700).
holds(3700, awning).
holds(3700, table).

sample(3701).
holds(3701, awning).
holds(3701, table).

sample(3702).
holds(3702, constructionsite).
holds(3702, industrial).
holds(3702, machine).

sample(3703).
holds(3703, awning).
holds(3703, table).

sample(3704).
holds(3704, awning).
holds(3704, table).

sample(3705).
holds(3705, constructionsite).
holds(3705, industrial).
holds(3705, pipe).
holds(3705, machine).

sample(3706).
holds(3706, awning).
holds(3706, table).

sample(3707).
holds(3707, awning).
holds(3707, table).

sample(3708).
holds(3708, miscindustrial).
holds(3708, industrial).
holds(3708, truck).

sample(3709).
holds(3709, awning).
holds(3709, table).

sample(3710).
holds(3710, awning).
holds(3710, table).

sample(3711).
holds(3711, powerplant).
holds(3711, industrial).
holds(3711, chimney).
holds(3711, pipe).

sample(3712).
holds(3712, awning).
holds(3712, table).

sample(3713).
holds(3713, awning).
holds(3713, table).

sample(3714).
holds(3714, miscindustrial).
holds(3714, watertreatment).
holds(3714, industrial).
holds(3714, pipe).
holds(3714, truck).

sample(3715).
holds(3715, awning).
holds(3715, table).

sample(3716).
holds(3716, awning).
holds(3716, table).

sample(3717).
holds(3717, constructionsite).
holds(3717, powerplant).
holds(3717, industrial).
holds(3717, chimney).
holds(3717, machine).

sample(3718).
holds(3718, awning).
holds(3718, table).

sample(3719).
holds(3719, awning).
holds(3719, table).

sample(3720).
holds(3720, powerplant).
holds(3720, industrial).
holds(3720, awning).
holds(3720, chimney).
holds(3720, pipe).

sample(3721).
holds(3721, awning).
holds(3721, table).

sample(3722).
holds(3722, awning).
holds(3722, table).

sample(3723).
holds(3723, constructionsite).
holds(3723, industrial).
holds(3723, pipe).
holds(3723, machine).

sample(3724).
holds(3724, awning).
holds(3724, table).

sample(3725).
holds(3725, awning).
holds(3725, table).

sample(3726).
holds(3726, powerplant).
holds(3726, watertreatment).
holds(3726, industrial).
holds(3726, awning).
holds(3726, chimney).
holds(3726, pipe).
holds(3726, truck).

sample(3727).
holds(3727, awning).
holds(3727, table).

sample(3728).
holds(3728, awning).
holds(3728, table).

sample(3729).
holds(3729, constructionsite).
holds(3729, powerplant).
holds(3729, industrial).
holds(3729, chimney).
holds(3729, pipe).
holds(3729, machine).

sample(3730).
holds(3730, awning).
holds(3730, table).

sample(3731).
holds(3731, awning).
holds(3731, table).

sample(3732).
holds(3732, constructionsite).
holds(3732, industrial).
holds(3732, pipe).
holds(3732, machine).

sample(3733).
holds(3733, awning).
holds(3733, table).

sample(3734).
holds(3734, awning).
holds(3734, table).

sample(3735).
holds(3735, powerplant).
holds(3735, watertreatment).
holds(3735, industrial).
holds(3735, awning).
holds(3735, chimney).
holds(3735, pipe).
holds(3735, truck).

sample(3736).
holds(3736, awning).
holds(3736, table).

sample(3737).
holds(3737, awning).
holds(3737, table).

sample(3738).
holds(3738, constructionsite).
holds(3738, powerplant).
holds(3738, industrial).
holds(3738, chimney).
holds(3738, pipe).
holds(3738, machine).

sample(3739).
holds(3739, awning).
holds(3739, table).

sample(3740).
holds(3740, awning).
holds(3740, table).

sample(3741).
holds(3741, miscindustrial).
holds(3741, watertreatment).
holds(3741, industrial).
holds(3741, truck).

sample(3742).
holds(3742, awning).
holds(3742, table).

sample(3743).
holds(3743, awning).
holds(3743, table).

sample(3744).
holds(3744, miscindustrial).
holds(3744, powerplant).
holds(3744, watertreatment).
holds(3744, industrial).
holds(3744, chimney).
holds(3744, pipe).
holds(3744, truck).

sample(3745).
holds(3745, awning).
holds(3745, table).

sample(3746).
holds(3746, awning).
holds(3746, table).

sample(3747).
holds(3747, miscindustrial).
holds(3747, watertreatment).
holds(3747, industrial).
holds(3747, pipe).
holds(3747, truck).

sample(3748).
holds(3748, awning).
holds(3748, table).

sample(3749).
holds(3749, awning).
holds(3749, table).

sample(3750).
holds(3750, miscindustrial).
holds(3750, industrial).
holds(3750, truck).

sample(3751).
holds(3751, awning).
holds(3751, table).

sample(3752).
holds(3752, awning).
holds(3752, table).

sample(3753).
holds(3753, constructionsite).
holds(3753, industrial).
holds(3753, machine).

sample(3754).
holds(3754, awning).
holds(3754, table).

sample(3755).
holds(3755, awning).
holds(3755, table).

sample(3756).
holds(3756, miscindustrial).
holds(3756, industrial).
holds(3756, truck).

sample(3757).
holds(3757, awning).
holds(3757, table).

sample(3758).
holds(3758, awning).
holds(3758, table).

sample(3759).
holds(3759, miscindustrial).
holds(3759, industrial).
holds(3759, truck).

sample(3760).
holds(3760, awning).
holds(3760, table).

sample(3761).
holds(3761, awning).
holds(3761, table).

sample(3762).
holds(3762, constructionsite).
holds(3762, industrial).
holds(3762, machine).

sample(3763).
holds(3763, awning).
holds(3763, table).

sample(3764).
holds(3764, awning).
holds(3764, table).

sample(3765).
holds(3765, constructionsite).
holds(3765, industrial).
holds(3765, pipe).
holds(3765, machine).

sample(3766).
holds(3766, awning).
holds(3766, table).

sample(3767).
holds(3767, awning).
holds(3767, table).

sample(3768).
holds(3768, miscindustrial).
holds(3768, industrial).
holds(3768, truck).

sample(3769).
holds(3769, awning).
holds(3769, table).

sample(3770).
holds(3770, awning).
holds(3770, table).

sample(3771).
holds(3771, powerplant).
holds(3771, industrial).
holds(3771, chimney).
holds(3771, pipe).

sample(3772).
holds(3772, awning).
holds(3772, table).

sample(3773).
holds(3773, awning).
holds(3773, table).

sample(3774).
holds(3774, powerplant).
holds(3774, watertreatment).
holds(3774, industrial).
holds(3774, awning).
holds(3774, chimney).
holds(3774, pipe).
holds(3774, truck).

sample(3775).
holds(3775, awning).
holds(3775, table).

sample(3776).
holds(3776, awning).
holds(3776, table).

sample(3777).
holds(3777, constructionsite).
holds(3777, industrial).
holds(3777, machine).

sample(3778).
holds(3778, awning).
holds(3778, table).

sample(3779).
holds(3779, awning).
holds(3779, table).

sample(3780).
holds(3780, miscindustrial).
holds(3780, industrial).
holds(3780, truck).

sample(3781).
holds(3781, awning).
holds(3781, table).

sample(3782).
holds(3782, awning).
holds(3782, table).

sample(3783).
holds(3783, miscindustrial).
holds(3783, watertreatment).
holds(3783, industrial).
holds(3783, truck).

sample(3784).
holds(3784, awning).
holds(3784, table).

sample(3785).
holds(3785, awning).
holds(3785, table).

sample(3786).
holds(3786, miscindustrial).
holds(3786, industrial).
holds(3786, truck).

sample(3787).
holds(3787, awning).
holds(3787, table).

sample(3788).
holds(3788, awning).
holds(3788, table).

sample(3789).
holds(3789, constructionsite).
holds(3789, industrial).
holds(3789, machine).

sample(3790).
holds(3790, awning).
holds(3790, table).

sample(3791).
holds(3791, awning).
holds(3791, table).

sample(3792).
holds(3792, miscindustrial).
holds(3792, industrial).
holds(3792, truck).

sample(3793).
holds(3793, awning).
holds(3793, table).

sample(3794).
holds(3794, awning).
holds(3794, table).

sample(3795).
holds(3795, constructionsite).
holds(3795, industrial).
holds(3795, pipe).
holds(3795, machine).

sample(3796).
holds(3796, awning).
holds(3796, table).

sample(3797).
holds(3797, awning).
holds(3797, table).

sample(3798).
holds(3798, miscindustrial).
holds(3798, powerplant).
holds(3798, watertreatment).
holds(3798, industrial).
holds(3798, chimney).
holds(3798, pipe).
holds(3798, truck).

sample(3799).
holds(3799, awning).
holds(3799, table).

sample(3800).
holds(3800, awning).
holds(3800, table).

sample(3801).
holds(3801, miscindustrial).
holds(3801, powerplant).
holds(3801, watertreatment).
holds(3801, industrial).
holds(3801, chimney).
holds(3801, pipe).
holds(3801, truck).

sample(3802).
holds(3802, awning).
holds(3802, table).

sample(3803).
holds(3803, awning).
holds(3803, table).

sample(3804).
holds(3804, constructionsite).
holds(3804, powerplant).
holds(3804, industrial).
holds(3804, chimney).
holds(3804, pipe).
holds(3804, machine).

sample(3805).
holds(3805, awning).
holds(3805, table).

sample(3806).
holds(3806, awning).
holds(3806, table).

sample(3807).
holds(3807, miscindustrial).
holds(3807, powerplant).
holds(3807, watertreatment).
holds(3807, industrial).
holds(3807, chimney).
holds(3807, pipe).
holds(3807, truck).

sample(3808).
holds(3808, awning).
holds(3808, table).

sample(3809).
holds(3809, awning).
holds(3809, table).

sample(3810).
holds(3810, miscindustrial).
holds(3810, powerplant).
holds(3810, watertreatment).
holds(3810, industrial).
holds(3810, chimney).
holds(3810, pipe).
holds(3810, truck).

sample(3811).
holds(3811, awning).
holds(3811, table).

sample(3812).
holds(3812, awning).
holds(3812, table).

sample(3813).
holds(3813, miscindustrial).
holds(3813, watertreatment).
holds(3813, industrial).
holds(3813, truck).

sample(3814).
holds(3814, awning).
holds(3814, table).

sample(3815).
holds(3815, awning).
holds(3815, table).

sample(3816).
holds(3816, constructionsite).
holds(3816, industrial).
holds(3816, machine).

sample(3817).
holds(3817, awning).
holds(3817, table).

sample(3818).
holds(3818, awning).
holds(3818, table).

sample(3819).
holds(3819, miscindustrial).
holds(3819, powerplant).
holds(3819, watertreatment).
holds(3819, industrial).
holds(3819, chimney).
holds(3819, pipe).
holds(3819, truck).

sample(3820).
holds(3820, awning).
holds(3820, table).

sample(3821).
holds(3821, awning).
holds(3821, table).

sample(3822).
holds(3822, miscindustrial).
holds(3822, industrial).
holds(3822, truck).

sample(3823).
holds(3823, awning).
holds(3823, table).

sample(3824).
holds(3824, awning).
holds(3824, table).

sample(3825).
holds(3825, miscindustrial).
holds(3825, powerplant).
holds(3825, watertreatment).
holds(3825, industrial).
holds(3825, chimney).
holds(3825, pipe).
holds(3825, truck).

sample(3826).
holds(3826, awning).
holds(3826, table).

sample(3827).
holds(3827, awning).
holds(3827, table).

sample(3828).
holds(3828, miscindustrial).
holds(3828, watertreatment).
holds(3828, industrial).
holds(3828, pipe).
holds(3828, truck).

sample(3829).
holds(3829, awning).
holds(3829, table).

sample(3830).
holds(3830, awning).
holds(3830, table).

sample(3831).
holds(3831, miscindustrial).
holds(3831, watertreatment).
holds(3831, industrial).
holds(3831, pipe).
holds(3831, truck).

sample(3832).
holds(3832, awning).
holds(3832, table).

sample(3833).
holds(3833, awning).
holds(3833, table).

sample(3834).
holds(3834, constructionsite).
holds(3834, powerplant).
holds(3834, industrial).
holds(3834, chimney).
holds(3834, pipe).
holds(3834, machine).

sample(3835).
holds(3835, awning).
holds(3835, table).

sample(3836).
holds(3836, awning).
holds(3836, table).

sample(3837).
holds(3837, constructionsite).
holds(3837, industrial).
holds(3837, pipe).
holds(3837, machine).

sample(3838).
holds(3838, awning).
holds(3838, table).

sample(3839).
holds(3839, awning).
holds(3839, table).

sample(3840).
holds(3840, miscindustrial).
holds(3840, industrial).
holds(3840, truck).

sample(3841).
holds(3841, awning).
holds(3841, table).

sample(3842).
holds(3842, awning).
holds(3842, table).

sample(3843).
holds(3843, miscindustrial).
holds(3843, watertreatment).
holds(3843, industrial).
holds(3843, pipe).
holds(3843, truck).

sample(3844).
holds(3844, awning).
holds(3844, table).

sample(3845).
holds(3845, awning).
holds(3845, table).

sample(3846).
holds(3846, powerplant).
holds(3846, industrial).
holds(3846, awning).
holds(3846, chimney).
holds(3846, pipe).

sample(3847).
holds(3847, awning).
holds(3847, table).

sample(3848).
holds(3848, awning).
holds(3848, table).

sample(3849).
holds(3849, constructionsite).
holds(3849, powerplant).
holds(3849, industrial).
holds(3849, chimney).
holds(3849, pipe).
holds(3849, machine).

sample(3850).
holds(3850, awning).
holds(3850, table).

sample(3851).
holds(3851, awning).
holds(3851, table).

sample(3852).
holds(3852, miscindustrial).
holds(3852, watertreatment).
holds(3852, industrial).
holds(3852, pipe).
holds(3852, truck).

sample(3853).
holds(3853, awning).
holds(3853, table).

sample(3854).
holds(3854, awning).
holds(3854, table).

sample(3855).
holds(3855, miscindustrial).
holds(3855, watertreatment).
holds(3855, industrial).
holds(3855, truck).

sample(3856).
holds(3856, awning).
holds(3856, table).

sample(3857).
holds(3857, awning).
holds(3857, table).

sample(3858).
holds(3858, powerplant).
holds(3858, watertreatment).
holds(3858, industrial).
holds(3858, awning).
holds(3858, chimney).
holds(3858, pipe).
holds(3858, truck).

sample(3859).
holds(3859, awning).
holds(3859, table).

sample(3860).
holds(3860, awning).
holds(3860, table).

sample(3861).
holds(3861, powerplant).
holds(3861, industrial).
holds(3861, chimney).
holds(3861, pipe).

sample(3862).
holds(3862, awning).
holds(3862, table).

sample(3863).
holds(3863, awning).
holds(3863, table).

sample(3864).
holds(3864, miscindustrial).
holds(3864, powerplant).
holds(3864, watertreatment).
holds(3864, industrial).
holds(3864, chimney).
holds(3864, pipe).
holds(3864, truck).

sample(3865).
holds(3865, awning).
holds(3865, table).

sample(3866).
holds(3866, awning).
holds(3866, table).

sample(3867).
holds(3867, miscindustrial).
holds(3867, powerplant).
holds(3867, watertreatment).
holds(3867, industrial).
holds(3867, chimney).
holds(3867, pipe).
holds(3867, truck).

sample(3868).
holds(3868, awning).
holds(3868, table).

sample(3869).
holds(3869, awning).
holds(3869, table).

sample(3870).
holds(3870, miscindustrial).
holds(3870, powerplant).
holds(3870, watertreatment).
holds(3870, industrial).
holds(3870, chimney).
holds(3870, pipe).
holds(3870, truck).

sample(3871).
holds(3871, awning).
holds(3871, table).

sample(3872).
holds(3872, awning).
holds(3872, table).

sample(3873).
holds(3873, miscindustrial).
holds(3873, powerplant).
holds(3873, watertreatment).
holds(3873, industrial).
holds(3873, chimney).
holds(3873, pipe).
holds(3873, truck).

sample(3874).
holds(3874, awning).
holds(3874, table).

sample(3875).
holds(3875, awning).
holds(3875, table).

sample(3876).
holds(3876, watertreatment).
holds(3876, industrial).
holds(3876, awning).
holds(3876, pipe).
holds(3876, truck).

sample(3877).
holds(3877, awning).
holds(3877, table).

sample(3878).
holds(3878, awning).
holds(3878, table).

sample(3879).
holds(3879, constructionsite).
holds(3879, industrial).
holds(3879, machine).

sample(3880).
holds(3880, awning).
holds(3880, table).

sample(3881).
holds(3881, awning).
holds(3881, table).

sample(3882).
holds(3882, miscindustrial).
holds(3882, watertreatment).
holds(3882, industrial).
holds(3882, pipe).
holds(3882, truck).

sample(3883).
holds(3883, awning).
holds(3883, table).

sample(3884).
holds(3884, awning).
holds(3884, table).

sample(3885).
holds(3885, miscindustrial).
holds(3885, powerplant).
holds(3885, watertreatment).
holds(3885, industrial).
holds(3885, chimney).
holds(3885, pipe).
holds(3885, truck).

sample(3886).
holds(3886, awning).
holds(3886, table).

sample(3887).
holds(3887, awning).
holds(3887, table).

sample(3888).
holds(3888, constructionsite).
holds(3888, industrial).
holds(3888, machine).

sample(3889).
holds(3889, awning).
holds(3889, table).

sample(3890).
holds(3890, awning).
holds(3890, table).

sample(3891).
holds(3891, constructionsite).
holds(3891, industrial).
holds(3891, machine).

sample(3892).
holds(3892, awning).
holds(3892, table).

sample(3893).
holds(3893, awning).
holds(3893, table).

sample(3894).
holds(3894, powerplant).
holds(3894, industrial).
holds(3894, awning).
holds(3894, chimney).
holds(3894, pipe).

sample(3895).
holds(3895, awning).
holds(3895, table).

sample(3896).
holds(3896, awning).
holds(3896, table).

sample(3897).
holds(3897, miscindustrial).
holds(3897, powerplant).
holds(3897, watertreatment).
holds(3897, industrial).
holds(3897, chimney).
holds(3897, pipe).
holds(3897, truck).

sample(3898).
holds(3898, awning).
holds(3898, table).

sample(3899).
holds(3899, awning).
holds(3899, table).

sample(3900).
holds(3900, watertreatment).
holds(3900, industrial).
holds(3900, awning).
holds(3900, pipe).
holds(3900, truck).

sample(3901).
holds(3901, awning).
holds(3901, table).

sample(3902).
holds(3902, awning).
holds(3902, table).

sample(3903).
holds(3903, powerplant).
holds(3903, industrial).
holds(3903, awning).
holds(3903, chimney).
holds(3903, pipe).

sample(3904).
holds(3904, awning).
holds(3904, table).

sample(3905).
holds(3905, awning).
holds(3905, table).

sample(3906).
holds(3906, miscindustrial).
holds(3906, powerplant).
holds(3906, watertreatment).
holds(3906, industrial).
holds(3906, chimney).
holds(3906, pipe).
holds(3906, truck).

sample(3907).
holds(3907, awning).
holds(3907, table).

sample(3908).
holds(3908, awning).
holds(3908, table).

sample(3909).
holds(3909, miscindustrial).
holds(3909, powerplant).
holds(3909, watertreatment).
holds(3909, industrial).
holds(3909, chimney).
holds(3909, pipe).
holds(3909, truck).

sample(3910).
holds(3910, awning).
holds(3910, table).

sample(3911).
holds(3911, awning).
holds(3911, table).

sample(3912).
holds(3912, miscindustrial).
holds(3912, powerplant).
holds(3912, watertreatment).
holds(3912, industrial).
holds(3912, chimney).
holds(3912, pipe).
holds(3912, truck).

sample(3913).
holds(3913, awning).
holds(3913, table).

sample(3914).
holds(3914, awning).
holds(3914, table).

sample(3915).
holds(3915, powerplant).
holds(3915, industrial).
holds(3915, awning).
holds(3915, chimney).
holds(3915, pipe).

sample(3916).
holds(3916, awning).
holds(3916, table).

sample(3917).
holds(3917, awning).
holds(3917, table).

sample(3918).
holds(3918, constructionsite).
holds(3918, industrial).
holds(3918, machine).

sample(3919).
holds(3919, awning).
holds(3919, table).

sample(3920).
holds(3920, awning).
holds(3920, table).

sample(3921).
holds(3921, miscindustrial).
holds(3921, watertreatment).
holds(3921, industrial).
holds(3921, truck).

sample(3922).
holds(3922, awning).
holds(3922, table).

sample(3923).
holds(3923, awning).
holds(3923, table).

sample(3924).
holds(3924, miscindustrial).
holds(3924, watertreatment).
holds(3924, industrial).
holds(3924, pipe).
holds(3924, truck).

sample(3925).
holds(3925, awning).
holds(3925, table).

sample(3926).
holds(3926, awning).
holds(3926, table).

sample(3927).
holds(3927, powerplant).
holds(3927, industrial).
holds(3927, chimney).
holds(3927, pipe).

sample(3928).
holds(3928, awning).
holds(3928, table).

sample(3929).
holds(3929, awning).
holds(3929, table).

sample(3930).
holds(3930, miscindustrial).
holds(3930, watertreatment).
holds(3930, industrial).
holds(3930, truck).

sample(3931).
holds(3931, awning).
holds(3931, table).

sample(3932).
holds(3932, awning).
holds(3932, table).

sample(3933).
holds(3933, miscindustrial).
holds(3933, watertreatment).
holds(3933, industrial).
holds(3933, pipe).
holds(3933, truck).

sample(3934).
holds(3934, awning).
holds(3934, table).

sample(3935).
holds(3935, awning).
holds(3935, table).

sample(3936).
holds(3936, powerplant).
holds(3936, industrial).
holds(3936, awning).
holds(3936, chimney).
holds(3936, pipe).

sample(3937).
holds(3937, awning).
holds(3937, table).

sample(3938).
holds(3938, awning).
holds(3938, table).

sample(3939).
holds(3939, miscindustrial).
holds(3939, powerplant).
holds(3939, watertreatment).
holds(3939, industrial).
holds(3939, chimney).
holds(3939, pipe).
holds(3939, truck).

sample(3940).
holds(3940, awning).
holds(3940, table).

sample(3941).
holds(3941, awning).
holds(3941, table).

sample(3942).
holds(3942, constructionsite).
holds(3942, industrial).
holds(3942, machine).

sample(3943).
holds(3943, awning).
holds(3943, table).

sample(3944).
holds(3944, awning).
holds(3944, table).

sample(3945).
holds(3945, miscindustrial).
holds(3945, watertreatment).
holds(3945, industrial).
holds(3945, truck).

sample(3946).
holds(3946, awning).
holds(3946, table).

sample(3947).
holds(3947, awning).
holds(3947, table).

sample(3948).
holds(3948, miscindustrial).
holds(3948, powerplant).
holds(3948, watertreatment).
holds(3948, industrial).
holds(3948, chimney).
holds(3948, pipe).
holds(3948, truck).

sample(3949).
holds(3949, awning).
holds(3949, table).

sample(3950).
holds(3950, awning).
holds(3950, table).

sample(3951).
holds(3951, constructionsite).
holds(3951, industrial).
holds(3951, machine).

sample(3952).
holds(3952, awning).
holds(3952, table).

sample(3953).
holds(3953, awning).
holds(3953, table).

sample(3954).
holds(3954, powerplant).
holds(3954, industrial).
holds(3954, chimney).
holds(3954, pipe).

sample(3955).
holds(3955, awning).
holds(3955, table).

sample(3956).
holds(3956, awning).
holds(3956, table).

sample(3957).
holds(3957, miscindustrial).
holds(3957, watertreatment).
holds(3957, industrial).
holds(3957, pipe).
holds(3957, truck).

sample(3958).
holds(3958, awning).
holds(3958, table).

sample(3959).
holds(3959, awning).
holds(3959, table).

sample(3960).
holds(3960, constructionsite).
holds(3960, industrial).
holds(3960, machine).

sample(3961).
holds(3961, awning).
holds(3961, table).

sample(3962).
holds(3962, awning).
holds(3962, table).

sample(3963).
holds(3963, miscindustrial).
holds(3963, industrial).
holds(3963, truck).

sample(3964).
holds(3964, awning).
holds(3964, table).

sample(3965).
holds(3965, awning).
holds(3965, table).

sample(3966).
holds(3966, constructionsite).
holds(3966, industrial).
holds(3966, machine).

sample(3967).
holds(3967, awning).
holds(3967, table).

sample(3968).
holds(3968, awning).
holds(3968, table).

sample(3969).
holds(3969, powerplant).
holds(3969, industrial).
holds(3969, awning).
holds(3969, chimney).
holds(3969, pipe).

sample(3970).
holds(3970, awning).
holds(3970, table).

sample(3971).
holds(3971, awning).
holds(3971, table).

sample(3972).
holds(3972, constructionsite).
holds(3972, powerplant).
holds(3972, industrial).
holds(3972, chimney).
holds(3972, pipe).
holds(3972, machine).

sample(3973).
holds(3973, awning).
holds(3973, table).

sample(3974).
holds(3974, awning).
holds(3974, table).

sample(3975).
holds(3975, miscindustrial).
holds(3975, powerplant).
holds(3975, watertreatment).
holds(3975, industrial).
holds(3975, chimney).
holds(3975, pipe).
holds(3975, truck).

sample(3976).
holds(3976, awning).
holds(3976, table).

sample(3977).
holds(3977, awning).
holds(3977, table).

sample(3978).
holds(3978, constructionsite).
holds(3978, industrial).
holds(3978, machine).

sample(3979).
holds(3979, awning).
holds(3979, table).

sample(3980).
holds(3980, awning).
holds(3980, table).

sample(3981).
holds(3981, miscindustrial).
holds(3981, powerplant).
holds(3981, watertreatment).
holds(3981, industrial).
holds(3981, chimney).
holds(3981, pipe).
holds(3981, truck).

sample(3982).
holds(3982, awning).
holds(3982, table).

sample(3983).
holds(3983, awning).
holds(3983, table).

sample(3984).
holds(3984, watertreatment).
holds(3984, industrial).
holds(3984, awning).
holds(3984, pipe).
holds(3984, truck).

sample(3985).
holds(3985, awning).
holds(3985, table).

sample(3986).
holds(3986, awning).
holds(3986, table).

sample(3987).
holds(3987, constructionsite).
holds(3987, industrial).
holds(3987, machine).

sample(3988).
holds(3988, awning).
holds(3988, table).

sample(3989).
holds(3989, awning).
holds(3989, table).

sample(3990).
holds(3990, constructionsite).
holds(3990, industrial).
holds(3990, pipe).
holds(3990, machine).

sample(3991).
holds(3991, awning).
holds(3991, table).

sample(3992).
holds(3992, awning).
holds(3992, table).

sample(3993).
holds(3993, powerplant).
holds(3993, industrial).
holds(3993, awning).
holds(3993, chimney).
holds(3993, pipe).

sample(3994).
holds(3994, awning).
holds(3994, table).

sample(3995).
holds(3995, awning).
holds(3995, table).

sample(3996).
holds(3996, powerplant).
holds(3996, watertreatment).
holds(3996, industrial).
holds(3996, awning).
holds(3996, chimney).
holds(3996, pipe).
holds(3996, truck).

sample(3997).
holds(3997, awning).
holds(3997, table).

sample(3998).
holds(3998, awning).
holds(3998, table).

sample(3999).
holds(3999, miscindustrial).
holds(3999, powerplant).
holds(3999, watertreatment).
holds(3999, industrial).
holds(3999, chimney).
holds(3999, pipe).
holds(3999, truck).

