sample(s_6346_jpg).
holds(s_6346_jpg, building).
holds(s_6346_jpg, feature).
holds(s_6346_jpg, constructionsite).
holds(s_6346_jpg, door).
holds(s_6346_jpg, awning).
holds(s_6346_jpg, billboard).
holds(s_6346_jpg, porch).
holds(s_6346_jpg, tiledrooftop).
holds(s_6346_jpg, vendingmachine).
holds(s_6346_jpg, wallsign).
holds(s_6346_jpg, statue).
holds(s_6346_jpg, chimney).
holds(s_6346_jpg, pipe).
holds(s_6346_jpg, machine).
holds(s_6346_jpg, industrial).

sample(s_5902_jpg).
holds(s_5902_jpg, building).
holds(s_5902_jpg, feature).
holds(s_5902_jpg, constructionsite).
holds(s_5902_jpg, awning).
holds(s_5902_jpg, billboard).
holds(s_5902_jpg, porch).
holds(s_5902_jpg, tiledrooftop).
holds(s_5902_jpg, wallsign).
holds(s_5902_jpg, chimney).
holds(s_5902_jpg, pipe).
holds(s_5902_jpg, machine).
holds(s_5902_jpg, industrial).

sample(s_9385_jpg).
holds(s_9385_jpg, building).
holds(s_9385_jpg, feature).
holds(s_9385_jpg, constructionsite).
holds(s_9385_jpg, awning).
holds(s_9385_jpg, billboard).
holds(s_9385_jpg, porch).
holds(s_9385_jpg, tiledrooftop).
holds(s_9385_jpg, vendingmachine).
holds(s_9385_jpg, wallsign).
holds(s_9385_jpg, statue).
holds(s_9385_jpg, chimney).
holds(s_9385_jpg, machine).
holds(s_9385_jpg, industrial).

sample(s_13106_jpg).
holds(s_13106_jpg, building).
holds(s_13106_jpg, feature).
holds(s_13106_jpg, suburban).
holds(s_13106_jpg, door).
holds(s_13106_jpg, window).
holds(s_13106_jpg, awning).
holds(s_13106_jpg, porch).
holds(s_13106_jpg, tiledrooftop).
holds(s_13106_jpg, vendingmachine).
holds(s_13106_jpg, wallsign).
holds(s_13106_jpg, statue).
holds(s_13106_jpg, pipe).
holds(s_13106_jpg, residential).

sample(s_13441_jpg).
holds(s_13441_jpg, building).
holds(s_13441_jpg, feature).
holds(s_13441_jpg, constructionsite).
holds(s_13441_jpg, awning).
holds(s_13441_jpg, billboard).
holds(s_13441_jpg, porch).
holds(s_13441_jpg, tiledrooftop).
holds(s_13441_jpg, wallsign).
holds(s_13441_jpg, chimney).
holds(s_13441_jpg, pipe).
holds(s_13441_jpg, machine).
holds(s_13441_jpg, industrial).

sample(s_4869_jpg).
holds(s_4869_jpg, building).
holds(s_4869_jpg, feature).
holds(s_4869_jpg, hotel).
holds(s_4869_jpg, door).
holds(s_4869_jpg, awning).
holds(s_4869_jpg, porch).
holds(s_4869_jpg, tiledrooftop).
holds(s_4869_jpg, vendingmachine).
holds(s_4869_jpg, statue).
holds(s_4869_jpg, chimney).
holds(s_4869_jpg, pipe).
holds(s_4869_jpg, machine).
holds(s_4869_jpg, truck).
holds(s_4869_jpg, commercial).

sample(s_13393_jpg).
holds(s_13393_jpg, building).
holds(s_13393_jpg, feature).
holds(s_13393_jpg, constructionsite).
holds(s_13393_jpg, awning).
holds(s_13393_jpg, billboard).
holds(s_13393_jpg, porch).
holds(s_13393_jpg, tiledrooftop).
holds(s_13393_jpg, wallsign).
holds(s_13393_jpg, chimney).
holds(s_13393_jpg, pipe).
holds(s_13393_jpg, machine).
holds(s_13393_jpg, industrial).

sample(s_1283_jpg).
holds(s_1283_jpg, building).
holds(s_1283_jpg, feature).
holds(s_1283_jpg, suburban).
holds(s_1283_jpg, door).
holds(s_1283_jpg, window).
holds(s_1283_jpg, awning).
holds(s_1283_jpg, porch).
holds(s_1283_jpg, tiledrooftop).
holds(s_1283_jpg, vendingmachine).
holds(s_1283_jpg, wallsign).
holds(s_1283_jpg, statue).
holds(s_1283_jpg, pipe).
holds(s_1283_jpg, residential).

sample(s_15470_jpg).
holds(s_15470_jpg, building).
holds(s_15470_jpg, feature).
holds(s_15470_jpg, suburban).
holds(s_15470_jpg, door).
holds(s_15470_jpg, window).
holds(s_15470_jpg, awning).
holds(s_15470_jpg, porch).
holds(s_15470_jpg, tiledrooftop).
holds(s_15470_jpg, vendingmachine).
holds(s_15470_jpg, wallsign).
holds(s_15470_jpg, statue).
holds(s_15470_jpg, residential).

sample(s_1865_jpg).
holds(s_1865_jpg, building).
holds(s_1865_jpg, feature).
holds(s_1865_jpg, suburban).
holds(s_1865_jpg, door).
holds(s_1865_jpg, awning).
holds(s_1865_jpg, billboard).
holds(s_1865_jpg, porch).
holds(s_1865_jpg, tiledrooftop).
holds(s_1865_jpg, vendingmachine).
holds(s_1865_jpg, wallsign).
holds(s_1865_jpg, statue).
holds(s_1865_jpg, chimney).
holds(s_1865_jpg, pipe).
holds(s_1865_jpg, machine).
holds(s_1865_jpg, truck).
holds(s_1865_jpg, car).
holds(s_1865_jpg, residential).

sample(s_11920_jpg).
holds(s_11920_jpg, building).
holds(s_11920_jpg, feature).
holds(s_11920_jpg, constructionsite).
holds(s_11920_jpg, awning).
holds(s_11920_jpg, billboard).
holds(s_11920_jpg, porch).
holds(s_11920_jpg, tiledrooftop).
holds(s_11920_jpg, wallsign).
holds(s_11920_jpg, chimney).
holds(s_11920_jpg, pipe).
holds(s_11920_jpg, machine).
holds(s_11920_jpg, industrial).

sample(s_10301_jpg).
holds(s_10301_jpg, building).
holds(s_10301_jpg, feature).
holds(s_10301_jpg, suburban).
holds(s_10301_jpg, door).
holds(s_10301_jpg, window).
holds(s_10301_jpg, awning).
holds(s_10301_jpg, table).
holds(s_10301_jpg, tiledrooftop).
holds(s_10301_jpg, vendingmachine).
holds(s_10301_jpg, wallsign).
holds(s_10301_jpg, statue).
holds(s_10301_jpg, pipe).
holds(s_10301_jpg, car).
holds(s_10301_jpg, residential).

sample(s_12211_jpg).
holds(s_12211_jpg, building).
holds(s_12211_jpg, feature).
holds(s_12211_jpg, constructionsite).
holds(s_12211_jpg, awning).
holds(s_12211_jpg, billboard).
holds(s_12211_jpg, porch).
holds(s_12211_jpg, tiledrooftop).
holds(s_12211_jpg, wallsign).
holds(s_12211_jpg, chimney).
holds(s_12211_jpg, pipe).
holds(s_12211_jpg, machine).
holds(s_12211_jpg, industrial).

sample(s_746_jpg).
holds(s_746_jpg, building).
holds(s_746_jpg, feature).
holds(s_746_jpg, suburban).
holds(s_746_jpg, door).
holds(s_746_jpg, window).
holds(s_746_jpg, awning).
holds(s_746_jpg, porch).
holds(s_746_jpg, tiledrooftop).
holds(s_746_jpg, vendingmachine).
holds(s_746_jpg, statue).
holds(s_746_jpg, residential).

sample(s_1414_jpg).
holds(s_1414_jpg, building).
holds(s_1414_jpg, feature).
holds(s_1414_jpg, constructionsite).
holds(s_1414_jpg, awning).
holds(s_1414_jpg, billboard).
holds(s_1414_jpg, porch).
holds(s_1414_jpg, tiledrooftop).
holds(s_1414_jpg, wallsign).
holds(s_1414_jpg, statue).
holds(s_1414_jpg, chimney).
holds(s_1414_jpg, pipe).
holds(s_1414_jpg, machine).
holds(s_1414_jpg, industrial).

sample(s_7552_jpg).
holds(s_7552_jpg, building).
holds(s_7552_jpg, feature).
holds(s_7552_jpg, constructionsite).
holds(s_7552_jpg, awning).
holds(s_7552_jpg, billboard).
holds(s_7552_jpg, porch).
holds(s_7552_jpg, tiledrooftop).
holds(s_7552_jpg, wallsign).
holds(s_7552_jpg, chimney).
holds(s_7552_jpg, pipe).
holds(s_7552_jpg, machine).
holds(s_7552_jpg, industrial).

sample(s_10096_jpg).
holds(s_10096_jpg, building).
holds(s_10096_jpg, feature).
holds(s_10096_jpg, constructionsite).
holds(s_10096_jpg, door).
holds(s_10096_jpg, awning).
holds(s_10096_jpg, billboard).
holds(s_10096_jpg, porch).
holds(s_10096_jpg, tiledrooftop).
holds(s_10096_jpg, vendingmachine).
holds(s_10096_jpg, wallsign).
holds(s_10096_jpg, statue).
holds(s_10096_jpg, chimney).
holds(s_10096_jpg, pipe).
holds(s_10096_jpg, machine).
holds(s_10096_jpg, industrial).

sample(s_5073_jpg).
holds(s_5073_jpg, building).
holds(s_5073_jpg, feature).
holds(s_5073_jpg, hotel).
holds(s_5073_jpg, door).
holds(s_5073_jpg, awning).
holds(s_5073_jpg, billboard).
holds(s_5073_jpg, porch).
holds(s_5073_jpg, sign).
holds(s_5073_jpg, tiledrooftop).
holds(s_5073_jpg, statue).
holds(s_5073_jpg, chimney).
holds(s_5073_jpg, pipe).
holds(s_5073_jpg, machine).
holds(s_5073_jpg, commercial).

sample(s_14421_jpg).
holds(s_14421_jpg, building).
holds(s_14421_jpg, feature).
holds(s_14421_jpg, hotel).
holds(s_14421_jpg, door).
holds(s_14421_jpg, awning).
holds(s_14421_jpg, porch).
holds(s_14421_jpg, tiledrooftop).
holds(s_14421_jpg, vendingmachine).
holds(s_14421_jpg, wallsign).
holds(s_14421_jpg, statue).
holds(s_14421_jpg, chimney).
holds(s_14421_jpg, pipe).
holds(s_14421_jpg, machine).
holds(s_14421_jpg, commercial).

sample(s_9338_jpg).
holds(s_9338_jpg, building).
holds(s_9338_jpg, feature).
holds(s_9338_jpg, suburban).
holds(s_9338_jpg, door).
holds(s_9338_jpg, window).
holds(s_9338_jpg, awning).
holds(s_9338_jpg, porch).
holds(s_9338_jpg, table).
holds(s_9338_jpg, tiledrooftop).
holds(s_9338_jpg, vendingmachine).
holds(s_9338_jpg, wallsign).
holds(s_9338_jpg, statue).
holds(s_9338_jpg, pipe).
holds(s_9338_jpg, residential).

sample(s_11246_jpg).
holds(s_11246_jpg, building).
holds(s_11246_jpg, feature).
holds(s_11246_jpg, suburban).
holds(s_11246_jpg, door).
holds(s_11246_jpg, window).
holds(s_11246_jpg, awning).
holds(s_11246_jpg, porch).
holds(s_11246_jpg, tiledrooftop).
holds(s_11246_jpg, vendingmachine).
holds(s_11246_jpg, wallsign).
holds(s_11246_jpg, statue).
holds(s_11246_jpg, residential).

sample(s_5553_jpg).
holds(s_5553_jpg, building).
holds(s_5553_jpg, feature).
holds(s_5553_jpg, hotel).
holds(s_5553_jpg, door).
holds(s_5553_jpg, awning).
holds(s_5553_jpg, billboard).
holds(s_5553_jpg, porch).
holds(s_5553_jpg, sign).
holds(s_5553_jpg, tiledrooftop).
holds(s_5553_jpg, statue).
holds(s_5553_jpg, chimney).
holds(s_5553_jpg, pipe).
holds(s_5553_jpg, machine).
holds(s_5553_jpg, truck).
holds(s_5553_jpg, commercial).

sample(s_14265_jpg).
holds(s_14265_jpg, building).
holds(s_14265_jpg, feature).
holds(s_14265_jpg, hotel).
holds(s_14265_jpg, door).
holds(s_14265_jpg, awning).
holds(s_14265_jpg, billboard).
holds(s_14265_jpg, porch).
holds(s_14265_jpg, tiledrooftop).
holds(s_14265_jpg, wallsign).
holds(s_14265_jpg, statue).
holds(s_14265_jpg, chimney).
holds(s_14265_jpg, pipe).
holds(s_14265_jpg, machine).
holds(s_14265_jpg, truck).
holds(s_14265_jpg, commercial).

sample(s_14012_jpg).
holds(s_14012_jpg, building).
holds(s_14012_jpg, feature).
holds(s_14012_jpg, suburban).
holds(s_14012_jpg, door).
holds(s_14012_jpg, window).
holds(s_14012_jpg, awning).
holds(s_14012_jpg, porch).
holds(s_14012_jpg, tiledrooftop).
holds(s_14012_jpg, vendingmachine).
holds(s_14012_jpg, statue).
holds(s_14012_jpg, residential).

sample(s_6474_jpg).
holds(s_6474_jpg, building).
holds(s_6474_jpg, feature).
holds(s_6474_jpg, hotel).
holds(s_6474_jpg, door).
holds(s_6474_jpg, awning).
holds(s_6474_jpg, billboard).
holds(s_6474_jpg, porch).
holds(s_6474_jpg, tiledrooftop).
holds(s_6474_jpg, wallsign).
holds(s_6474_jpg, statue).
holds(s_6474_jpg, chimney).
holds(s_6474_jpg, pipe).
holds(s_6474_jpg, machine).
holds(s_6474_jpg, truck).
holds(s_6474_jpg, commercial).

sample(s_15556_jpg).
holds(s_15556_jpg, building).
holds(s_15556_jpg, feature).
holds(s_15556_jpg, constructionsite).
holds(s_15556_jpg, door).
holds(s_15556_jpg, awning).
holds(s_15556_jpg, billboard).
holds(s_15556_jpg, porch).
holds(s_15556_jpg, tiledrooftop).
holds(s_15556_jpg, wallsign).
holds(s_15556_jpg, chimney).
holds(s_15556_jpg, pipe).
holds(s_15556_jpg, machine).
holds(s_15556_jpg, industrial).

sample(s_2310_jpg).
holds(s_2310_jpg, building).
holds(s_2310_jpg, feature).
holds(s_2310_jpg, hotel).
holds(s_2310_jpg, door).
holds(s_2310_jpg, awning).
holds(s_2310_jpg, billboard).
holds(s_2310_jpg, porch).
holds(s_2310_jpg, sign).
holds(s_2310_jpg, tiledrooftop).
holds(s_2310_jpg, chimney).
holds(s_2310_jpg, pipe).
holds(s_2310_jpg, machine).
holds(s_2310_jpg, commercial).

sample(s_5118_jpg).
holds(s_5118_jpg, building).
holds(s_5118_jpg, feature).
holds(s_5118_jpg, hotel).
holds(s_5118_jpg, door).
holds(s_5118_jpg, awning).
holds(s_5118_jpg, billboard).
holds(s_5118_jpg, porch).
holds(s_5118_jpg, tiledrooftop).
holds(s_5118_jpg, statue).
holds(s_5118_jpg, chimney).
holds(s_5118_jpg, pipe).
holds(s_5118_jpg, machine).
holds(s_5118_jpg, truck).
holds(s_5118_jpg, commercial).

sample(s_6417_jpg).
holds(s_6417_jpg, building).
holds(s_6417_jpg, feature).
holds(s_6417_jpg, hotel).
holds(s_6417_jpg, door).
holds(s_6417_jpg, awning).
holds(s_6417_jpg, billboard).
holds(s_6417_jpg, porch).
holds(s_6417_jpg, sign).
holds(s_6417_jpg, tiledrooftop).
holds(s_6417_jpg, chimney).
holds(s_6417_jpg, pipe).
holds(s_6417_jpg, machine).
holds(s_6417_jpg, commercial).

sample(s_12616_jpg).
holds(s_12616_jpg, building).
holds(s_12616_jpg, feature).
holds(s_12616_jpg, constructionsite).
holds(s_12616_jpg, awning).
holds(s_12616_jpg, billboard).
holds(s_12616_jpg, porch).
holds(s_12616_jpg, tiledrooftop).
holds(s_12616_jpg, wallsign).
holds(s_12616_jpg, chimney).
holds(s_12616_jpg, pipe).
holds(s_12616_jpg, machine).
holds(s_12616_jpg, industrial).

sample(s_1256_jpg).
holds(s_1256_jpg, building).
holds(s_1256_jpg, feature).
holds(s_1256_jpg, suburban).
holds(s_1256_jpg, door).
holds(s_1256_jpg, awning).
holds(s_1256_jpg, billboard).
holds(s_1256_jpg, porch).
holds(s_1256_jpg, table).
holds(s_1256_jpg, tiledrooftop).
holds(s_1256_jpg, vendingmachine).
holds(s_1256_jpg, wallsign).
holds(s_1256_jpg, statue).
holds(s_1256_jpg, chimney).
holds(s_1256_jpg, pipe).
holds(s_1256_jpg, truck).
holds(s_1256_jpg, car).
holds(s_1256_jpg, residential).

sample(s_7461_jpg).
holds(s_7461_jpg, building).
holds(s_7461_jpg, feature).
holds(s_7461_jpg, hotel).
holds(s_7461_jpg, door).
holds(s_7461_jpg, awning).
holds(s_7461_jpg, billboard).
holds(s_7461_jpg, porch).
holds(s_7461_jpg, sign).
holds(s_7461_jpg, tiledrooftop).
holds(s_7461_jpg, statue).
holds(s_7461_jpg, chimney).
holds(s_7461_jpg, pipe).
holds(s_7461_jpg, machine).
holds(s_7461_jpg, commercial).

sample(s_1931_jpg).
holds(s_1931_jpg, building).
holds(s_1931_jpg, feature).
holds(s_1931_jpg, suburban).
holds(s_1931_jpg, door).
holds(s_1931_jpg, window).
holds(s_1931_jpg, awning).
holds(s_1931_jpg, porch).
holds(s_1931_jpg, tiledrooftop).
holds(s_1931_jpg, vendingmachine).
holds(s_1931_jpg, wallsign).
holds(s_1931_jpg, statue).
holds(s_1931_jpg, pipe).
holds(s_1931_jpg, car).
holds(s_1931_jpg, residential).

sample(s_2884_jpg).
holds(s_2884_jpg, building).
holds(s_2884_jpg, feature).
holds(s_2884_jpg, constructionsite).
holds(s_2884_jpg, door).
holds(s_2884_jpg, awning).
holds(s_2884_jpg, billboard).
holds(s_2884_jpg, porch).
holds(s_2884_jpg, tiledrooftop).
holds(s_2884_jpg, wallsign).
holds(s_2884_jpg, statue).
holds(s_2884_jpg, chimney).
holds(s_2884_jpg, pipe).
holds(s_2884_jpg, machine).
holds(s_2884_jpg, industrial).

sample(s_7681_jpg).
holds(s_7681_jpg, building).
holds(s_7681_jpg, feature).
holds(s_7681_jpg, constructionsite).
holds(s_7681_jpg, awning).
holds(s_7681_jpg, billboard).
holds(s_7681_jpg, porch).
holds(s_7681_jpg, tiledrooftop).
holds(s_7681_jpg, wallsign).
holds(s_7681_jpg, chimney).
holds(s_7681_jpg, pipe).
holds(s_7681_jpg, machine).
holds(s_7681_jpg, industrial).

sample(s_14260_jpg).
holds(s_14260_jpg, building).
holds(s_14260_jpg, feature).
holds(s_14260_jpg, constructionsite).
holds(s_14260_jpg, awning).
holds(s_14260_jpg, billboard).
holds(s_14260_jpg, porch).
holds(s_14260_jpg, tiledrooftop).
holds(s_14260_jpg, vendingmachine).
holds(s_14260_jpg, wallsign).
holds(s_14260_jpg, chimney).
holds(s_14260_jpg, pipe).
holds(s_14260_jpg, machine).
holds(s_14260_jpg, industrial).

sample(s_1662_jpg).
holds(s_1662_jpg, building).
holds(s_1662_jpg, feature).
holds(s_1662_jpg, hotel).
holds(s_1662_jpg, door).
holds(s_1662_jpg, awning).
holds(s_1662_jpg, billboard).
holds(s_1662_jpg, porch).
holds(s_1662_jpg, tiledrooftop).
holds(s_1662_jpg, statue).
holds(s_1662_jpg, chimney).
holds(s_1662_jpg, machine).
holds(s_1662_jpg, commercial).

sample(s_6390_jpg).
holds(s_6390_jpg, building).
holds(s_6390_jpg, feature).
holds(s_6390_jpg, hotel).
holds(s_6390_jpg, door).
holds(s_6390_jpg, awning).
holds(s_6390_jpg, porch).
holds(s_6390_jpg, tiledrooftop).
holds(s_6390_jpg, statue).
holds(s_6390_jpg, chimney).
holds(s_6390_jpg, machine).
holds(s_6390_jpg, commercial).

sample(s_13430_jpg).
holds(s_13430_jpg, building).
holds(s_13430_jpg, feature).
holds(s_13430_jpg, suburban).
holds(s_13430_jpg, door).
holds(s_13430_jpg, window).
holds(s_13430_jpg, awning).
holds(s_13430_jpg, porch).
holds(s_13430_jpg, table).
holds(s_13430_jpg, tiledrooftop).
holds(s_13430_jpg, vendingmachine).
holds(s_13430_jpg, wallsign).
holds(s_13430_jpg, statue).
holds(s_13430_jpg, pipe).
holds(s_13430_jpg, truck).
holds(s_13430_jpg, car).
holds(s_13430_jpg, residential).

sample(s_7163_jpg).
holds(s_7163_jpg, building).
holds(s_7163_jpg, feature).
holds(s_7163_jpg, suburban).
holds(s_7163_jpg, door).
holds(s_7163_jpg, window).
holds(s_7163_jpg, awning).
holds(s_7163_jpg, table).
holds(s_7163_jpg, tiledrooftop).
holds(s_7163_jpg, vendingmachine).
holds(s_7163_jpg, wallsign).
holds(s_7163_jpg, statue).
holds(s_7163_jpg, pipe).
holds(s_7163_jpg, truck).
holds(s_7163_jpg, car).
holds(s_7163_jpg, residential).

sample(s_6737_jpg).
holds(s_6737_jpg, building).
holds(s_6737_jpg, feature).
holds(s_6737_jpg, suburban).
holds(s_6737_jpg, door).
holds(s_6737_jpg, window).
holds(s_6737_jpg, awning).
holds(s_6737_jpg, porch).
holds(s_6737_jpg, tiledrooftop).
holds(s_6737_jpg, vendingmachine).
holds(s_6737_jpg, wallsign).
holds(s_6737_jpg, statue).
holds(s_6737_jpg, residential).

sample(s_9569_jpg).
holds(s_9569_jpg, building).
holds(s_9569_jpg, feature).
holds(s_9569_jpg, suburban).
holds(s_9569_jpg, door).
holds(s_9569_jpg, window).
holds(s_9569_jpg, awning).
holds(s_9569_jpg, porch).
holds(s_9569_jpg, table).
holds(s_9569_jpg, tiledrooftop).
holds(s_9569_jpg, vendingmachine).
holds(s_9569_jpg, wallsign).
holds(s_9569_jpg, statue).
holds(s_9569_jpg, pipe).
holds(s_9569_jpg, car).
holds(s_9569_jpg, residential).

sample(s_5539_jpg).
holds(s_5539_jpg, building).
holds(s_5539_jpg, feature).
holds(s_5539_jpg, constructionsite).
holds(s_5539_jpg, door).
holds(s_5539_jpg, awning).
holds(s_5539_jpg, billboard).
holds(s_5539_jpg, porch).
holds(s_5539_jpg, tiledrooftop).
holds(s_5539_jpg, vendingmachine).
holds(s_5539_jpg, wallsign).
holds(s_5539_jpg, chimney).
holds(s_5539_jpg, pipe).
holds(s_5539_jpg, machine).
holds(s_5539_jpg, industrial).

sample(s_13398_jpg).
holds(s_13398_jpg, building).
holds(s_13398_jpg, feature).
holds(s_13398_jpg, hotel).
holds(s_13398_jpg, door).
holds(s_13398_jpg, awning).
holds(s_13398_jpg, billboard).
holds(s_13398_jpg, porch).
holds(s_13398_jpg, sign).
holds(s_13398_jpg, tiledrooftop).
holds(s_13398_jpg, chimney).
holds(s_13398_jpg, pipe).
holds(s_13398_jpg, machine).
holds(s_13398_jpg, commercial).

sample(s_15760_jpg).
holds(s_15760_jpg, building).
holds(s_15760_jpg, feature).
holds(s_15760_jpg, constructionsite).
holds(s_15760_jpg, door).
holds(s_15760_jpg, awning).
holds(s_15760_jpg, billboard).
holds(s_15760_jpg, porch).
holds(s_15760_jpg, tiledrooftop).
holds(s_15760_jpg, wallsign).
holds(s_15760_jpg, chimney).
holds(s_15760_jpg, pipe).
holds(s_15760_jpg, machine).
holds(s_15760_jpg, industrial).

sample(s_12706_jpg).
holds(s_12706_jpg, building).
holds(s_12706_jpg, feature).
holds(s_12706_jpg, constructionsite).
holds(s_12706_jpg, door).
holds(s_12706_jpg, awning).
holds(s_12706_jpg, billboard).
holds(s_12706_jpg, porch).
holds(s_12706_jpg, tiledrooftop).
holds(s_12706_jpg, wallsign).
holds(s_12706_jpg, chimney).
holds(s_12706_jpg, pipe).
holds(s_12706_jpg, machine).
holds(s_12706_jpg, industrial).

sample(s_5036_jpg).
holds(s_5036_jpg, building).
holds(s_5036_jpg, feature).
holds(s_5036_jpg, suburban).
holds(s_5036_jpg, door).
holds(s_5036_jpg, awning).
holds(s_5036_jpg, porch).
holds(s_5036_jpg, table).
holds(s_5036_jpg, tiledrooftop).
holds(s_5036_jpg, vendingmachine).
holds(s_5036_jpg, wallsign).
holds(s_5036_jpg, statue).
holds(s_5036_jpg, chimney).
holds(s_5036_jpg, pipe).
holds(s_5036_jpg, truck).
holds(s_5036_jpg, car).
holds(s_5036_jpg, residential).

sample(s_5834_jpg).
holds(s_5834_jpg, building).
holds(s_5834_jpg, feature).
holds(s_5834_jpg, suburban).
holds(s_5834_jpg, door).
holds(s_5834_jpg, window).
holds(s_5834_jpg, awning).
holds(s_5834_jpg, porch).
holds(s_5834_jpg, tiledrooftop).
holds(s_5834_jpg, vendingmachine).
holds(s_5834_jpg, statue).
holds(s_5834_jpg, residential).

sample(s_15044_jpg).
holds(s_15044_jpg, building).
holds(s_15044_jpg, feature).
holds(s_15044_jpg, suburban).
holds(s_15044_jpg, door).
holds(s_15044_jpg, awning).
holds(s_15044_jpg, billboard).
holds(s_15044_jpg, porch).
holds(s_15044_jpg, vendingmachine).
holds(s_15044_jpg, wallsign).
holds(s_15044_jpg, statue).
holds(s_15044_jpg, chimney).
holds(s_15044_jpg, pipe).
holds(s_15044_jpg, machine).
holds(s_15044_jpg, truck).
holds(s_15044_jpg, car).
holds(s_15044_jpg, residential).

sample(s_13147_jpg).
holds(s_13147_jpg, building).
holds(s_13147_jpg, feature).
holds(s_13147_jpg, constructionsite).
holds(s_13147_jpg, awning).
holds(s_13147_jpg, billboard).
holds(s_13147_jpg, porch).
holds(s_13147_jpg, tiledrooftop).
holds(s_13147_jpg, wallsign).
holds(s_13147_jpg, chimney).
holds(s_13147_jpg, pipe).
holds(s_13147_jpg, machine).
holds(s_13147_jpg, industrial).

sample(s_4475_jpg).
holds(s_4475_jpg, building).
holds(s_4475_jpg, feature).
holds(s_4475_jpg, suburban).
holds(s_4475_jpg, door).
holds(s_4475_jpg, awning).
holds(s_4475_jpg, billboard).
holds(s_4475_jpg, porch).
holds(s_4475_jpg, tiledrooftop).
holds(s_4475_jpg, vendingmachine).
holds(s_4475_jpg, wallsign).
holds(s_4475_jpg, statue).
holds(s_4475_jpg, chimney).
holds(s_4475_jpg, pipe).
holds(s_4475_jpg, machine).
holds(s_4475_jpg, truck).
holds(s_4475_jpg, car).
holds(s_4475_jpg, residential).

sample(s_2777_jpg).
holds(s_2777_jpg, building).
holds(s_2777_jpg, feature).
holds(s_2777_jpg, suburban).
holds(s_2777_jpg, door).
holds(s_2777_jpg, window).
holds(s_2777_jpg, awning).
holds(s_2777_jpg, porch).
holds(s_2777_jpg, table).
holds(s_2777_jpg, tiledrooftop).
holds(s_2777_jpg, vendingmachine).
holds(s_2777_jpg, wallsign).
holds(s_2777_jpg, statue).
holds(s_2777_jpg, pipe).
holds(s_2777_jpg, truck).
holds(s_2777_jpg, car).
holds(s_2777_jpg, residential).

sample(s_6874_jpg).
holds(s_6874_jpg, building).
holds(s_6874_jpg, feature).
holds(s_6874_jpg, constructionsite).
holds(s_6874_jpg, door).
holds(s_6874_jpg, awning).
holds(s_6874_jpg, billboard).
holds(s_6874_jpg, porch).
holds(s_6874_jpg, tiledrooftop).
holds(s_6874_jpg, wallsign).
holds(s_6874_jpg, chimney).
holds(s_6874_jpg, pipe).
holds(s_6874_jpg, machine).
holds(s_6874_jpg, industrial).

sample(s_1263_jpg).
holds(s_1263_jpg, building).
holds(s_1263_jpg, feature).
holds(s_1263_jpg, hotel).
holds(s_1263_jpg, door).
holds(s_1263_jpg, awning).
holds(s_1263_jpg, porch).
holds(s_1263_jpg, tiledrooftop).
holds(s_1263_jpg, vendingmachine).
holds(s_1263_jpg, statue).
holds(s_1263_jpg, chimney).
holds(s_1263_jpg, machine).
holds(s_1263_jpg, commercial).

sample(s_10589_jpg).
holds(s_10589_jpg, building).
holds(s_10589_jpg, feature).
holds(s_10589_jpg, suburban).
holds(s_10589_jpg, door).
holds(s_10589_jpg, window).
holds(s_10589_jpg, awning).
holds(s_10589_jpg, porch).
holds(s_10589_jpg, tiledrooftop).
holds(s_10589_jpg, vendingmachine).
holds(s_10589_jpg, statue).
holds(s_10589_jpg, residential).

sample(s_9438_jpg).
holds(s_9438_jpg, building).
holds(s_9438_jpg, feature).
holds(s_9438_jpg, hotel).
holds(s_9438_jpg, door).
holds(s_9438_jpg, awning).
holds(s_9438_jpg, billboard).
holds(s_9438_jpg, porch).
holds(s_9438_jpg, sign).
holds(s_9438_jpg, tiledrooftop).
holds(s_9438_jpg, chimney).
holds(s_9438_jpg, pipe).
holds(s_9438_jpg, machine).
holds(s_9438_jpg, commercial).

sample(s_7964_jpg).
holds(s_7964_jpg, building).
holds(s_7964_jpg, feature).
holds(s_7964_jpg, suburban).
holds(s_7964_jpg, door).
holds(s_7964_jpg, window).
holds(s_7964_jpg, awning).
holds(s_7964_jpg, table).
holds(s_7964_jpg, tiledrooftop).
holds(s_7964_jpg, vendingmachine).
holds(s_7964_jpg, wallsign).
holds(s_7964_jpg, statue).
holds(s_7964_jpg, pipe).
holds(s_7964_jpg, residential).

sample(s_1581_jpg).
holds(s_1581_jpg, building).
holds(s_1581_jpg, feature).
holds(s_1581_jpg, hotel).
holds(s_1581_jpg, door).
holds(s_1581_jpg, awning).
holds(s_1581_jpg, billboard).
holds(s_1581_jpg, porch).
holds(s_1581_jpg, sign).
holds(s_1581_jpg, tiledrooftop).
holds(s_1581_jpg, statue).
holds(s_1581_jpg, chimney).
holds(s_1581_jpg, machine).
holds(s_1581_jpg, commercial).

sample(s_3888_jpg).
holds(s_3888_jpg, building).
holds(s_3888_jpg, feature).
holds(s_3888_jpg, hotel).
holds(s_3888_jpg, door).
holds(s_3888_jpg, awning).
holds(s_3888_jpg, porch).
holds(s_3888_jpg, sign).
holds(s_3888_jpg, tiledrooftop).
holds(s_3888_jpg, statue).
holds(s_3888_jpg, chimney).
holds(s_3888_jpg, pipe).
holds(s_3888_jpg, machine).
holds(s_3888_jpg, commercial).

sample(s_1198_jpg).
holds(s_1198_jpg, building).
holds(s_1198_jpg, feature).
holds(s_1198_jpg, constructionsite).
holds(s_1198_jpg, awning).
holds(s_1198_jpg, billboard).
holds(s_1198_jpg, porch).
holds(s_1198_jpg, tiledrooftop).
holds(s_1198_jpg, wallsign).
holds(s_1198_jpg, chimney).
holds(s_1198_jpg, pipe).
holds(s_1198_jpg, machine).
holds(s_1198_jpg, industrial).

sample(s_1572_jpg).
holds(s_1572_jpg, building).
holds(s_1572_jpg, feature).
holds(s_1572_jpg, hotel).
holds(s_1572_jpg, door).
holds(s_1572_jpg, awning).
holds(s_1572_jpg, billboard).
holds(s_1572_jpg, porch).
holds(s_1572_jpg, tiledrooftop).
holds(s_1572_jpg, statue).
holds(s_1572_jpg, chimney).
holds(s_1572_jpg, machine).
holds(s_1572_jpg, commercial).

sample(s_14574_jpg).
holds(s_14574_jpg, building).
holds(s_14574_jpg, feature).
holds(s_14574_jpg, hotel).
holds(s_14574_jpg, door).
holds(s_14574_jpg, awning).
holds(s_14574_jpg, porch).
holds(s_14574_jpg, sign).
holds(s_14574_jpg, tiledrooftop).
holds(s_14574_jpg, statue).
holds(s_14574_jpg, pipe).
holds(s_14574_jpg, machine).
holds(s_14574_jpg, commercial).

sample(s_15765_jpg).
holds(s_15765_jpg, building).
holds(s_15765_jpg, feature).
holds(s_15765_jpg, hotel).
holds(s_15765_jpg, door).
holds(s_15765_jpg, awning).
holds(s_15765_jpg, porch).
holds(s_15765_jpg, sign).
holds(s_15765_jpg, tiledrooftop).
holds(s_15765_jpg, statue).
holds(s_15765_jpg, pipe).
holds(s_15765_jpg, machine).
holds(s_15765_jpg, commercial).

sample(s_4536_jpg).
holds(s_4536_jpg, building).
holds(s_4536_jpg, feature).
holds(s_4536_jpg, hotel).
holds(s_4536_jpg, door).
holds(s_4536_jpg, awning).
holds(s_4536_jpg, porch).
holds(s_4536_jpg, tiledrooftop).
holds(s_4536_jpg, statue).
holds(s_4536_jpg, chimney).
holds(s_4536_jpg, pipe).
holds(s_4536_jpg, machine).
holds(s_4536_jpg, commercial).

sample(s_15964_jpg).
holds(s_15964_jpg, building).
holds(s_15964_jpg, feature).
holds(s_15964_jpg, constructionsite).
holds(s_15964_jpg, awning).
holds(s_15964_jpg, billboard).
holds(s_15964_jpg, porch).
holds(s_15964_jpg, tiledrooftop).
holds(s_15964_jpg, wallsign).
holds(s_15964_jpg, chimney).
holds(s_15964_jpg, pipe).
holds(s_15964_jpg, machine).
holds(s_15964_jpg, industrial).

sample(s_13115_jpg).
holds(s_13115_jpg, building).
holds(s_13115_jpg, feature).
holds(s_13115_jpg, suburban).
holds(s_13115_jpg, door).
holds(s_13115_jpg, window).
holds(s_13115_jpg, awning).
holds(s_13115_jpg, porch).
holds(s_13115_jpg, tiledrooftop).
holds(s_13115_jpg, vendingmachine).
holds(s_13115_jpg, wallsign).
holds(s_13115_jpg, statue).
holds(s_13115_jpg, residential).

sample(s_13487_jpg).
holds(s_13487_jpg, building).
holds(s_13487_jpg, feature).
holds(s_13487_jpg, suburban).
holds(s_13487_jpg, door).
holds(s_13487_jpg, window).
holds(s_13487_jpg, awning).
holds(s_13487_jpg, porch).
holds(s_13487_jpg, tiledrooftop).
holds(s_13487_jpg, vendingmachine).
holds(s_13487_jpg, wallsign).
holds(s_13487_jpg, statue).
holds(s_13487_jpg, pipe).
holds(s_13487_jpg, residential).

sample(s_13513_jpg).
holds(s_13513_jpg, building).
holds(s_13513_jpg, feature).
holds(s_13513_jpg, constructionsite).
holds(s_13513_jpg, awning).
holds(s_13513_jpg, billboard).
holds(s_13513_jpg, porch).
holds(s_13513_jpg, tiledrooftop).
holds(s_13513_jpg, vendingmachine).
holds(s_13513_jpg, wallsign).
holds(s_13513_jpg, statue).
holds(s_13513_jpg, chimney).
holds(s_13513_jpg, pipe).
holds(s_13513_jpg, machine).
holds(s_13513_jpg, industrial).

sample(s_12236_jpg).
holds(s_12236_jpg, building).
holds(s_12236_jpg, feature).
holds(s_12236_jpg, suburban).
holds(s_12236_jpg, door).
holds(s_12236_jpg, awning).
holds(s_12236_jpg, billboard).
holds(s_12236_jpg, porch).
holds(s_12236_jpg, tiledrooftop).
holds(s_12236_jpg, vendingmachine).
holds(s_12236_jpg, wallsign).
holds(s_12236_jpg, statue).
holds(s_12236_jpg, chimney).
holds(s_12236_jpg, pipe).
holds(s_12236_jpg, machine).
holds(s_12236_jpg, truck).
holds(s_12236_jpg, car).
holds(s_12236_jpg, residential).

sample(s_2295_jpg).
holds(s_2295_jpg, building).
holds(s_2295_jpg, feature).
holds(s_2295_jpg, hotel).
holds(s_2295_jpg, door).
holds(s_2295_jpg, awning).
holds(s_2295_jpg, porch).
holds(s_2295_jpg, tiledrooftop).
holds(s_2295_jpg, statue).
holds(s_2295_jpg, chimney).
holds(s_2295_jpg, pipe).
holds(s_2295_jpg, machine).
holds(s_2295_jpg, commercial).

sample(s_5716_jpg).
holds(s_5716_jpg, building).
holds(s_5716_jpg, feature).
holds(s_5716_jpg, constructionsite).
holds(s_5716_jpg, door).
holds(s_5716_jpg, awning).
holds(s_5716_jpg, billboard).
holds(s_5716_jpg, porch).
holds(s_5716_jpg, tiledrooftop).
holds(s_5716_jpg, wallsign).
holds(s_5716_jpg, chimney).
holds(s_5716_jpg, pipe).
holds(s_5716_jpg, machine).
holds(s_5716_jpg, industrial).

sample(s_9375_jpg).
holds(s_9375_jpg, building).
holds(s_9375_jpg, feature).
holds(s_9375_jpg, hotel).
holds(s_9375_jpg, door).
holds(s_9375_jpg, awning).
holds(s_9375_jpg, billboard).
holds(s_9375_jpg, porch).
holds(s_9375_jpg, sign).
holds(s_9375_jpg, tiledrooftop).
holds(s_9375_jpg, statue).
holds(s_9375_jpg, chimney).
holds(s_9375_jpg, pipe).
holds(s_9375_jpg, machine).
holds(s_9375_jpg, commercial).

sample(s_879_jpg).
holds(s_879_jpg, building).
holds(s_879_jpg, feature).
holds(s_879_jpg, hotel).
holds(s_879_jpg, door).
holds(s_879_jpg, awning).
holds(s_879_jpg, billboard).
holds(s_879_jpg, porch).
holds(s_879_jpg, sign).
holds(s_879_jpg, tiledrooftop).
holds(s_879_jpg, pipe).
holds(s_879_jpg, machine).
holds(s_879_jpg, commercial).

sample(s_2119_jpg).
holds(s_2119_jpg, building).
holds(s_2119_jpg, feature).
holds(s_2119_jpg, constructionsite).
holds(s_2119_jpg, awning).
holds(s_2119_jpg, billboard).
holds(s_2119_jpg, porch).
holds(s_2119_jpg, tiledrooftop).
holds(s_2119_jpg, wallsign).
holds(s_2119_jpg, statue).
holds(s_2119_jpg, chimney).
holds(s_2119_jpg, pipe).
holds(s_2119_jpg, machine).
holds(s_2119_jpg, industrial).

sample(s_14426_jpg).
holds(s_14426_jpg, building).
holds(s_14426_jpg, feature).
holds(s_14426_jpg, suburban).
holds(s_14426_jpg, door).
holds(s_14426_jpg, window).
holds(s_14426_jpg, awning).
holds(s_14426_jpg, porch).
holds(s_14426_jpg, tiledrooftop).
holds(s_14426_jpg, vendingmachine).
holds(s_14426_jpg, statue).
holds(s_14426_jpg, residential).

sample(s_6315_jpg).
holds(s_6315_jpg, building).
holds(s_6315_jpg, feature).
holds(s_6315_jpg, hotel).
holds(s_6315_jpg, door).
holds(s_6315_jpg, awning).
holds(s_6315_jpg, billboard).
holds(s_6315_jpg, porch).
holds(s_6315_jpg, sign).
holds(s_6315_jpg, tiledrooftop).
holds(s_6315_jpg, statue).
holds(s_6315_jpg, chimney).
holds(s_6315_jpg, pipe).
holds(s_6315_jpg, machine).
holds(s_6315_jpg, truck).
holds(s_6315_jpg, commercial).

sample(s_7756_jpg).
holds(s_7756_jpg, building).
holds(s_7756_jpg, feature).
holds(s_7756_jpg, constructionsite).
holds(s_7756_jpg, awning).
holds(s_7756_jpg, billboard).
holds(s_7756_jpg, porch).
holds(s_7756_jpg, tiledrooftop).
holds(s_7756_jpg, wallsign).
holds(s_7756_jpg, chimney).
holds(s_7756_jpg, pipe).
holds(s_7756_jpg, machine).
holds(s_7756_jpg, industrial).

sample(s_2122_jpg).
holds(s_2122_jpg, building).
holds(s_2122_jpg, feature).
holds(s_2122_jpg, constructionsite).
holds(s_2122_jpg, awning).
holds(s_2122_jpg, billboard).
holds(s_2122_jpg, porch).
holds(s_2122_jpg, tiledrooftop).
holds(s_2122_jpg, wallsign).
holds(s_2122_jpg, chimney).
holds(s_2122_jpg, pipe).
holds(s_2122_jpg, machine).
holds(s_2122_jpg, industrial).

sample(s_1755_jpg).
holds(s_1755_jpg, building).
holds(s_1755_jpg, feature).
holds(s_1755_jpg, hotel).
holds(s_1755_jpg, door).
holds(s_1755_jpg, awning).
holds(s_1755_jpg, porch).
holds(s_1755_jpg, tiledrooftop).
holds(s_1755_jpg, statue).
holds(s_1755_jpg, chimney).
holds(s_1755_jpg, pipe).
holds(s_1755_jpg, machine).
holds(s_1755_jpg, truck).
holds(s_1755_jpg, commercial).

sample(s_1243_jpg).
holds(s_1243_jpg, building).
holds(s_1243_jpg, feature).
holds(s_1243_jpg, constructionsite).
holds(s_1243_jpg, awning).
holds(s_1243_jpg, billboard).
holds(s_1243_jpg, porch).
holds(s_1243_jpg, tiledrooftop).
holds(s_1243_jpg, wallsign).
holds(s_1243_jpg, statue).
holds(s_1243_jpg, chimney).
holds(s_1243_jpg, machine).
holds(s_1243_jpg, industrial).

sample(s_12681_jpg).
holds(s_12681_jpg, building).
holds(s_12681_jpg, feature).
holds(s_12681_jpg, hotel).
holds(s_12681_jpg, door).
holds(s_12681_jpg, awning).
holds(s_12681_jpg, billboard).
holds(s_12681_jpg, porch).
holds(s_12681_jpg, sign).
holds(s_12681_jpg, tiledrooftop).
holds(s_12681_jpg, pipe).
holds(s_12681_jpg, machine).
holds(s_12681_jpg, commercial).

sample(s_15228_jpg).
holds(s_15228_jpg, building).
holds(s_15228_jpg, feature).
holds(s_15228_jpg, hotel).
holds(s_15228_jpg, door).
holds(s_15228_jpg, awning).
holds(s_15228_jpg, billboard).
holds(s_15228_jpg, porch).
holds(s_15228_jpg, sign).
holds(s_15228_jpg, tiledrooftop).
holds(s_15228_jpg, pipe).
holds(s_15228_jpg, machine).
holds(s_15228_jpg, commercial).

sample(s_5336_jpg).
holds(s_5336_jpg, building).
holds(s_5336_jpg, feature).
holds(s_5336_jpg, suburban).
holds(s_5336_jpg, door).
holds(s_5336_jpg, window).
holds(s_5336_jpg, awning).
holds(s_5336_jpg, porch).
holds(s_5336_jpg, table).
holds(s_5336_jpg, tiledrooftop).
holds(s_5336_jpg, vendingmachine).
holds(s_5336_jpg, wallsign).
holds(s_5336_jpg, statue).
holds(s_5336_jpg, pipe).
holds(s_5336_jpg, car).
holds(s_5336_jpg, residential).

sample(s_12783_jpg).
holds(s_12783_jpg, building).
holds(s_12783_jpg, feature).
holds(s_12783_jpg, hotel).
holds(s_12783_jpg, door).
holds(s_12783_jpg, awning).
holds(s_12783_jpg, billboard).
holds(s_12783_jpg, porch).
holds(s_12783_jpg, tiledrooftop).
holds(s_12783_jpg, statue).
holds(s_12783_jpg, chimney).
holds(s_12783_jpg, pipe).
holds(s_12783_jpg, machine).
holds(s_12783_jpg, truck).
holds(s_12783_jpg, commercial).

sample(s_544_jpg).
holds(s_544_jpg, building).
holds(s_544_jpg, feature).
holds(s_544_jpg, constructionsite).
holds(s_544_jpg, awning).
holds(s_544_jpg, billboard).
holds(s_544_jpg, porch).
holds(s_544_jpg, tiledrooftop).
holds(s_544_jpg, vendingmachine).
holds(s_544_jpg, wallsign).
holds(s_544_jpg, chimney).
holds(s_544_jpg, pipe).
holds(s_544_jpg, machine).
holds(s_544_jpg, industrial).

sample(s_15584_jpg).
holds(s_15584_jpg, building).
holds(s_15584_jpg, feature).
holds(s_15584_jpg, suburban).
holds(s_15584_jpg, door).
holds(s_15584_jpg, window).
holds(s_15584_jpg, awning).
holds(s_15584_jpg, porch).
holds(s_15584_jpg, table).
holds(s_15584_jpg, tiledrooftop).
holds(s_15584_jpg, vendingmachine).
holds(s_15584_jpg, wallsign).
holds(s_15584_jpg, statue).
holds(s_15584_jpg, pipe).
holds(s_15584_jpg, residential).

sample(s_10409_jpg).
holds(s_10409_jpg, building).
holds(s_10409_jpg, feature).
holds(s_10409_jpg, suburban).
holds(s_10409_jpg, door).
holds(s_10409_jpg, window).
holds(s_10409_jpg, awning).
holds(s_10409_jpg, table).
holds(s_10409_jpg, tiledrooftop).
holds(s_10409_jpg, vendingmachine).
holds(s_10409_jpg, wallsign).
holds(s_10409_jpg, statue).
holds(s_10409_jpg, pipe).
holds(s_10409_jpg, car).
holds(s_10409_jpg, residential).

sample(s_15615_jpg).
holds(s_15615_jpg, building).
holds(s_15615_jpg, feature).
holds(s_15615_jpg, hotel).
holds(s_15615_jpg, door).
holds(s_15615_jpg, awning).
holds(s_15615_jpg, porch).
holds(s_15615_jpg, sign).
holds(s_15615_jpg, tiledrooftop).
holds(s_15615_jpg, statue).
holds(s_15615_jpg, pipe).
holds(s_15615_jpg, machine).
holds(s_15615_jpg, commercial).

sample(s_3540_jpg).
holds(s_3540_jpg, building).
holds(s_3540_jpg, feature).
holds(s_3540_jpg, hotel).
holds(s_3540_jpg, door).
holds(s_3540_jpg, awning).
holds(s_3540_jpg, porch).
holds(s_3540_jpg, sign).
holds(s_3540_jpg, tiledrooftop).
holds(s_3540_jpg, pipe).
holds(s_3540_jpg, machine).
holds(s_3540_jpg, commercial).

sample(s_8817_jpg).
holds(s_8817_jpg, building).
holds(s_8817_jpg, feature).
holds(s_8817_jpg, hotel).
holds(s_8817_jpg, door).
holds(s_8817_jpg, window).
holds(s_8817_jpg, awning).
holds(s_8817_jpg, porch).
holds(s_8817_jpg, tiledrooftop).
holds(s_8817_jpg, vendingmachine).
holds(s_8817_jpg, statue).
holds(s_8817_jpg, machine).
holds(s_8817_jpg, commercial).

sample(s_2695_jpg).
holds(s_2695_jpg, building).
holds(s_2695_jpg, feature).
holds(s_2695_jpg, constructionsite).
holds(s_2695_jpg, door).
holds(s_2695_jpg, awning).
holds(s_2695_jpg, billboard).
holds(s_2695_jpg, porch).
holds(s_2695_jpg, tiledrooftop).
holds(s_2695_jpg, vendingmachine).
holds(s_2695_jpg, wallsign).
holds(s_2695_jpg, chimney).
holds(s_2695_jpg, pipe).
holds(s_2695_jpg, machine).
holds(s_2695_jpg, industrial).

sample(s_14720_jpg).
holds(s_14720_jpg, building).
holds(s_14720_jpg, feature).
holds(s_14720_jpg, suburban).
holds(s_14720_jpg, door).
holds(s_14720_jpg, window).
holds(s_14720_jpg, awning).
holds(s_14720_jpg, porch).
holds(s_14720_jpg, table).
holds(s_14720_jpg, tiledrooftop).
holds(s_14720_jpg, vendingmachine).
holds(s_14720_jpg, wallsign).
holds(s_14720_jpg, statue).
holds(s_14720_jpg, residential).

sample(s_13439_jpg).
holds(s_13439_jpg, building).
holds(s_13439_jpg, feature).
holds(s_13439_jpg, suburban).
holds(s_13439_jpg, door).
holds(s_13439_jpg, awning).
holds(s_13439_jpg, porch).
holds(s_13439_jpg, table).
holds(s_13439_jpg, tiledrooftop).
holds(s_13439_jpg, vendingmachine).
holds(s_13439_jpg, wallsign).
holds(s_13439_jpg, statue).
holds(s_13439_jpg, chimney).
holds(s_13439_jpg, pipe).
holds(s_13439_jpg, truck).
holds(s_13439_jpg, car).
holds(s_13439_jpg, residential).

sample(s_10219_jpg).
holds(s_10219_jpg, building).
holds(s_10219_jpg, feature).
holds(s_10219_jpg, constructionsite).
holds(s_10219_jpg, awning).
holds(s_10219_jpg, billboard).
holds(s_10219_jpg, porch).
holds(s_10219_jpg, tiledrooftop).
holds(s_10219_jpg, wallsign).
holds(s_10219_jpg, chimney).
holds(s_10219_jpg, pipe).
holds(s_10219_jpg, machine).
holds(s_10219_jpg, industrial).

sample(s_3896_jpg).
holds(s_3896_jpg, building).
holds(s_3896_jpg, feature).
holds(s_3896_jpg, suburban).
holds(s_3896_jpg, door).
holds(s_3896_jpg, window).
holds(s_3896_jpg, awning).
holds(s_3896_jpg, porch).
holds(s_3896_jpg, tiledrooftop).
holds(s_3896_jpg, vendingmachine).
holds(s_3896_jpg, wallsign).
holds(s_3896_jpg, statue).
holds(s_3896_jpg, pipe).
holds(s_3896_jpg, residential).

sample(s_4174_jpg).
holds(s_4174_jpg, building).
holds(s_4174_jpg, feature).
holds(s_4174_jpg, constructionsite).
holds(s_4174_jpg, awning).
holds(s_4174_jpg, billboard).
holds(s_4174_jpg, porch).
holds(s_4174_jpg, tiledrooftop).
holds(s_4174_jpg, wallsign).
holds(s_4174_jpg, chimney).
holds(s_4174_jpg, pipe).
holds(s_4174_jpg, machine).
holds(s_4174_jpg, industrial).

sample(s_2968_jpg).
holds(s_2968_jpg, building).
holds(s_2968_jpg, feature).
holds(s_2968_jpg, constructionsite).
holds(s_2968_jpg, door).
holds(s_2968_jpg, awning).
holds(s_2968_jpg, billboard).
holds(s_2968_jpg, porch).
holds(s_2968_jpg, tiledrooftop).
holds(s_2968_jpg, vendingmachine).
holds(s_2968_jpg, wallsign).
holds(s_2968_jpg, statue).
holds(s_2968_jpg, chimney).
holds(s_2968_jpg, pipe).
holds(s_2968_jpg, machine).
holds(s_2968_jpg, industrial).

sample(s_2468_jpg).
holds(s_2468_jpg, building).
holds(s_2468_jpg, feature).
holds(s_2468_jpg, suburban).
holds(s_2468_jpg, door).
holds(s_2468_jpg, window).
holds(s_2468_jpg, awning).
holds(s_2468_jpg, table).
holds(s_2468_jpg, tiledrooftop).
holds(s_2468_jpg, vendingmachine).
holds(s_2468_jpg, wallsign).
holds(s_2468_jpg, statue).
holds(s_2468_jpg, pipe).
holds(s_2468_jpg, car).
holds(s_2468_jpg, residential).

sample(s_4436_jpg).
holds(s_4436_jpg, building).
holds(s_4436_jpg, feature).
holds(s_4436_jpg, suburban).
holds(s_4436_jpg, door).
holds(s_4436_jpg, window).
holds(s_4436_jpg, awning).
holds(s_4436_jpg, porch).
holds(s_4436_jpg, tiledrooftop).
holds(s_4436_jpg, vendingmachine).
holds(s_4436_jpg, wallsign).
holds(s_4436_jpg, statue).
holds(s_4436_jpg, pipe).
holds(s_4436_jpg, car).
holds(s_4436_jpg, residential).

sample(s_11842_jpg).
holds(s_11842_jpg, building).
holds(s_11842_jpg, feature).
holds(s_11842_jpg, constructionsite).
holds(s_11842_jpg, awning).
holds(s_11842_jpg, billboard).
holds(s_11842_jpg, porch).
holds(s_11842_jpg, tiledrooftop).
holds(s_11842_jpg, wallsign).
holds(s_11842_jpg, chimney).
holds(s_11842_jpg, pipe).
holds(s_11842_jpg, machine).
holds(s_11842_jpg, industrial).

sample(s_10259_jpg).
holds(s_10259_jpg, building).
holds(s_10259_jpg, feature).
holds(s_10259_jpg, suburban).
holds(s_10259_jpg, door).
holds(s_10259_jpg, window).
holds(s_10259_jpg, awning).
holds(s_10259_jpg, porch).
holds(s_10259_jpg, tiledrooftop).
holds(s_10259_jpg, vendingmachine).
holds(s_10259_jpg, wallsign).
holds(s_10259_jpg, statue).
holds(s_10259_jpg, residential).

sample(s_4649_jpg).
holds(s_4649_jpg, building).
holds(s_4649_jpg, feature).
holds(s_4649_jpg, suburban).
holds(s_4649_jpg, door).
holds(s_4649_jpg, awning).
holds(s_4649_jpg, table).
holds(s_4649_jpg, vendingmachine).
holds(s_4649_jpg, wallsign).
holds(s_4649_jpg, statue).
holds(s_4649_jpg, chimney).
holds(s_4649_jpg, pipe).
holds(s_4649_jpg, truck).
holds(s_4649_jpg, car).
holds(s_4649_jpg, residential).

sample(s_7236_jpg).
holds(s_7236_jpg, building).
holds(s_7236_jpg, feature).
holds(s_7236_jpg, hotel).
holds(s_7236_jpg, door).
holds(s_7236_jpg, awning).
holds(s_7236_jpg, billboard).
holds(s_7236_jpg, porch).
holds(s_7236_jpg, sign).
holds(s_7236_jpg, tiledrooftop).
holds(s_7236_jpg, chimney).
holds(s_7236_jpg, pipe).
holds(s_7236_jpg, machine).
holds(s_7236_jpg, commercial).

sample(s_10689_jpg).
holds(s_10689_jpg, building).
holds(s_10689_jpg, feature).
holds(s_10689_jpg, hotel).
holds(s_10689_jpg, door).
holds(s_10689_jpg, awning).
holds(s_10689_jpg, billboard).
holds(s_10689_jpg, porch).
holds(s_10689_jpg, sign).
holds(s_10689_jpg, tiledrooftop).
holds(s_10689_jpg, chimney).
holds(s_10689_jpg, pipe).
holds(s_10689_jpg, machine).
holds(s_10689_jpg, truck).
holds(s_10689_jpg, commercial).

sample(s_14912_jpg).
holds(s_14912_jpg, building).
holds(s_14912_jpg, feature).
holds(s_14912_jpg, suburban).
holds(s_14912_jpg, door).
holds(s_14912_jpg, window).
holds(s_14912_jpg, awning).
holds(s_14912_jpg, porch).
holds(s_14912_jpg, tiledrooftop).
holds(s_14912_jpg, vendingmachine).
holds(s_14912_jpg, wallsign).
holds(s_14912_jpg, statue).
holds(s_14912_jpg, pipe).
holds(s_14912_jpg, residential).

sample(s_6667_jpg).
holds(s_6667_jpg, building).
holds(s_6667_jpg, feature).
holds(s_6667_jpg, constructionsite).
holds(s_6667_jpg, awning).
holds(s_6667_jpg, billboard).
holds(s_6667_jpg, porch).
holds(s_6667_jpg, tiledrooftop).
holds(s_6667_jpg, wallsign).
holds(s_6667_jpg, chimney).
holds(s_6667_jpg, pipe).
holds(s_6667_jpg, machine).
holds(s_6667_jpg, industrial).

sample(s_10763_jpg).
holds(s_10763_jpg, building).
holds(s_10763_jpg, feature).
holds(s_10763_jpg, suburban).
holds(s_10763_jpg, door).
holds(s_10763_jpg, window).
holds(s_10763_jpg, awning).
holds(s_10763_jpg, porch).
holds(s_10763_jpg, tiledrooftop).
holds(s_10763_jpg, vendingmachine).
holds(s_10763_jpg, statue).
holds(s_10763_jpg, residential).

sample(s_14534_jpg).
holds(s_14534_jpg, building).
holds(s_14534_jpg, feature).
holds(s_14534_jpg, suburban).
holds(s_14534_jpg, door).
holds(s_14534_jpg, window).
holds(s_14534_jpg, awning).
holds(s_14534_jpg, porch).
holds(s_14534_jpg, table).
holds(s_14534_jpg, tiledrooftop).
holds(s_14534_jpg, vendingmachine).
holds(s_14534_jpg, wallsign).
holds(s_14534_jpg, statue).
holds(s_14534_jpg, pipe).
holds(s_14534_jpg, truck).
holds(s_14534_jpg, car).
holds(s_14534_jpg, residential).

sample(s_11976_jpg).
holds(s_11976_jpg, building).
holds(s_11976_jpg, feature).
holds(s_11976_jpg, hotel).
holds(s_11976_jpg, door).
holds(s_11976_jpg, awning).
holds(s_11976_jpg, porch).
holds(s_11976_jpg, tiledrooftop).
holds(s_11976_jpg, statue).
holds(s_11976_jpg, chimney).
holds(s_11976_jpg, machine).
holds(s_11976_jpg, commercial).

sample(s_2085_jpg).
holds(s_2085_jpg, building).
holds(s_2085_jpg, feature).
holds(s_2085_jpg, hotel).
holds(s_2085_jpg, door).
holds(s_2085_jpg, awning).
holds(s_2085_jpg, billboard).
holds(s_2085_jpg, porch).
holds(s_2085_jpg, sign).
holds(s_2085_jpg, tiledrooftop).
holds(s_2085_jpg, chimney).
holds(s_2085_jpg, pipe).
holds(s_2085_jpg, machine).
holds(s_2085_jpg, commercial).

sample(s_13144_jpg).
holds(s_13144_jpg, building).
holds(s_13144_jpg, feature).
holds(s_13144_jpg, constructionsite).
holds(s_13144_jpg, awning).
holds(s_13144_jpg, billboard).
holds(s_13144_jpg, porch).
holds(s_13144_jpg, tiledrooftop).
holds(s_13144_jpg, wallsign).
holds(s_13144_jpg, chimney).
holds(s_13144_jpg, pipe).
holds(s_13144_jpg, machine).
holds(s_13144_jpg, industrial).

sample(s_8031_jpg).
holds(s_8031_jpg, building).
holds(s_8031_jpg, feature).
holds(s_8031_jpg, door).
holds(s_8031_jpg, awning).
holds(s_8031_jpg, billboard).
holds(s_8031_jpg, porch).
holds(s_8031_jpg, tiledrooftop).
holds(s_8031_jpg, vendingmachine).
holds(s_8031_jpg, wallsign).
holds(s_8031_jpg, statue).
holds(s_8031_jpg, chimney).
holds(s_8031_jpg, pipe).
holds(s_8031_jpg, machine).
holds(s_8031_jpg, truck).

sample(s_12200_jpg).
holds(s_12200_jpg, building).
holds(s_12200_jpg, feature).
holds(s_12200_jpg, suburban).
holds(s_12200_jpg, door).
holds(s_12200_jpg, window).
holds(s_12200_jpg, awning).
holds(s_12200_jpg, porch).
holds(s_12200_jpg, tiledrooftop).
holds(s_12200_jpg, vendingmachine).
holds(s_12200_jpg, wallsign).
holds(s_12200_jpg, statue).
holds(s_12200_jpg, pipe).
holds(s_12200_jpg, residential).

sample(s_5239_jpg).
holds(s_5239_jpg, building).
holds(s_5239_jpg, feature).
holds(s_5239_jpg, constructionsite).
holds(s_5239_jpg, awning).
holds(s_5239_jpg, billboard).
holds(s_5239_jpg, porch).
holds(s_5239_jpg, tiledrooftop).
holds(s_5239_jpg, wallsign).
holds(s_5239_jpg, statue).
holds(s_5239_jpg, chimney).
holds(s_5239_jpg, pipe).
holds(s_5239_jpg, machine).
holds(s_5239_jpg, industrial).

sample(s_5578_jpg).
holds(s_5578_jpg, building).
holds(s_5578_jpg, feature).
holds(s_5578_jpg, constructionsite).
holds(s_5578_jpg, awning).
holds(s_5578_jpg, billboard).
holds(s_5578_jpg, porch).
holds(s_5578_jpg, tiledrooftop).
holds(s_5578_jpg, chimney).
holds(s_5578_jpg, machine).
holds(s_5578_jpg, industrial).

sample(s_8709_jpg).
holds(s_8709_jpg, building).
holds(s_8709_jpg, feature).
holds(s_8709_jpg, hotel).
holds(s_8709_jpg, door).
holds(s_8709_jpg, awning).
holds(s_8709_jpg, porch).
holds(s_8709_jpg, tiledrooftop).
holds(s_8709_jpg, statue).
holds(s_8709_jpg, chimney).
holds(s_8709_jpg, machine).
holds(s_8709_jpg, commercial).

sample(s_7609_jpg).
holds(s_7609_jpg, building).
holds(s_7609_jpg, feature).
holds(s_7609_jpg, constructionsite).
holds(s_7609_jpg, awning).
holds(s_7609_jpg, billboard).
holds(s_7609_jpg, porch).
holds(s_7609_jpg, tiledrooftop).
holds(s_7609_jpg, wallsign).
holds(s_7609_jpg, chimney).
holds(s_7609_jpg, pipe).
holds(s_7609_jpg, machine).
holds(s_7609_jpg, industrial).

sample(s_7729_jpg).
holds(s_7729_jpg, building).
holds(s_7729_jpg, feature).
holds(s_7729_jpg, constructionsite).
holds(s_7729_jpg, door).
holds(s_7729_jpg, awning).
holds(s_7729_jpg, billboard).
holds(s_7729_jpg, porch).
holds(s_7729_jpg, tiledrooftop).
holds(s_7729_jpg, vendingmachine).
holds(s_7729_jpg, wallsign).
holds(s_7729_jpg, statue).
holds(s_7729_jpg, chimney).
holds(s_7729_jpg, pipe).
holds(s_7729_jpg, machine).
holds(s_7729_jpg, industrial).

sample(s_13602_jpg).
holds(s_13602_jpg, building).
holds(s_13602_jpg, feature).
holds(s_13602_jpg, hotel).
holds(s_13602_jpg, door).
holds(s_13602_jpg, awning).
holds(s_13602_jpg, billboard).
holds(s_13602_jpg, porch).
holds(s_13602_jpg, sign).
holds(s_13602_jpg, tiledrooftop).
holds(s_13602_jpg, pipe).
holds(s_13602_jpg, machine).
holds(s_13602_jpg, commercial).

sample(s_625_jpg).
holds(s_625_jpg, building).
holds(s_625_jpg, feature).
holds(s_625_jpg, constructionsite).
holds(s_625_jpg, door).
holds(s_625_jpg, awning).
holds(s_625_jpg, billboard).
holds(s_625_jpg, porch).
holds(s_625_jpg, tiledrooftop).
holds(s_625_jpg, wallsign).
holds(s_625_jpg, statue).
holds(s_625_jpg, chimney).
holds(s_625_jpg, pipe).
holds(s_625_jpg, machine).
holds(s_625_jpg, industrial).

sample(s_3653_jpg).
holds(s_3653_jpg, building).
holds(s_3653_jpg, feature).
holds(s_3653_jpg, suburban).
holds(s_3653_jpg, door).
holds(s_3653_jpg, awning).
holds(s_3653_jpg, porch).
holds(s_3653_jpg, tiledrooftop).
holds(s_3653_jpg, vendingmachine).
holds(s_3653_jpg, wallsign).
holds(s_3653_jpg, statue).
holds(s_3653_jpg, chimney).
holds(s_3653_jpg, pipe).
holds(s_3653_jpg, truck).
holds(s_3653_jpg, car).
holds(s_3653_jpg, residential).

sample(s_3624_jpg).
holds(s_3624_jpg, building).
holds(s_3624_jpg, feature).
holds(s_3624_jpg, hotel).
holds(s_3624_jpg, door).
holds(s_3624_jpg, awning).
holds(s_3624_jpg, porch).
holds(s_3624_jpg, sign).
holds(s_3624_jpg, tiledrooftop).
holds(s_3624_jpg, statue).
holds(s_3624_jpg, chimney).
holds(s_3624_jpg, machine).
holds(s_3624_jpg, commercial).

sample(s_5795_jpg).
holds(s_5795_jpg, building).
holds(s_5795_jpg, feature).
holds(s_5795_jpg, suburban).
holds(s_5795_jpg, door).
holds(s_5795_jpg, awning).
holds(s_5795_jpg, table).
holds(s_5795_jpg, vendingmachine).
holds(s_5795_jpg, wallsign).
holds(s_5795_jpg, statue).
holds(s_5795_jpg, chimney).
holds(s_5795_jpg, pipe).
holds(s_5795_jpg, truck).
holds(s_5795_jpg, car).
holds(s_5795_jpg, residential).

sample(s_3818_jpg).
holds(s_3818_jpg, building).
holds(s_3818_jpg, feature).
holds(s_3818_jpg, suburban).
holds(s_3818_jpg, door).
holds(s_3818_jpg, window).
holds(s_3818_jpg, awning).
holds(s_3818_jpg, porch).
holds(s_3818_jpg, tiledrooftop).
holds(s_3818_jpg, vendingmachine).
holds(s_3818_jpg, wallsign).
holds(s_3818_jpg, statue).
holds(s_3818_jpg, residential).

sample(s_12358_jpg).
holds(s_12358_jpg, building).
holds(s_12358_jpg, feature).
holds(s_12358_jpg, constructionsite).
holds(s_12358_jpg, awning).
holds(s_12358_jpg, billboard).
holds(s_12358_jpg, porch).
holds(s_12358_jpg, tiledrooftop).
holds(s_12358_jpg, wallsign).
holds(s_12358_jpg, chimney).
holds(s_12358_jpg, pipe).
holds(s_12358_jpg, machine).
holds(s_12358_jpg, industrial).

sample(s_540_jpg).
holds(s_540_jpg, building).
holds(s_540_jpg, feature).
holds(s_540_jpg, hotel).
holds(s_540_jpg, door).
holds(s_540_jpg, awning).
holds(s_540_jpg, porch).
holds(s_540_jpg, tiledrooftop).
holds(s_540_jpg, statue).
holds(s_540_jpg, chimney).
holds(s_540_jpg, pipe).
holds(s_540_jpg, machine).
holds(s_540_jpg, commercial).

sample(s_7357_jpg).
holds(s_7357_jpg, building).
holds(s_7357_jpg, feature).
holds(s_7357_jpg, constructionsite).
holds(s_7357_jpg, door).
holds(s_7357_jpg, awning).
holds(s_7357_jpg, billboard).
holds(s_7357_jpg, porch).
holds(s_7357_jpg, vendingmachine).
holds(s_7357_jpg, wallsign).
holds(s_7357_jpg, statue).
holds(s_7357_jpg, chimney).
holds(s_7357_jpg, pipe).
holds(s_7357_jpg, machine).
holds(s_7357_jpg, truck).
holds(s_7357_jpg, industrial).

sample(s_3022_jpg).
holds(s_3022_jpg, building).
holds(s_3022_jpg, feature).
holds(s_3022_jpg, constructionsite).
holds(s_3022_jpg, awning).
holds(s_3022_jpg, billboard).
holds(s_3022_jpg, porch).
holds(s_3022_jpg, tiledrooftop).
holds(s_3022_jpg, wallsign).
holds(s_3022_jpg, chimney).
holds(s_3022_jpg, pipe).
holds(s_3022_jpg, machine).
holds(s_3022_jpg, industrial).

sample(s_15449_jpg).
holds(s_15449_jpg, building).
holds(s_15449_jpg, feature).
holds(s_15449_jpg, suburban).
holds(s_15449_jpg, door).
holds(s_15449_jpg, window).
holds(s_15449_jpg, awning).
holds(s_15449_jpg, porch).
holds(s_15449_jpg, tiledrooftop).
holds(s_15449_jpg, vendingmachine).
holds(s_15449_jpg, wallsign).
holds(s_15449_jpg, statue).
holds(s_15449_jpg, residential).

sample(s_8645_jpg).
holds(s_8645_jpg, building).
holds(s_8645_jpg, feature).
holds(s_8645_jpg, suburban).
holds(s_8645_jpg, door).
holds(s_8645_jpg, window).
holds(s_8645_jpg, awning).
holds(s_8645_jpg, porch).
holds(s_8645_jpg, table).
holds(s_8645_jpg, tiledrooftop).
holds(s_8645_jpg, vendingmachine).
holds(s_8645_jpg, wallsign).
holds(s_8645_jpg, statue).
holds(s_8645_jpg, pipe).
holds(s_8645_jpg, truck).
holds(s_8645_jpg, car).
holds(s_8645_jpg, residential).

sample(s_8809_jpg).
holds(s_8809_jpg, building).
holds(s_8809_jpg, feature).
holds(s_8809_jpg, constructionsite).
holds(s_8809_jpg, door).
holds(s_8809_jpg, awning).
holds(s_8809_jpg, billboard).
holds(s_8809_jpg, porch).
holds(s_8809_jpg, tiledrooftop).
holds(s_8809_jpg, vendingmachine).
holds(s_8809_jpg, wallsign).
holds(s_8809_jpg, statue).
holds(s_8809_jpg, chimney).
holds(s_8809_jpg, pipe).
holds(s_8809_jpg, machine).
holds(s_8809_jpg, industrial).

sample(s_4798_jpg).
holds(s_4798_jpg, building).
holds(s_4798_jpg, feature).
holds(s_4798_jpg, constructionsite).
holds(s_4798_jpg, awning).
holds(s_4798_jpg, billboard).
holds(s_4798_jpg, porch).
holds(s_4798_jpg, tiledrooftop).
holds(s_4798_jpg, wallsign).
holds(s_4798_jpg, chimney).
holds(s_4798_jpg, pipe).
holds(s_4798_jpg, machine).
holds(s_4798_jpg, industrial).

sample(s_5644_jpg).
holds(s_5644_jpg, building).
holds(s_5644_jpg, feature).
holds(s_5644_jpg, constructionsite).
holds(s_5644_jpg, door).
holds(s_5644_jpg, awning).
holds(s_5644_jpg, billboard).
holds(s_5644_jpg, porch).
holds(s_5644_jpg, tiledrooftop).
holds(s_5644_jpg, vendingmachine).
holds(s_5644_jpg, wallsign).
holds(s_5644_jpg, chimney).
holds(s_5644_jpg, pipe).
holds(s_5644_jpg, machine).
holds(s_5644_jpg, industrial).

sample(s_423_jpg).
holds(s_423_jpg, building).
holds(s_423_jpg, feature).
holds(s_423_jpg, hotel).
holds(s_423_jpg, door).
holds(s_423_jpg, awning).
holds(s_423_jpg, billboard).
holds(s_423_jpg, porch).
holds(s_423_jpg, sign).
holds(s_423_jpg, tiledrooftop).
holds(s_423_jpg, chimney).
holds(s_423_jpg, pipe).
holds(s_423_jpg, machine).
holds(s_423_jpg, commercial).

sample(s_12723_jpg).
holds(s_12723_jpg, building).
holds(s_12723_jpg, feature).
holds(s_12723_jpg, hotel).
holds(s_12723_jpg, door).
holds(s_12723_jpg, awning).
holds(s_12723_jpg, billboard).
holds(s_12723_jpg, porch).
holds(s_12723_jpg, sign).
holds(s_12723_jpg, tiledrooftop).
holds(s_12723_jpg, statue).
holds(s_12723_jpg, chimney).
holds(s_12723_jpg, pipe).
holds(s_12723_jpg, machine).
holds(s_12723_jpg, truck).
holds(s_12723_jpg, commercial).

sample(s_7926_jpg).
holds(s_7926_jpg, building).
holds(s_7926_jpg, feature).
holds(s_7926_jpg, hotel).
holds(s_7926_jpg, door).
holds(s_7926_jpg, awning).
holds(s_7926_jpg, billboard).
holds(s_7926_jpg, porch).
holds(s_7926_jpg, sign).
holds(s_7926_jpg, tiledrooftop).
holds(s_7926_jpg, pipe).
holds(s_7926_jpg, machine).
holds(s_7926_jpg, commercial).

sample(s_14107_jpg).
holds(s_14107_jpg, building).
holds(s_14107_jpg, feature).
holds(s_14107_jpg, constructionsite).
holds(s_14107_jpg, door).
holds(s_14107_jpg, awning).
holds(s_14107_jpg, billboard).
holds(s_14107_jpg, porch).
holds(s_14107_jpg, tiledrooftop).
holds(s_14107_jpg, wallsign).
holds(s_14107_jpg, chimney).
holds(s_14107_jpg, pipe).
holds(s_14107_jpg, machine).
holds(s_14107_jpg, industrial).

sample(s_10714_jpg).
holds(s_10714_jpg, building).
holds(s_10714_jpg, feature).
holds(s_10714_jpg, constructionsite).
holds(s_10714_jpg, door).
holds(s_10714_jpg, awning).
holds(s_10714_jpg, billboard).
holds(s_10714_jpg, porch).
holds(s_10714_jpg, tiledrooftop).
holds(s_10714_jpg, vendingmachine).
holds(s_10714_jpg, wallsign).
holds(s_10714_jpg, statue).
holds(s_10714_jpg, chimney).
holds(s_10714_jpg, pipe).
holds(s_10714_jpg, machine).
holds(s_10714_jpg, industrial).

sample(s_14812_jpg).
holds(s_14812_jpg, building).
holds(s_14812_jpg, feature).
holds(s_14812_jpg, constructionsite).
holds(s_14812_jpg, awning).
holds(s_14812_jpg, billboard).
holds(s_14812_jpg, porch).
holds(s_14812_jpg, tiledrooftop).
holds(s_14812_jpg, wallsign).
holds(s_14812_jpg, chimney).
holds(s_14812_jpg, pipe).
holds(s_14812_jpg, machine).
holds(s_14812_jpg, industrial).

sample(s_15298_jpg).
holds(s_15298_jpg, building).
holds(s_15298_jpg, feature).
holds(s_15298_jpg, constructionsite).
holds(s_15298_jpg, awning).
holds(s_15298_jpg, billboard).
holds(s_15298_jpg, porch).
holds(s_15298_jpg, tiledrooftop).
holds(s_15298_jpg, wallsign).
holds(s_15298_jpg, chimney).
holds(s_15298_jpg, machine).
holds(s_15298_jpg, industrial).

sample(s_3566_jpg).
holds(s_3566_jpg, building).
holds(s_3566_jpg, feature).
holds(s_3566_jpg, suburban).
holds(s_3566_jpg, door).
holds(s_3566_jpg, window).
holds(s_3566_jpg, awning).
holds(s_3566_jpg, porch).
holds(s_3566_jpg, tiledrooftop).
holds(s_3566_jpg, vendingmachine).
holds(s_3566_jpg, wallsign).
holds(s_3566_jpg, statue).
holds(s_3566_jpg, pipe).
holds(s_3566_jpg, residential).

sample(s_4755_jpg).
holds(s_4755_jpg, building).
holds(s_4755_jpg, feature).
holds(s_4755_jpg, hotel).
holds(s_4755_jpg, door).
holds(s_4755_jpg, awning).
holds(s_4755_jpg, billboard).
holds(s_4755_jpg, porch).
holds(s_4755_jpg, tiledrooftop).
holds(s_4755_jpg, statue).
holds(s_4755_jpg, chimney).
holds(s_4755_jpg, machine).
holds(s_4755_jpg, commercial).

sample(s_12097_jpg).
holds(s_12097_jpg, building).
holds(s_12097_jpg, feature).
holds(s_12097_jpg, constructionsite).
holds(s_12097_jpg, awning).
holds(s_12097_jpg, billboard).
holds(s_12097_jpg, porch).
holds(s_12097_jpg, tiledrooftop).
holds(s_12097_jpg, vendingmachine).
holds(s_12097_jpg, wallsign).
holds(s_12097_jpg, statue).
holds(s_12097_jpg, chimney).
holds(s_12097_jpg, pipe).
holds(s_12097_jpg, machine).
holds(s_12097_jpg, industrial).

sample(s_12009_jpg).
holds(s_12009_jpg, building).
holds(s_12009_jpg, feature).
holds(s_12009_jpg, hotel).
holds(s_12009_jpg, door).
holds(s_12009_jpg, awning).
holds(s_12009_jpg, billboard).
holds(s_12009_jpg, porch).
holds(s_12009_jpg, sign).
holds(s_12009_jpg, tiledrooftop).
holds(s_12009_jpg, chimney).
holds(s_12009_jpg, pipe).
holds(s_12009_jpg, machine).
holds(s_12009_jpg, commercial).

sample(s_108_jpg).
holds(s_108_jpg, building).
holds(s_108_jpg, feature).
holds(s_108_jpg, hotel).
holds(s_108_jpg, door).
holds(s_108_jpg, awning).
holds(s_108_jpg, billboard).
holds(s_108_jpg, porch).
holds(s_108_jpg, sign).
holds(s_108_jpg, tiledrooftop).
holds(s_108_jpg, statue).
holds(s_108_jpg, chimney).
holds(s_108_jpg, pipe).
holds(s_108_jpg, machine).
holds(s_108_jpg, truck).
holds(s_108_jpg, commercial).

sample(s_9541_jpg).
holds(s_9541_jpg, building).
holds(s_9541_jpg, feature).
holds(s_9541_jpg, constructionsite).
holds(s_9541_jpg, awning).
holds(s_9541_jpg, billboard).
holds(s_9541_jpg, porch).
holds(s_9541_jpg, tiledrooftop).
holds(s_9541_jpg, wallsign).
holds(s_9541_jpg, chimney).
holds(s_9541_jpg, pipe).
holds(s_9541_jpg, machine).
holds(s_9541_jpg, industrial).

sample(s_7400_jpg).
holds(s_7400_jpg, building).
holds(s_7400_jpg, feature).
holds(s_7400_jpg, suburban).
holds(s_7400_jpg, door).
holds(s_7400_jpg, window).
holds(s_7400_jpg, awning).
holds(s_7400_jpg, porch).
holds(s_7400_jpg, tiledrooftop).
holds(s_7400_jpg, vendingmachine).
holds(s_7400_jpg, wallsign).
holds(s_7400_jpg, statue).
holds(s_7400_jpg, residential).

sample(s_12652_jpg).
holds(s_12652_jpg, building).
holds(s_12652_jpg, feature).
holds(s_12652_jpg, constructionsite).
holds(s_12652_jpg, awning).
holds(s_12652_jpg, billboard).
holds(s_12652_jpg, porch).
holds(s_12652_jpg, tiledrooftop).
holds(s_12652_jpg, wallsign).
holds(s_12652_jpg, chimney).
holds(s_12652_jpg, pipe).
holds(s_12652_jpg, machine).
holds(s_12652_jpg, industrial).

sample(s_12106_jpg).
holds(s_12106_jpg, building).
holds(s_12106_jpg, feature).
holds(s_12106_jpg, constructionsite).
holds(s_12106_jpg, awning).
holds(s_12106_jpg, billboard).
holds(s_12106_jpg, porch).
holds(s_12106_jpg, tiledrooftop).
holds(s_12106_jpg, wallsign).
holds(s_12106_jpg, chimney).
holds(s_12106_jpg, pipe).
holds(s_12106_jpg, machine).
holds(s_12106_jpg, industrial).

sample(s_8389_jpg).
holds(s_8389_jpg, building).
holds(s_8389_jpg, feature).
holds(s_8389_jpg, constructionsite).
holds(s_8389_jpg, awning).
holds(s_8389_jpg, billboard).
holds(s_8389_jpg, porch).
holds(s_8389_jpg, tiledrooftop).
holds(s_8389_jpg, wallsign).
holds(s_8389_jpg, chimney).
holds(s_8389_jpg, pipe).
holds(s_8389_jpg, machine).
holds(s_8389_jpg, industrial).

sample(s_8938_jpg).
holds(s_8938_jpg, building).
holds(s_8938_jpg, feature).
holds(s_8938_jpg, constructionsite).
holds(s_8938_jpg, awning).
holds(s_8938_jpg, billboard).
holds(s_8938_jpg, porch).
holds(s_8938_jpg, tiledrooftop).
holds(s_8938_jpg, wallsign).
holds(s_8938_jpg, statue).
holds(s_8938_jpg, chimney).
holds(s_8938_jpg, pipe).
holds(s_8938_jpg, machine).
holds(s_8938_jpg, industrial).

sample(s_10138_jpg).
holds(s_10138_jpg, building).
holds(s_10138_jpg, feature).
holds(s_10138_jpg, constructionsite).
holds(s_10138_jpg, door).
holds(s_10138_jpg, awning).
holds(s_10138_jpg, billboard).
holds(s_10138_jpg, porch).
holds(s_10138_jpg, tiledrooftop).
holds(s_10138_jpg, wallsign).
holds(s_10138_jpg, chimney).
holds(s_10138_jpg, pipe).
holds(s_10138_jpg, machine).
holds(s_10138_jpg, industrial).

sample(s_12943_jpg).
holds(s_12943_jpg, building).
holds(s_12943_jpg, feature).
holds(s_12943_jpg, constructionsite).
holds(s_12943_jpg, awning).
holds(s_12943_jpg, billboard).
holds(s_12943_jpg, porch).
holds(s_12943_jpg, tiledrooftop).
holds(s_12943_jpg, wallsign).
holds(s_12943_jpg, chimney).
holds(s_12943_jpg, pipe).
holds(s_12943_jpg, machine).
holds(s_12943_jpg, industrial).

sample(s_14825_jpg).
holds(s_14825_jpg, building).
holds(s_14825_jpg, feature).
holds(s_14825_jpg, suburban).
holds(s_14825_jpg, door).
holds(s_14825_jpg, window).
holds(s_14825_jpg, awning).
holds(s_14825_jpg, porch).
holds(s_14825_jpg, table).
holds(s_14825_jpg, tiledrooftop).
holds(s_14825_jpg, vendingmachine).
holds(s_14825_jpg, wallsign).
holds(s_14825_jpg, statue).
holds(s_14825_jpg, pipe).
holds(s_14825_jpg, truck).
holds(s_14825_jpg, car).
holds(s_14825_jpg, residential).

sample(s_1796_jpg).
holds(s_1796_jpg, building).
holds(s_1796_jpg, feature).
holds(s_1796_jpg, suburban).
holds(s_1796_jpg, door).
holds(s_1796_jpg, window).
holds(s_1796_jpg, awning).
holds(s_1796_jpg, table).
holds(s_1796_jpg, tiledrooftop).
holds(s_1796_jpg, vendingmachine).
holds(s_1796_jpg, wallsign).
holds(s_1796_jpg, statue).
holds(s_1796_jpg, pipe).
holds(s_1796_jpg, residential).

sample(s_3752_jpg).
holds(s_3752_jpg, building).
holds(s_3752_jpg, feature).
holds(s_3752_jpg, suburban).
holds(s_3752_jpg, door).
holds(s_3752_jpg, window).
holds(s_3752_jpg, awning).
holds(s_3752_jpg, table).
holds(s_3752_jpg, tiledrooftop).
holds(s_3752_jpg, vendingmachine).
holds(s_3752_jpg, wallsign).
holds(s_3752_jpg, statue).
holds(s_3752_jpg, pipe).
holds(s_3752_jpg, car).
holds(s_3752_jpg, residential).

sample(s_1805_jpg).
holds(s_1805_jpg, building).
holds(s_1805_jpg, feature).
holds(s_1805_jpg, suburban).
holds(s_1805_jpg, door).
holds(s_1805_jpg, awning).
holds(s_1805_jpg, billboard).
holds(s_1805_jpg, porch).
holds(s_1805_jpg, table).
holds(s_1805_jpg, tiledrooftop).
holds(s_1805_jpg, vendingmachine).
holds(s_1805_jpg, wallsign).
holds(s_1805_jpg, statue).
holds(s_1805_jpg, chimney).
holds(s_1805_jpg, pipe).
holds(s_1805_jpg, truck).
holds(s_1805_jpg, car).
holds(s_1805_jpg, residential).

sample(s_11223_jpg).
holds(s_11223_jpg, building).
holds(s_11223_jpg, feature).
holds(s_11223_jpg, hotel).
holds(s_11223_jpg, door).
holds(s_11223_jpg, window).
holds(s_11223_jpg, awning).
holds(s_11223_jpg, porch).
holds(s_11223_jpg, tiledrooftop).
holds(s_11223_jpg, vendingmachine).
holds(s_11223_jpg, statue).
holds(s_11223_jpg, chimney).
holds(s_11223_jpg, machine).
holds(s_11223_jpg, commercial).

sample(s_12709_jpg).
holds(s_12709_jpg, building).
holds(s_12709_jpg, feature).
holds(s_12709_jpg, constructionsite).
holds(s_12709_jpg, awning).
holds(s_12709_jpg, billboard).
holds(s_12709_jpg, porch).
holds(s_12709_jpg, tiledrooftop).
holds(s_12709_jpg, chimney).
holds(s_12709_jpg, machine).
holds(s_12709_jpg, industrial).

sample(s_500_jpg).
holds(s_500_jpg, building).
holds(s_500_jpg, feature).
holds(s_500_jpg, suburban).
holds(s_500_jpg, door).
holds(s_500_jpg, window).
holds(s_500_jpg, awning).
holds(s_500_jpg, porch).
holds(s_500_jpg, table).
holds(s_500_jpg, tiledrooftop).
holds(s_500_jpg, vendingmachine).
holds(s_500_jpg, wallsign).
holds(s_500_jpg, statue).
holds(s_500_jpg, pipe).
holds(s_500_jpg, residential).

sample(s_12153_jpg).
holds(s_12153_jpg, building).
holds(s_12153_jpg, feature).
holds(s_12153_jpg, hotel).
holds(s_12153_jpg, door).
holds(s_12153_jpg, awning).
holds(s_12153_jpg, billboard).
holds(s_12153_jpg, porch).
holds(s_12153_jpg, tiledrooftop).
holds(s_12153_jpg, vendingmachine).
holds(s_12153_jpg, wallsign).
holds(s_12153_jpg, statue).
holds(s_12153_jpg, chimney).
holds(s_12153_jpg, pipe).
holds(s_12153_jpg, machine).
holds(s_12153_jpg, commercial).

sample(s_4874_jpg).
holds(s_4874_jpg, building).
holds(s_4874_jpg, feature).
holds(s_4874_jpg, suburban).
holds(s_4874_jpg, door).
holds(s_4874_jpg, window).
holds(s_4874_jpg, awning).
holds(s_4874_jpg, table).
holds(s_4874_jpg, tiledrooftop).
holds(s_4874_jpg, vendingmachine).
holds(s_4874_jpg, wallsign).
holds(s_4874_jpg, statue).
holds(s_4874_jpg, pipe).
holds(s_4874_jpg, residential).

sample(s_2377_jpg).
holds(s_2377_jpg, building).
holds(s_2377_jpg, feature).
holds(s_2377_jpg, constructionsite).
holds(s_2377_jpg, awning).
holds(s_2377_jpg, billboard).
holds(s_2377_jpg, porch).
holds(s_2377_jpg, tiledrooftop).
holds(s_2377_jpg, wallsign).
holds(s_2377_jpg, chimney).
holds(s_2377_jpg, pipe).
holds(s_2377_jpg, machine).
holds(s_2377_jpg, industrial).

sample(s_5014_jpg).
holds(s_5014_jpg, building).
holds(s_5014_jpg, feature).
holds(s_5014_jpg, constructionsite).
holds(s_5014_jpg, awning).
holds(s_5014_jpg, billboard).
holds(s_5014_jpg, porch).
holds(s_5014_jpg, tiledrooftop).
holds(s_5014_jpg, wallsign).
holds(s_5014_jpg, chimney).
holds(s_5014_jpg, pipe).
holds(s_5014_jpg, machine).
holds(s_5014_jpg, industrial).

sample(s_3318_jpg).
holds(s_3318_jpg, building).
holds(s_3318_jpg, feature).
holds(s_3318_jpg, hotel).
holds(s_3318_jpg, door).
holds(s_3318_jpg, awning).
holds(s_3318_jpg, billboard).
holds(s_3318_jpg, porch).
holds(s_3318_jpg, sign).
holds(s_3318_jpg, tiledrooftop).
holds(s_3318_jpg, pipe).
holds(s_3318_jpg, machine).
holds(s_3318_jpg, commercial).

sample(s_6342_jpg).
holds(s_6342_jpg, building).
holds(s_6342_jpg, feature).
holds(s_6342_jpg, hotel).
holds(s_6342_jpg, door).
holds(s_6342_jpg, awning).
holds(s_6342_jpg, billboard).
holds(s_6342_jpg, porch).
holds(s_6342_jpg, sign).
holds(s_6342_jpg, tiledrooftop).
holds(s_6342_jpg, statue).
holds(s_6342_jpg, chimney).
holds(s_6342_jpg, pipe).
holds(s_6342_jpg, machine).
holds(s_6342_jpg, truck).
holds(s_6342_jpg, commercial).

sample(s_744_jpg).
holds(s_744_jpg, building).
holds(s_744_jpg, feature).
holds(s_744_jpg, hotel).
holds(s_744_jpg, door).
holds(s_744_jpg, awning).
holds(s_744_jpg, porch).
holds(s_744_jpg, sign).
holds(s_744_jpg, tiledrooftop).
holds(s_744_jpg, statue).
holds(s_744_jpg, pipe).
holds(s_744_jpg, machine).
holds(s_744_jpg, commercial).

sample(s_13716_jpg).
holds(s_13716_jpg, building).
holds(s_13716_jpg, feature).
holds(s_13716_jpg, hotel).
holds(s_13716_jpg, door).
holds(s_13716_jpg, awning).
holds(s_13716_jpg, billboard).
holds(s_13716_jpg, porch).
holds(s_13716_jpg, sign).
holds(s_13716_jpg, tiledrooftop).
holds(s_13716_jpg, pipe).
holds(s_13716_jpg, machine).
holds(s_13716_jpg, commercial).

sample(s_4710_jpg).
holds(s_4710_jpg, building).
holds(s_4710_jpg, feature).
holds(s_4710_jpg, hotel).
holds(s_4710_jpg, door).
holds(s_4710_jpg, window).
holds(s_4710_jpg, awning).
holds(s_4710_jpg, porch).
holds(s_4710_jpg, tiledrooftop).
holds(s_4710_jpg, statue).
holds(s_4710_jpg, chimney).
holds(s_4710_jpg, machine).
holds(s_4710_jpg, commercial).

sample(s_8434_jpg).
holds(s_8434_jpg, building).
holds(s_8434_jpg, feature).
holds(s_8434_jpg, constructionsite).
holds(s_8434_jpg, awning).
holds(s_8434_jpg, billboard).
holds(s_8434_jpg, porch).
holds(s_8434_jpg, tiledrooftop).
holds(s_8434_jpg, chimney).
holds(s_8434_jpg, pipe).
holds(s_8434_jpg, machine).
holds(s_8434_jpg, industrial).

sample(s_11323_jpg).
holds(s_11323_jpg, building).
holds(s_11323_jpg, feature).
holds(s_11323_jpg, constructionsite).
holds(s_11323_jpg, awning).
holds(s_11323_jpg, billboard).
holds(s_11323_jpg, porch).
holds(s_11323_jpg, tiledrooftop).
holds(s_11323_jpg, wallsign).
holds(s_11323_jpg, chimney).
holds(s_11323_jpg, pipe).
holds(s_11323_jpg, machine).
holds(s_11323_jpg, industrial).

sample(s_13715_jpg).
holds(s_13715_jpg, building).
holds(s_13715_jpg, feature).
holds(s_13715_jpg, suburban).
holds(s_13715_jpg, door).
holds(s_13715_jpg, window).
holds(s_13715_jpg, awning).
holds(s_13715_jpg, porch).
holds(s_13715_jpg, table).
holds(s_13715_jpg, tiledrooftop).
holds(s_13715_jpg, vendingmachine).
holds(s_13715_jpg, wallsign).
holds(s_13715_jpg, statue).
holds(s_13715_jpg, pipe).
holds(s_13715_jpg, car).
holds(s_13715_jpg, residential).

sample(s_4233_jpg).
holds(s_4233_jpg, building).
holds(s_4233_jpg, feature).
holds(s_4233_jpg, hotel).
holds(s_4233_jpg, door).
holds(s_4233_jpg, awning).
holds(s_4233_jpg, billboard).
holds(s_4233_jpg, porch).
holds(s_4233_jpg, sign).
holds(s_4233_jpg, tiledrooftop).
holds(s_4233_jpg, statue).
holds(s_4233_jpg, chimney).
holds(s_4233_jpg, pipe).
holds(s_4233_jpg, machine).
holds(s_4233_jpg, commercial).

sample(s_1307_jpg).
holds(s_1307_jpg, building).
holds(s_1307_jpg, feature).
holds(s_1307_jpg, suburban).
holds(s_1307_jpg, door).
holds(s_1307_jpg, awning).
holds(s_1307_jpg, billboard).
holds(s_1307_jpg, table).
holds(s_1307_jpg, vendingmachine).
holds(s_1307_jpg, wallsign).
holds(s_1307_jpg, statue).
holds(s_1307_jpg, chimney).
holds(s_1307_jpg, pipe).
holds(s_1307_jpg, truck).
holds(s_1307_jpg, car).
holds(s_1307_jpg, residential).

sample(s_4458_jpg).
holds(s_4458_jpg, building).
holds(s_4458_jpg, feature).
holds(s_4458_jpg, hotel).
holds(s_4458_jpg, door).
holds(s_4458_jpg, awning).
holds(s_4458_jpg, porch).
holds(s_4458_jpg, sign).
holds(s_4458_jpg, tiledrooftop).
holds(s_4458_jpg, statue).
holds(s_4458_jpg, pipe).
holds(s_4458_jpg, machine).
holds(s_4458_jpg, commercial).

sample(s_5715_jpg).
holds(s_5715_jpg, building).
holds(s_5715_jpg, feature).
holds(s_5715_jpg, hotel).
holds(s_5715_jpg, door).
holds(s_5715_jpg, awning).
holds(s_5715_jpg, porch).
holds(s_5715_jpg, tiledrooftop).
holds(s_5715_jpg, statue).
holds(s_5715_jpg, chimney).
holds(s_5715_jpg, pipe).
holds(s_5715_jpg, machine).
holds(s_5715_jpg, truck).
holds(s_5715_jpg, commercial).

sample(s_1617_jpg).
holds(s_1617_jpg, building).
holds(s_1617_jpg, feature).
holds(s_1617_jpg, hotel).
holds(s_1617_jpg, door).
holds(s_1617_jpg, awning).
holds(s_1617_jpg, porch).
holds(s_1617_jpg, tiledrooftop).
holds(s_1617_jpg, statue).
holds(s_1617_jpg, chimney).
holds(s_1617_jpg, pipe).
holds(s_1617_jpg, machine).
holds(s_1617_jpg, truck).
holds(s_1617_jpg, commercial).

sample(s_236_jpg).
holds(s_236_jpg, building).
holds(s_236_jpg, feature).
holds(s_236_jpg, suburban).
holds(s_236_jpg, door).
holds(s_236_jpg, awning).
holds(s_236_jpg, porch).
holds(s_236_jpg, tiledrooftop).
holds(s_236_jpg, vendingmachine).
holds(s_236_jpg, wallsign).
holds(s_236_jpg, statue).
holds(s_236_jpg, chimney).
holds(s_236_jpg, pipe).
holds(s_236_jpg, machine).
holds(s_236_jpg, truck).
holds(s_236_jpg, car).
holds(s_236_jpg, residential).

sample(s_14362_jpg).
holds(s_14362_jpg, building).
holds(s_14362_jpg, feature).
holds(s_14362_jpg, constructionsite).
holds(s_14362_jpg, door).
holds(s_14362_jpg, awning).
holds(s_14362_jpg, billboard).
holds(s_14362_jpg, porch).
holds(s_14362_jpg, tiledrooftop).
holds(s_14362_jpg, vendingmachine).
holds(s_14362_jpg, wallsign).
holds(s_14362_jpg, chimney).
holds(s_14362_jpg, pipe).
holds(s_14362_jpg, machine).
holds(s_14362_jpg, industrial).

sample(s_1951_jpg).
holds(s_1951_jpg, building).
holds(s_1951_jpg, feature).
holds(s_1951_jpg, constructionsite).
holds(s_1951_jpg, awning).
holds(s_1951_jpg, billboard).
holds(s_1951_jpg, porch).
holds(s_1951_jpg, tiledrooftop).
holds(s_1951_jpg, vendingmachine).
holds(s_1951_jpg, wallsign).
holds(s_1951_jpg, chimney).
holds(s_1951_jpg, pipe).
holds(s_1951_jpg, machine).
holds(s_1951_jpg, industrial).

sample(s_10082_jpg).
holds(s_10082_jpg, building).
holds(s_10082_jpg, feature).
holds(s_10082_jpg, suburban).
holds(s_10082_jpg, door).
holds(s_10082_jpg, window).
holds(s_10082_jpg, awning).
holds(s_10082_jpg, porch).
holds(s_10082_jpg, table).
holds(s_10082_jpg, tiledrooftop).
holds(s_10082_jpg, vendingmachine).
holds(s_10082_jpg, wallsign).
holds(s_10082_jpg, statue).
holds(s_10082_jpg, pipe).
holds(s_10082_jpg, car).
holds(s_10082_jpg, residential).

sample(s_6246_jpg).
holds(s_6246_jpg, building).
holds(s_6246_jpg, feature).
holds(s_6246_jpg, hotel).
holds(s_6246_jpg, door).
holds(s_6246_jpg, awning).
holds(s_6246_jpg, porch).
holds(s_6246_jpg, sign).
holds(s_6246_jpg, tiledrooftop).
holds(s_6246_jpg, pipe).
holds(s_6246_jpg, machine).
holds(s_6246_jpg, commercial).

sample(s_7093_jpg).
holds(s_7093_jpg, building).
holds(s_7093_jpg, feature).
holds(s_7093_jpg, constructionsite).
holds(s_7093_jpg, awning).
holds(s_7093_jpg, billboard).
holds(s_7093_jpg, porch).
holds(s_7093_jpg, tiledrooftop).
holds(s_7093_jpg, wallsign).
holds(s_7093_jpg, chimney).
holds(s_7093_jpg, pipe).
holds(s_7093_jpg, machine).
holds(s_7093_jpg, industrial).

sample(s_13825_jpg).
holds(s_13825_jpg, building).
holds(s_13825_jpg, feature).
holds(s_13825_jpg, constructionsite).
holds(s_13825_jpg, door).
holds(s_13825_jpg, awning).
holds(s_13825_jpg, billboard).
holds(s_13825_jpg, porch).
holds(s_13825_jpg, tiledrooftop).
holds(s_13825_jpg, vendingmachine).
holds(s_13825_jpg, wallsign).
holds(s_13825_jpg, statue).
holds(s_13825_jpg, chimney).
holds(s_13825_jpg, pipe).
holds(s_13825_jpg, machine).
holds(s_13825_jpg, industrial).

sample(s_12445_jpg).
holds(s_12445_jpg, building).
holds(s_12445_jpg, feature).
holds(s_12445_jpg, constructionsite).
holds(s_12445_jpg, door).
holds(s_12445_jpg, awning).
holds(s_12445_jpg, billboard).
holds(s_12445_jpg, porch).
holds(s_12445_jpg, tiledrooftop).
holds(s_12445_jpg, vendingmachine).
holds(s_12445_jpg, wallsign).
holds(s_12445_jpg, chimney).
holds(s_12445_jpg, pipe).
holds(s_12445_jpg, machine).
holds(s_12445_jpg, industrial).

sample(s_10588_jpg).
holds(s_10588_jpg, building).
holds(s_10588_jpg, feature).
holds(s_10588_jpg, constructionsite).
holds(s_10588_jpg, door).
holds(s_10588_jpg, awning).
holds(s_10588_jpg, billboard).
holds(s_10588_jpg, porch).
holds(s_10588_jpg, tiledrooftop).
holds(s_10588_jpg, vendingmachine).
holds(s_10588_jpg, wallsign).
holds(s_10588_jpg, statue).
holds(s_10588_jpg, chimney).
holds(s_10588_jpg, pipe).
holds(s_10588_jpg, machine).
holds(s_10588_jpg, industrial).

sample(s_772_jpg).
holds(s_772_jpg, building).
holds(s_772_jpg, feature).
holds(s_772_jpg, constructionsite).
holds(s_772_jpg, awning).
holds(s_772_jpg, billboard).
holds(s_772_jpg, porch).
holds(s_772_jpg, tiledrooftop).
holds(s_772_jpg, wallsign).
holds(s_772_jpg, chimney).
holds(s_772_jpg, pipe).
holds(s_772_jpg, machine).
holds(s_772_jpg, industrial).

sample(s_12803_jpg).
holds(s_12803_jpg, building).
holds(s_12803_jpg, feature).
holds(s_12803_jpg, suburban).
holds(s_12803_jpg, door).
holds(s_12803_jpg, awning).
holds(s_12803_jpg, billboard).
holds(s_12803_jpg, table).
holds(s_12803_jpg, tiledrooftop).
holds(s_12803_jpg, vendingmachine).
holds(s_12803_jpg, wallsign).
holds(s_12803_jpg, statue).
holds(s_12803_jpg, chimney).
holds(s_12803_jpg, pipe).
holds(s_12803_jpg, truck).
holds(s_12803_jpg, car).
holds(s_12803_jpg, residential).

sample(s_14735_jpg).
holds(s_14735_jpg, building).
holds(s_14735_jpg, feature).
holds(s_14735_jpg, suburban).
holds(s_14735_jpg, door).
holds(s_14735_jpg, window).
holds(s_14735_jpg, awning).
holds(s_14735_jpg, table).
holds(s_14735_jpg, tiledrooftop).
holds(s_14735_jpg, vendingmachine).
holds(s_14735_jpg, wallsign).
holds(s_14735_jpg, statue).
holds(s_14735_jpg, pipe).
holds(s_14735_jpg, residential).

sample(s_15160_jpg).
holds(s_15160_jpg, building).
holds(s_15160_jpg, feature).
holds(s_15160_jpg, constructionsite).
holds(s_15160_jpg, awning).
holds(s_15160_jpg, billboard).
holds(s_15160_jpg, porch).
holds(s_15160_jpg, tiledrooftop).
holds(s_15160_jpg, wallsign).
holds(s_15160_jpg, chimney).
holds(s_15160_jpg, pipe).
holds(s_15160_jpg, machine).
holds(s_15160_jpg, industrial).

sample(s_4229_jpg).
holds(s_4229_jpg, building).
holds(s_4229_jpg, feature).
holds(s_4229_jpg, suburban).
holds(s_4229_jpg, door).
holds(s_4229_jpg, window).
holds(s_4229_jpg, awning).
holds(s_4229_jpg, porch).
holds(s_4229_jpg, tiledrooftop).
holds(s_4229_jpg, vendingmachine).
holds(s_4229_jpg, wallsign).
holds(s_4229_jpg, statue).
holds(s_4229_jpg, pipe).
holds(s_4229_jpg, residential).

sample(s_12808_jpg).
holds(s_12808_jpg, building).
holds(s_12808_jpg, feature).
holds(s_12808_jpg, constructionsite).
holds(s_12808_jpg, awning).
holds(s_12808_jpg, billboard).
holds(s_12808_jpg, porch).
holds(s_12808_jpg, tiledrooftop).
holds(s_12808_jpg, chimney).
holds(s_12808_jpg, machine).
holds(s_12808_jpg, industrial).

sample(s_10413_jpg).
holds(s_10413_jpg, building).
holds(s_10413_jpg, feature).
holds(s_10413_jpg, hotel).
holds(s_10413_jpg, door).
holds(s_10413_jpg, awning).
holds(s_10413_jpg, billboard).
holds(s_10413_jpg, porch).
holds(s_10413_jpg, sign).
holds(s_10413_jpg, tiledrooftop).
holds(s_10413_jpg, chimney).
holds(s_10413_jpg, pipe).
holds(s_10413_jpg, machine).
holds(s_10413_jpg, commercial).

sample(s_6775_jpg).
holds(s_6775_jpg, building).
holds(s_6775_jpg, feature).
holds(s_6775_jpg, constructionsite).
holds(s_6775_jpg, door).
holds(s_6775_jpg, awning).
holds(s_6775_jpg, billboard).
holds(s_6775_jpg, porch).
holds(s_6775_jpg, tiledrooftop).
holds(s_6775_jpg, vendingmachine).
holds(s_6775_jpg, wallsign).
holds(s_6775_jpg, statue).
holds(s_6775_jpg, chimney).
holds(s_6775_jpg, pipe).
holds(s_6775_jpg, machine).
holds(s_6775_jpg, industrial).

sample(s_10147_jpg).
holds(s_10147_jpg, building).
holds(s_10147_jpg, feature).
holds(s_10147_jpg, constructionsite).
holds(s_10147_jpg, awning).
holds(s_10147_jpg, billboard).
holds(s_10147_jpg, porch).
holds(s_10147_jpg, tiledrooftop).
holds(s_10147_jpg, chimney).
holds(s_10147_jpg, machine).
holds(s_10147_jpg, industrial).

sample(s_1150_jpg).
holds(s_1150_jpg, building).
holds(s_1150_jpg, feature).
holds(s_1150_jpg, constructionsite).
holds(s_1150_jpg, awning).
holds(s_1150_jpg, billboard).
holds(s_1150_jpg, porch).
holds(s_1150_jpg, tiledrooftop).
holds(s_1150_jpg, vendingmachine).
holds(s_1150_jpg, wallsign).
holds(s_1150_jpg, chimney).
holds(s_1150_jpg, pipe).
holds(s_1150_jpg, machine).
holds(s_1150_jpg, industrial).

sample(s_126_jpg).
holds(s_126_jpg, building).
holds(s_126_jpg, feature).
holds(s_126_jpg, hotel).
holds(s_126_jpg, door).
holds(s_126_jpg, awning).
holds(s_126_jpg, billboard).
holds(s_126_jpg, porch).
holds(s_126_jpg, tiledrooftop).
holds(s_126_jpg, statue).
holds(s_126_jpg, chimney).
holds(s_126_jpg, pipe).
holds(s_126_jpg, machine).
holds(s_126_jpg, commercial).

sample(s_3461_jpg).
holds(s_3461_jpg, building).
holds(s_3461_jpg, feature).
holds(s_3461_jpg, suburban).
holds(s_3461_jpg, door).
holds(s_3461_jpg, awning).
holds(s_3461_jpg, porch).
holds(s_3461_jpg, table).
holds(s_3461_jpg, tiledrooftop).
holds(s_3461_jpg, vendingmachine).
holds(s_3461_jpg, wallsign).
holds(s_3461_jpg, statue).
holds(s_3461_jpg, chimney).
holds(s_3461_jpg, pipe).
holds(s_3461_jpg, truck).
holds(s_3461_jpg, car).
holds(s_3461_jpg, residential).

sample(s_1700_jpg).
holds(s_1700_jpg, building).
holds(s_1700_jpg, feature).
holds(s_1700_jpg, suburban).
holds(s_1700_jpg, door).
holds(s_1700_jpg, window).
holds(s_1700_jpg, awning).
holds(s_1700_jpg, porch).
holds(s_1700_jpg, tiledrooftop).
holds(s_1700_jpg, vendingmachine).
holds(s_1700_jpg, wallsign).
holds(s_1700_jpg, statue).
holds(s_1700_jpg, residential).

sample(s_10071_jpg).
holds(s_10071_jpg, building).
holds(s_10071_jpg, feature).
holds(s_10071_jpg, hotel).
holds(s_10071_jpg, door).
holds(s_10071_jpg, awning).
holds(s_10071_jpg, billboard).
holds(s_10071_jpg, porch).
holds(s_10071_jpg, sign).
holds(s_10071_jpg, tiledrooftop).
holds(s_10071_jpg, pipe).
holds(s_10071_jpg, machine).
holds(s_10071_jpg, commercial).

sample(s_15783_jpg).
holds(s_15783_jpg, building).
holds(s_15783_jpg, feature).
holds(s_15783_jpg, hotel).
holds(s_15783_jpg, door).
holds(s_15783_jpg, awning).
holds(s_15783_jpg, porch).
holds(s_15783_jpg, tiledrooftop).
holds(s_15783_jpg, vendingmachine).
holds(s_15783_jpg, statue).
holds(s_15783_jpg, chimney).
holds(s_15783_jpg, machine).
holds(s_15783_jpg, truck).
holds(s_15783_jpg, commercial).

sample(s_8247_jpg).
holds(s_8247_jpg, building).
holds(s_8247_jpg, feature).
holds(s_8247_jpg, hotel).
holds(s_8247_jpg, door).
holds(s_8247_jpg, awning).
holds(s_8247_jpg, porch).
holds(s_8247_jpg, sign).
holds(s_8247_jpg, tiledrooftop).
holds(s_8247_jpg, statue).
holds(s_8247_jpg, pipe).
holds(s_8247_jpg, machine).
holds(s_8247_jpg, commercial).

sample(s_8307_jpg).
holds(s_8307_jpg, building).
holds(s_8307_jpg, feature).
holds(s_8307_jpg, hotel).
holds(s_8307_jpg, door).
holds(s_8307_jpg, awning).
holds(s_8307_jpg, billboard).
holds(s_8307_jpg, porch).
holds(s_8307_jpg, sign).
holds(s_8307_jpg, tiledrooftop).
holds(s_8307_jpg, statue).
holds(s_8307_jpg, chimney).
holds(s_8307_jpg, pipe).
holds(s_8307_jpg, machine).
holds(s_8307_jpg, commercial).

sample(s_8752_jpg).
holds(s_8752_jpg, building).
holds(s_8752_jpg, feature).
holds(s_8752_jpg, constructionsite).
holds(s_8752_jpg, door).
holds(s_8752_jpg, awning).
holds(s_8752_jpg, porch).
holds(s_8752_jpg, tiledrooftop).
holds(s_8752_jpg, vendingmachine).
holds(s_8752_jpg, wallsign).
holds(s_8752_jpg, statue).
holds(s_8752_jpg, chimney).
holds(s_8752_jpg, pipe).
holds(s_8752_jpg, machine).
holds(s_8752_jpg, industrial).

sample(s_13983_jpg).
holds(s_13983_jpg, building).
holds(s_13983_jpg, feature).
holds(s_13983_jpg, hotel).
holds(s_13983_jpg, door).
holds(s_13983_jpg, awning).
holds(s_13983_jpg, billboard).
holds(s_13983_jpg, porch).
holds(s_13983_jpg, sign).
holds(s_13983_jpg, tiledrooftop).
holds(s_13983_jpg, statue).
holds(s_13983_jpg, chimney).
holds(s_13983_jpg, pipe).
holds(s_13983_jpg, machine).
holds(s_13983_jpg, truck).
holds(s_13983_jpg, commercial).

sample(s_14514_jpg).
holds(s_14514_jpg, building).
holds(s_14514_jpg, feature).
holds(s_14514_jpg, hotel).
holds(s_14514_jpg, door).
holds(s_14514_jpg, awning).
holds(s_14514_jpg, billboard).
holds(s_14514_jpg, porch).
holds(s_14514_jpg, sign).
holds(s_14514_jpg, tiledrooftop).
holds(s_14514_jpg, statue).
holds(s_14514_jpg, chimney).
holds(s_14514_jpg, pipe).
holds(s_14514_jpg, machine).
holds(s_14514_jpg, commercial).

sample(s_12417_jpg).
holds(s_12417_jpg, building).
holds(s_12417_jpg, feature).
holds(s_12417_jpg, hotel).
holds(s_12417_jpg, door).
holds(s_12417_jpg, awning).
holds(s_12417_jpg, porch).
holds(s_12417_jpg, tiledrooftop).
holds(s_12417_jpg, statue).
holds(s_12417_jpg, chimney).
holds(s_12417_jpg, pipe).
holds(s_12417_jpg, machine).
holds(s_12417_jpg, commercial).

sample(s_14971_jpg).
holds(s_14971_jpg, building).
holds(s_14971_jpg, feature).
holds(s_14971_jpg, constructionsite).
holds(s_14971_jpg, door).
holds(s_14971_jpg, awning).
holds(s_14971_jpg, billboard).
holds(s_14971_jpg, porch).
holds(s_14971_jpg, tiledrooftop).
holds(s_14971_jpg, wallsign).
holds(s_14971_jpg, chimney).
holds(s_14971_jpg, pipe).
holds(s_14971_jpg, machine).
holds(s_14971_jpg, industrial).

sample(s_5166_jpg).
holds(s_5166_jpg, building).
holds(s_5166_jpg, feature).
holds(s_5166_jpg, hotel).
holds(s_5166_jpg, door).
holds(s_5166_jpg, awning).
holds(s_5166_jpg, billboard).
holds(s_5166_jpg, porch).
holds(s_5166_jpg, sign).
holds(s_5166_jpg, tiledrooftop).
holds(s_5166_jpg, chimney).
holds(s_5166_jpg, pipe).
holds(s_5166_jpg, machine).
holds(s_5166_jpg, commercial).

sample(s_4358_jpg).
holds(s_4358_jpg, building).
holds(s_4358_jpg, feature).
holds(s_4358_jpg, suburban).
holds(s_4358_jpg, door).
holds(s_4358_jpg, window).
holds(s_4358_jpg, awning).
holds(s_4358_jpg, porch).
holds(s_4358_jpg, table).
holds(s_4358_jpg, tiledrooftop).
holds(s_4358_jpg, vendingmachine).
holds(s_4358_jpg, wallsign).
holds(s_4358_jpg, statue).
holds(s_4358_jpg, pipe).
holds(s_4358_jpg, car).
holds(s_4358_jpg, residential).

sample(s_1835_jpg).
holds(s_1835_jpg, building).
holds(s_1835_jpg, feature).
holds(s_1835_jpg, suburban).
holds(s_1835_jpg, door).
holds(s_1835_jpg, window).
holds(s_1835_jpg, awning).
holds(s_1835_jpg, table).
holds(s_1835_jpg, tiledrooftop).
holds(s_1835_jpg, vendingmachine).
holds(s_1835_jpg, wallsign).
holds(s_1835_jpg, statue).
holds(s_1835_jpg, pipe).
holds(s_1835_jpg, car).
holds(s_1835_jpg, residential).

sample(s_4693_jpg).
holds(s_4693_jpg, building).
holds(s_4693_jpg, feature).
holds(s_4693_jpg, constructionsite).
holds(s_4693_jpg, door).
holds(s_4693_jpg, awning).
holds(s_4693_jpg, billboard).
holds(s_4693_jpg, porch).
holds(s_4693_jpg, tiledrooftop).
holds(s_4693_jpg, wallsign).
holds(s_4693_jpg, chimney).
holds(s_4693_jpg, pipe).
holds(s_4693_jpg, machine).
holds(s_4693_jpg, industrial).

sample(s_15197_jpg).
holds(s_15197_jpg, building).
holds(s_15197_jpg, feature).
holds(s_15197_jpg, suburban).
holds(s_15197_jpg, door).
holds(s_15197_jpg, window).
holds(s_15197_jpg, awning).
holds(s_15197_jpg, porch).
holds(s_15197_jpg, tiledrooftop).
holds(s_15197_jpg, vendingmachine).
holds(s_15197_jpg, statue).
holds(s_15197_jpg, residential).

sample(s_12852_jpg).
holds(s_12852_jpg, building).
holds(s_12852_jpg, feature).
holds(s_12852_jpg, hotel).
holds(s_12852_jpg, door).
holds(s_12852_jpg, awning).
holds(s_12852_jpg, billboard).
holds(s_12852_jpg, porch).
holds(s_12852_jpg, sign).
holds(s_12852_jpg, tiledrooftop).
holds(s_12852_jpg, chimney).
holds(s_12852_jpg, pipe).
holds(s_12852_jpg, machine).
holds(s_12852_jpg, commercial).

sample(s_5090_jpg).
holds(s_5090_jpg, building).
holds(s_5090_jpg, feature).
holds(s_5090_jpg, suburban).
holds(s_5090_jpg, door).
holds(s_5090_jpg, window).
holds(s_5090_jpg, awning).
holds(s_5090_jpg, table).
holds(s_5090_jpg, tiledrooftop).
holds(s_5090_jpg, vendingmachine).
holds(s_5090_jpg, wallsign).
holds(s_5090_jpg, statue).
holds(s_5090_jpg, pipe).
holds(s_5090_jpg, car).
holds(s_5090_jpg, residential).

sample(s_12937_jpg).
holds(s_12937_jpg, building).
holds(s_12937_jpg, feature).
holds(s_12937_jpg, constructionsite).
holds(s_12937_jpg, awning).
holds(s_12937_jpg, billboard).
holds(s_12937_jpg, porch).
holds(s_12937_jpg, tiledrooftop).
holds(s_12937_jpg, vendingmachine).
holds(s_12937_jpg, wallsign).
holds(s_12937_jpg, chimney).
holds(s_12937_jpg, pipe).
holds(s_12937_jpg, machine).
holds(s_12937_jpg, industrial).

sample(s_1807_jpg).
holds(s_1807_jpg, building).
holds(s_1807_jpg, feature).
holds(s_1807_jpg, constructionsite).
holds(s_1807_jpg, awning).
holds(s_1807_jpg, billboard).
holds(s_1807_jpg, porch).
holds(s_1807_jpg, tiledrooftop).
holds(s_1807_jpg, wallsign).
holds(s_1807_jpg, chimney).
holds(s_1807_jpg, pipe).
holds(s_1807_jpg, machine).
holds(s_1807_jpg, industrial).

sample(s_2005_jpg).
holds(s_2005_jpg, building).
holds(s_2005_jpg, feature).
holds(s_2005_jpg, constructionsite).
holds(s_2005_jpg, awning).
holds(s_2005_jpg, billboard).
holds(s_2005_jpg, porch).
holds(s_2005_jpg, tiledrooftop).
holds(s_2005_jpg, wallsign).
holds(s_2005_jpg, chimney).
holds(s_2005_jpg, pipe).
holds(s_2005_jpg, machine).
holds(s_2005_jpg, industrial).

sample(s_110_jpg).
holds(s_110_jpg, building).
holds(s_110_jpg, feature).
holds(s_110_jpg, suburban).
holds(s_110_jpg, door).
holds(s_110_jpg, awning).
holds(s_110_jpg, billboard).
holds(s_110_jpg, vendingmachine).
holds(s_110_jpg, wallsign).
holds(s_110_jpg, statue).
holds(s_110_jpg, chimney).
holds(s_110_jpg, pipe).
holds(s_110_jpg, truck).
holds(s_110_jpg, car).
holds(s_110_jpg, residential).

sample(s_2569_jpg).
holds(s_2569_jpg, building).
holds(s_2569_jpg, feature).
holds(s_2569_jpg, constructionsite).
holds(s_2569_jpg, awning).
holds(s_2569_jpg, billboard).
holds(s_2569_jpg, porch).
holds(s_2569_jpg, tiledrooftop).
holds(s_2569_jpg, wallsign).
holds(s_2569_jpg, chimney).
holds(s_2569_jpg, pipe).
holds(s_2569_jpg, machine).
holds(s_2569_jpg, industrial).

sample(s_1506_jpg).
holds(s_1506_jpg, building).
holds(s_1506_jpg, feature).
holds(s_1506_jpg, hotel).
holds(s_1506_jpg, door).
holds(s_1506_jpg, awning).
holds(s_1506_jpg, billboard).
holds(s_1506_jpg, porch).
holds(s_1506_jpg, sign).
holds(s_1506_jpg, tiledrooftop).
holds(s_1506_jpg, statue).
holds(s_1506_jpg, pipe).
holds(s_1506_jpg, machine).
holds(s_1506_jpg, truck).
holds(s_1506_jpg, commercial).

sample(s_8363_jpg).
holds(s_8363_jpg, building).
holds(s_8363_jpg, feature).
holds(s_8363_jpg, suburban).
holds(s_8363_jpg, door).
holds(s_8363_jpg, window).
holds(s_8363_jpg, awning).
holds(s_8363_jpg, porch).
holds(s_8363_jpg, table).
holds(s_8363_jpg, tiledrooftop).
holds(s_8363_jpg, vendingmachine).
holds(s_8363_jpg, wallsign).
holds(s_8363_jpg, statue).
holds(s_8363_jpg, pipe).
holds(s_8363_jpg, car).
holds(s_8363_jpg, residential).

sample(s_5067_jpg).
holds(s_5067_jpg, building).
holds(s_5067_jpg, feature).
holds(s_5067_jpg, hotel).
holds(s_5067_jpg, door).
holds(s_5067_jpg, awning).
holds(s_5067_jpg, porch).
holds(s_5067_jpg, sign).
holds(s_5067_jpg, tiledrooftop).
holds(s_5067_jpg, statue).
holds(s_5067_jpg, pipe).
holds(s_5067_jpg, machine).
holds(s_5067_jpg, commercial).

sample(s_8064_jpg).
holds(s_8064_jpg, building).
holds(s_8064_jpg, feature).
holds(s_8064_jpg, hotel).
holds(s_8064_jpg, door).
holds(s_8064_jpg, awning).
holds(s_8064_jpg, billboard).
holds(s_8064_jpg, porch).
holds(s_8064_jpg, sign).
holds(s_8064_jpg, tiledrooftop).
holds(s_8064_jpg, pipe).
holds(s_8064_jpg, machine).
holds(s_8064_jpg, commercial).

sample(s_10066_jpg).
holds(s_10066_jpg, building).
holds(s_10066_jpg, feature).
holds(s_10066_jpg, constructionsite).
holds(s_10066_jpg, awning).
holds(s_10066_jpg, billboard).
holds(s_10066_jpg, porch).
holds(s_10066_jpg, tiledrooftop).
holds(s_10066_jpg, wallsign).
holds(s_10066_jpg, chimney).
holds(s_10066_jpg, pipe).
holds(s_10066_jpg, machine).
holds(s_10066_jpg, industrial).

sample(s_2202_jpg).
holds(s_2202_jpg, building).
holds(s_2202_jpg, feature).
holds(s_2202_jpg, hotel).
holds(s_2202_jpg, door).
holds(s_2202_jpg, awning).
holds(s_2202_jpg, billboard).
holds(s_2202_jpg, porch).
holds(s_2202_jpg, sign).
holds(s_2202_jpg, tiledrooftop).
holds(s_2202_jpg, pipe).
holds(s_2202_jpg, machine).
holds(s_2202_jpg, commercial).

sample(s_703_jpg).
holds(s_703_jpg, building).
holds(s_703_jpg, feature).
holds(s_703_jpg, constructionsite).
holds(s_703_jpg, door).
holds(s_703_jpg, awning).
holds(s_703_jpg, billboard).
holds(s_703_jpg, porch).
holds(s_703_jpg, tiledrooftop).
holds(s_703_jpg, vendingmachine).
holds(s_703_jpg, wallsign).
holds(s_703_jpg, statue).
holds(s_703_jpg, chimney).
holds(s_703_jpg, pipe).
holds(s_703_jpg, machine).
holds(s_703_jpg, industrial).

sample(s_15943_jpg).
holds(s_15943_jpg, building).
holds(s_15943_jpg, feature).
holds(s_15943_jpg, constructionsite).
holds(s_15943_jpg, awning).
holds(s_15943_jpg, billboard).
holds(s_15943_jpg, porch).
holds(s_15943_jpg, tiledrooftop).
holds(s_15943_jpg, wallsign).
holds(s_15943_jpg, chimney).
holds(s_15943_jpg, pipe).
holds(s_15943_jpg, machine).
holds(s_15943_jpg, industrial).

sample(s_3416_jpg).
holds(s_3416_jpg, building).
holds(s_3416_jpg, feature).
holds(s_3416_jpg, suburban).
holds(s_3416_jpg, door).
holds(s_3416_jpg, window).
holds(s_3416_jpg, awning).
holds(s_3416_jpg, porch).
holds(s_3416_jpg, tiledrooftop).
holds(s_3416_jpg, vendingmachine).
holds(s_3416_jpg, wallsign).
holds(s_3416_jpg, statue).
holds(s_3416_jpg, residential).

sample(s_548_jpg).
holds(s_548_jpg, building).
holds(s_548_jpg, feature).
holds(s_548_jpg, suburban).
holds(s_548_jpg, door).
holds(s_548_jpg, window).
holds(s_548_jpg, awning).
holds(s_548_jpg, porch).
holds(s_548_jpg, tiledrooftop).
holds(s_548_jpg, vendingmachine).
holds(s_548_jpg, wallsign).
holds(s_548_jpg, statue).
holds(s_548_jpg, pipe).
holds(s_548_jpg, truck).
holds(s_548_jpg, car).
holds(s_548_jpg, residential).

sample(s_15935_jpg).
holds(s_15935_jpg, building).
holds(s_15935_jpg, feature).
holds(s_15935_jpg, suburban).
holds(s_15935_jpg, door).
holds(s_15935_jpg, window).
holds(s_15935_jpg, awning).
holds(s_15935_jpg, porch).
holds(s_15935_jpg, table).
holds(s_15935_jpg, tiledrooftop).
holds(s_15935_jpg, vendingmachine).
holds(s_15935_jpg, wallsign).
holds(s_15935_jpg, statue).
holds(s_15935_jpg, pipe).
holds(s_15935_jpg, residential).

sample(s_11878_jpg).
holds(s_11878_jpg, building).
holds(s_11878_jpg, feature).
holds(s_11878_jpg, constructionsite).
holds(s_11878_jpg, awning).
holds(s_11878_jpg, billboard).
holds(s_11878_jpg, porch).
holds(s_11878_jpg, tiledrooftop).
holds(s_11878_jpg, wallsign).
holds(s_11878_jpg, chimney).
holds(s_11878_jpg, pipe).
holds(s_11878_jpg, machine).
holds(s_11878_jpg, industrial).

sample(s_11125_jpg).
holds(s_11125_jpg, building).
holds(s_11125_jpg, feature).
holds(s_11125_jpg, constructionsite).
holds(s_11125_jpg, awning).
holds(s_11125_jpg, billboard).
holds(s_11125_jpg, porch).
holds(s_11125_jpg, tiledrooftop).
holds(s_11125_jpg, wallsign).
holds(s_11125_jpg, chimney).
holds(s_11125_jpg, machine).
holds(s_11125_jpg, industrial).

sample(s_4856_jpg).
holds(s_4856_jpg, building).
holds(s_4856_jpg, feature).
holds(s_4856_jpg, suburban).
holds(s_4856_jpg, door).
holds(s_4856_jpg, awning).
holds(s_4856_jpg, porch).
holds(s_4856_jpg, table).
holds(s_4856_jpg, tiledrooftop).
holds(s_4856_jpg, vendingmachine).
holds(s_4856_jpg, wallsign).
holds(s_4856_jpg, statue).
holds(s_4856_jpg, chimney).
holds(s_4856_jpg, pipe).
holds(s_4856_jpg, truck).
holds(s_4856_jpg, car).
holds(s_4856_jpg, residential).

sample(s_4171_jpg).
holds(s_4171_jpg, building).
holds(s_4171_jpg, feature).
holds(s_4171_jpg, constructionsite).
holds(s_4171_jpg, awning).
holds(s_4171_jpg, billboard).
holds(s_4171_jpg, porch).
holds(s_4171_jpg, tiledrooftop).
holds(s_4171_jpg, vendingmachine).
holds(s_4171_jpg, wallsign).
holds(s_4171_jpg, chimney).
holds(s_4171_jpg, pipe).
holds(s_4171_jpg, machine).
holds(s_4171_jpg, industrial).

sample(s_947_jpg).
holds(s_947_jpg, building).
holds(s_947_jpg, feature).
holds(s_947_jpg, suburban).
holds(s_947_jpg, door).
holds(s_947_jpg, window).
holds(s_947_jpg, awning).
holds(s_947_jpg, porch).
holds(s_947_jpg, table).
holds(s_947_jpg, tiledrooftop).
holds(s_947_jpg, vendingmachine).
holds(s_947_jpg, wallsign).
holds(s_947_jpg, statue).
holds(s_947_jpg, pipe).
holds(s_947_jpg, car).
holds(s_947_jpg, residential).

sample(s_8962_jpg).
holds(s_8962_jpg, building).
holds(s_8962_jpg, feature).
holds(s_8962_jpg, constructionsite).
holds(s_8962_jpg, awning).
holds(s_8962_jpg, billboard).
holds(s_8962_jpg, porch).
holds(s_8962_jpg, tiledrooftop).
holds(s_8962_jpg, wallsign).
holds(s_8962_jpg, chimney).
holds(s_8962_jpg, pipe).
holds(s_8962_jpg, machine).
holds(s_8962_jpg, industrial).

sample(s_10727_jpg).
holds(s_10727_jpg, building).
holds(s_10727_jpg, feature).
holds(s_10727_jpg, suburban).
holds(s_10727_jpg, door).
holds(s_10727_jpg, window).
holds(s_10727_jpg, awning).
holds(s_10727_jpg, table).
holds(s_10727_jpg, tiledrooftop).
holds(s_10727_jpg, vendingmachine).
holds(s_10727_jpg, wallsign).
holds(s_10727_jpg, statue).
holds(s_10727_jpg, pipe).
holds(s_10727_jpg, residential).

sample(s_1910_jpg).
holds(s_1910_jpg, building).
holds(s_1910_jpg, feature).
holds(s_1910_jpg, suburban).
holds(s_1910_jpg, door).
holds(s_1910_jpg, window).
holds(s_1910_jpg, awning).
holds(s_1910_jpg, table).
holds(s_1910_jpg, tiledrooftop).
holds(s_1910_jpg, vendingmachine).
holds(s_1910_jpg, wallsign).
holds(s_1910_jpg, statue).
holds(s_1910_jpg, pipe).
holds(s_1910_jpg, residential).

sample(s_13994_jpg).
holds(s_13994_jpg, building).
holds(s_13994_jpg, feature).
holds(s_13994_jpg, suburban).
holds(s_13994_jpg, door).
holds(s_13994_jpg, window).
holds(s_13994_jpg, awning).
holds(s_13994_jpg, porch).
holds(s_13994_jpg, tiledrooftop).
holds(s_13994_jpg, vendingmachine).
holds(s_13994_jpg, wallsign).
holds(s_13994_jpg, statue).
holds(s_13994_jpg, pipe).
holds(s_13994_jpg, residential).

sample(s_8725_jpg).
holds(s_8725_jpg, building).
holds(s_8725_jpg, feature).
holds(s_8725_jpg, constructionsite).
holds(s_8725_jpg, awning).
holds(s_8725_jpg, billboard).
holds(s_8725_jpg, porch).
holds(s_8725_jpg, tiledrooftop).
holds(s_8725_jpg, wallsign).
holds(s_8725_jpg, chimney).
holds(s_8725_jpg, pipe).
holds(s_8725_jpg, machine).
holds(s_8725_jpg, industrial).

sample(s_1304_jpg).
holds(s_1304_jpg, building).
holds(s_1304_jpg, feature).
holds(s_1304_jpg, suburban).
holds(s_1304_jpg, door).
holds(s_1304_jpg, window).
holds(s_1304_jpg, awning).
holds(s_1304_jpg, porch).
holds(s_1304_jpg, tiledrooftop).
holds(s_1304_jpg, vendingmachine).
holds(s_1304_jpg, wallsign).
holds(s_1304_jpg, statue).
holds(s_1304_jpg, pipe).
holds(s_1304_jpg, car).
holds(s_1304_jpg, residential).

sample(s_7176_jpg).
holds(s_7176_jpg, building).
holds(s_7176_jpg, feature).
holds(s_7176_jpg, hotel).
holds(s_7176_jpg, door).
holds(s_7176_jpg, awning).
holds(s_7176_jpg, billboard).
holds(s_7176_jpg, porch).
holds(s_7176_jpg, sign).
holds(s_7176_jpg, tiledrooftop).
holds(s_7176_jpg, pipe).
holds(s_7176_jpg, machine).
holds(s_7176_jpg, commercial).

sample(s_9960_jpg).
holds(s_9960_jpg, building).
holds(s_9960_jpg, feature).
holds(s_9960_jpg, hotel).
holds(s_9960_jpg, door).
holds(s_9960_jpg, awning).
holds(s_9960_jpg, billboard).
holds(s_9960_jpg, porch).
holds(s_9960_jpg, sign).
holds(s_9960_jpg, tiledrooftop).
holds(s_9960_jpg, statue).
holds(s_9960_jpg, pipe).
holds(s_9960_jpg, machine).
holds(s_9960_jpg, commercial).

sample(s_8009_jpg).
holds(s_8009_jpg, building).
holds(s_8009_jpg, feature).
holds(s_8009_jpg, suburban).
holds(s_8009_jpg, door).
holds(s_8009_jpg, awning).
holds(s_8009_jpg, porch).
holds(s_8009_jpg, tiledrooftop).
holds(s_8009_jpg, vendingmachine).
holds(s_8009_jpg, wallsign).
holds(s_8009_jpg, statue).
holds(s_8009_jpg, chimney).
holds(s_8009_jpg, pipe).
holds(s_8009_jpg, truck).
holds(s_8009_jpg, car).
holds(s_8009_jpg, residential).

sample(s_10976_jpg).
holds(s_10976_jpg, building).
holds(s_10976_jpg, feature).
holds(s_10976_jpg, suburban).
holds(s_10976_jpg, door).
holds(s_10976_jpg, window).
holds(s_10976_jpg, awning).
holds(s_10976_jpg, porch).
holds(s_10976_jpg, tiledrooftop).
holds(s_10976_jpg, vendingmachine).
holds(s_10976_jpg, statue).
holds(s_10976_jpg, residential).

sample(s_4598_jpg).
holds(s_4598_jpg, building).
holds(s_4598_jpg, feature).
holds(s_4598_jpg, suburban).
holds(s_4598_jpg, door).
holds(s_4598_jpg, window).
holds(s_4598_jpg, awning).
holds(s_4598_jpg, porch).
holds(s_4598_jpg, tiledrooftop).
holds(s_4598_jpg, vendingmachine).
holds(s_4598_jpg, wallsign).
holds(s_4598_jpg, statue).
holds(s_4598_jpg, pipe).
holds(s_4598_jpg, car).
holds(s_4598_jpg, residential).

sample(s_11954_jpg).
holds(s_11954_jpg, building).
holds(s_11954_jpg, feature).
holds(s_11954_jpg, suburban).
holds(s_11954_jpg, door).
holds(s_11954_jpg, window).
holds(s_11954_jpg, awning).
holds(s_11954_jpg, table).
holds(s_11954_jpg, tiledrooftop).
holds(s_11954_jpg, vendingmachine).
holds(s_11954_jpg, wallsign).
holds(s_11954_jpg, statue).
holds(s_11954_jpg, pipe).
holds(s_11954_jpg, car).
holds(s_11954_jpg, residential).

sample(s_7543_jpg).
holds(s_7543_jpg, building).
holds(s_7543_jpg, feature).
holds(s_7543_jpg, constructionsite).
holds(s_7543_jpg, door).
holds(s_7543_jpg, awning).
holds(s_7543_jpg, billboard).
holds(s_7543_jpg, porch).
holds(s_7543_jpg, tiledrooftop).
holds(s_7543_jpg, vendingmachine).
holds(s_7543_jpg, wallsign).
holds(s_7543_jpg, statue).
holds(s_7543_jpg, chimney).
holds(s_7543_jpg, pipe).
holds(s_7543_jpg, machine).
holds(s_7543_jpg, industrial).

sample(s_3538_jpg).
holds(s_3538_jpg, building).
holds(s_3538_jpg, feature).
holds(s_3538_jpg, constructionsite).
holds(s_3538_jpg, awning).
holds(s_3538_jpg, porch).
holds(s_3538_jpg, tiledrooftop).
holds(s_3538_jpg, wallsign).
holds(s_3538_jpg, chimney).
holds(s_3538_jpg, pipe).
holds(s_3538_jpg, machine).
holds(s_3538_jpg, industrial).

sample(s_13339_jpg).
holds(s_13339_jpg, building).
holds(s_13339_jpg, feature).
holds(s_13339_jpg, constructionsite).
holds(s_13339_jpg, awning).
holds(s_13339_jpg, billboard).
holds(s_13339_jpg, porch).
holds(s_13339_jpg, tiledrooftop).
holds(s_13339_jpg, chimney).
holds(s_13339_jpg, machine).
holds(s_13339_jpg, industrial).

sample(s_2515_jpg).
holds(s_2515_jpg, building).
holds(s_2515_jpg, feature).
holds(s_2515_jpg, constructionsite).
holds(s_2515_jpg, awning).
holds(s_2515_jpg, billboard).
holds(s_2515_jpg, porch).
holds(s_2515_jpg, tiledrooftop).
holds(s_2515_jpg, wallsign).
holds(s_2515_jpg, chimney).
holds(s_2515_jpg, pipe).
holds(s_2515_jpg, machine).
holds(s_2515_jpg, industrial).

sample(s_9605_jpg).
holds(s_9605_jpg, building).
holds(s_9605_jpg, feature).
holds(s_9605_jpg, suburban).
holds(s_9605_jpg, door).
holds(s_9605_jpg, window).
holds(s_9605_jpg, awning).
holds(s_9605_jpg, table).
holds(s_9605_jpg, tiledrooftop).
holds(s_9605_jpg, vendingmachine).
holds(s_9605_jpg, wallsign).
holds(s_9605_jpg, statue).
holds(s_9605_jpg, pipe).
holds(s_9605_jpg, car).
holds(s_9605_jpg, residential).

sample(s_2397_jpg).
holds(s_2397_jpg, building).
holds(s_2397_jpg, feature).
holds(s_2397_jpg, hotel).
holds(s_2397_jpg, door).
holds(s_2397_jpg, awning).
holds(s_2397_jpg, billboard).
holds(s_2397_jpg, porch).
holds(s_2397_jpg, sign).
holds(s_2397_jpg, tiledrooftop).
holds(s_2397_jpg, chimney).
holds(s_2397_jpg, pipe).
holds(s_2397_jpg, machine).
holds(s_2397_jpg, truck).
holds(s_2397_jpg, commercial).

sample(s_6961_jpg).
holds(s_6961_jpg, building).
holds(s_6961_jpg, feature).
holds(s_6961_jpg, constructionsite).
holds(s_6961_jpg, awning).
holds(s_6961_jpg, billboard).
holds(s_6961_jpg, porch).
holds(s_6961_jpg, tiledrooftop).
holds(s_6961_jpg, chimney).
holds(s_6961_jpg, machine).
holds(s_6961_jpg, industrial).

sample(s_8855_jpg).
holds(s_8855_jpg, building).
holds(s_8855_jpg, feature).
holds(s_8855_jpg, suburban).
holds(s_8855_jpg, door).
holds(s_8855_jpg, window).
holds(s_8855_jpg, awning).
holds(s_8855_jpg, porch).
holds(s_8855_jpg, tiledrooftop).
holds(s_8855_jpg, vendingmachine).
holds(s_8855_jpg, wallsign).
holds(s_8855_jpg, statue).
holds(s_8855_jpg, pipe).
holds(s_8855_jpg, residential).

sample(s_10538_jpg).
holds(s_10538_jpg, building).
holds(s_10538_jpg, feature).
holds(s_10538_jpg, suburban).
holds(s_10538_jpg, door).
holds(s_10538_jpg, window).
holds(s_10538_jpg, awning).
holds(s_10538_jpg, porch).
holds(s_10538_jpg, tiledrooftop).
holds(s_10538_jpg, vendingmachine).
holds(s_10538_jpg, wallsign).
holds(s_10538_jpg, statue).
holds(s_10538_jpg, residential).

sample(s_1298_jpg).
holds(s_1298_jpg, building).
holds(s_1298_jpg, feature).
holds(s_1298_jpg, suburban).
holds(s_1298_jpg, door).
holds(s_1298_jpg, awning).
holds(s_1298_jpg, billboard).
holds(s_1298_jpg, porch).
holds(s_1298_jpg, vendingmachine).
holds(s_1298_jpg, wallsign).
holds(s_1298_jpg, statue).
holds(s_1298_jpg, chimney).
holds(s_1298_jpg, pipe).
holds(s_1298_jpg, machine).
holds(s_1298_jpg, truck).
holds(s_1298_jpg, car).
holds(s_1298_jpg, residential).

sample(s_15932_jpg).
holds(s_15932_jpg, building).
holds(s_15932_jpg, feature).
holds(s_15932_jpg, suburban).
holds(s_15932_jpg, door).
holds(s_15932_jpg, window).
holds(s_15932_jpg, awning).
holds(s_15932_jpg, table).
holds(s_15932_jpg, tiledrooftop).
holds(s_15932_jpg, vendingmachine).
holds(s_15932_jpg, wallsign).
holds(s_15932_jpg, statue).
holds(s_15932_jpg, pipe).
holds(s_15932_jpg, car).
holds(s_15932_jpg, residential).

sample(s_8738_jpg).
holds(s_8738_jpg, building).
holds(s_8738_jpg, feature).
holds(s_8738_jpg, suburban).
holds(s_8738_jpg, door).
holds(s_8738_jpg, awning).
holds(s_8738_jpg, porch).
holds(s_8738_jpg, table).
holds(s_8738_jpg, tiledrooftop).
holds(s_8738_jpg, vendingmachine).
holds(s_8738_jpg, wallsign).
holds(s_8738_jpg, statue).
holds(s_8738_jpg, chimney).
holds(s_8738_jpg, pipe).
holds(s_8738_jpg, truck).
holds(s_8738_jpg, car).
holds(s_8738_jpg, residential).

sample(s_11898_jpg).
holds(s_11898_jpg, building).
holds(s_11898_jpg, feature).
holds(s_11898_jpg, hotel).
holds(s_11898_jpg, door).
holds(s_11898_jpg, awning).
holds(s_11898_jpg, billboard).
holds(s_11898_jpg, porch).
holds(s_11898_jpg, sign).
holds(s_11898_jpg, tiledrooftop).
holds(s_11898_jpg, statue).
holds(s_11898_jpg, chimney).
holds(s_11898_jpg, pipe).
holds(s_11898_jpg, machine).
holds(s_11898_jpg, commercial).

sample(s_11440_jpg).
holds(s_11440_jpg, building).
holds(s_11440_jpg, feature).
holds(s_11440_jpg, constructionsite).
holds(s_11440_jpg, awning).
holds(s_11440_jpg, billboard).
holds(s_11440_jpg, porch).
holds(s_11440_jpg, tiledrooftop).
holds(s_11440_jpg, wallsign).
holds(s_11440_jpg, chimney).
holds(s_11440_jpg, pipe).
holds(s_11440_jpg, machine).
holds(s_11440_jpg, industrial).

sample(s_10489_jpg).
holds(s_10489_jpg, building).
holds(s_10489_jpg, feature).
holds(s_10489_jpg, constructionsite).
holds(s_10489_jpg, door).
holds(s_10489_jpg, awning).
holds(s_10489_jpg, billboard).
holds(s_10489_jpg, porch).
holds(s_10489_jpg, tiledrooftop).
holds(s_10489_jpg, wallsign).
holds(s_10489_jpg, chimney).
holds(s_10489_jpg, pipe).
holds(s_10489_jpg, machine).
holds(s_10489_jpg, industrial).

sample(s_4404_jpg).
holds(s_4404_jpg, building).
holds(s_4404_jpg, feature).
holds(s_4404_jpg, hotel).
holds(s_4404_jpg, door).
holds(s_4404_jpg, awning).
holds(s_4404_jpg, billboard).
holds(s_4404_jpg, porch).
holds(s_4404_jpg, sign).
holds(s_4404_jpg, tiledrooftop).
holds(s_4404_jpg, statue).
holds(s_4404_jpg, pipe).
holds(s_4404_jpg, machine).
holds(s_4404_jpg, commercial).

sample(s_3570_jpg).
holds(s_3570_jpg, building).
holds(s_3570_jpg, feature).
holds(s_3570_jpg, hotel).
holds(s_3570_jpg, door).
holds(s_3570_jpg, awning).
holds(s_3570_jpg, porch).
holds(s_3570_jpg, sign).
holds(s_3570_jpg, tiledrooftop).
holds(s_3570_jpg, statue).
holds(s_3570_jpg, pipe).
holds(s_3570_jpg, machine).
holds(s_3570_jpg, commercial).

sample(s_9064_jpg).
holds(s_9064_jpg, building).
holds(s_9064_jpg, feature).
holds(s_9064_jpg, constructionsite).
holds(s_9064_jpg, awning).
holds(s_9064_jpg, billboard).
holds(s_9064_jpg, porch).
holds(s_9064_jpg, tiledrooftop).
holds(s_9064_jpg, wallsign).
holds(s_9064_jpg, chimney).
holds(s_9064_jpg, pipe).
holds(s_9064_jpg, machine).
holds(s_9064_jpg, industrial).

sample(s_3040_jpg).
holds(s_3040_jpg, building).
holds(s_3040_jpg, feature).
holds(s_3040_jpg, constructionsite).
holds(s_3040_jpg, awning).
holds(s_3040_jpg, billboard).
holds(s_3040_jpg, porch).
holds(s_3040_jpg, tiledrooftop).
holds(s_3040_jpg, wallsign).
holds(s_3040_jpg, chimney).
holds(s_3040_jpg, pipe).
holds(s_3040_jpg, machine).
holds(s_3040_jpg, industrial).

sample(s_1368_jpg).
holds(s_1368_jpg, building).
holds(s_1368_jpg, feature).
holds(s_1368_jpg, hotel).
holds(s_1368_jpg, door).
holds(s_1368_jpg, awning).
holds(s_1368_jpg, porch).
holds(s_1368_jpg, sign).
holds(s_1368_jpg, tiledrooftop).
holds(s_1368_jpg, statue).
holds(s_1368_jpg, machine).
holds(s_1368_jpg, commercial).

sample(s_14591_jpg).
holds(s_14591_jpg, building).
holds(s_14591_jpg, feature).
holds(s_14591_jpg, suburban).
holds(s_14591_jpg, door).
holds(s_14591_jpg, window).
holds(s_14591_jpg, awning).
holds(s_14591_jpg, porch).
holds(s_14591_jpg, tiledrooftop).
holds(s_14591_jpg, vendingmachine).
holds(s_14591_jpg, wallsign).
holds(s_14591_jpg, statue).
holds(s_14591_jpg, residential).

sample(s_11431_jpg).
holds(s_11431_jpg, building).
holds(s_11431_jpg, feature).
holds(s_11431_jpg, constructionsite).
holds(s_11431_jpg, awning).
holds(s_11431_jpg, billboard).
holds(s_11431_jpg, porch).
holds(s_11431_jpg, tiledrooftop).
holds(s_11431_jpg, chimney).
holds(s_11431_jpg, machine).
holds(s_11431_jpg, industrial).

sample(s_2060_jpg).
holds(s_2060_jpg, building).
holds(s_2060_jpg, feature).
holds(s_2060_jpg, suburban).
holds(s_2060_jpg, door).
holds(s_2060_jpg, window).
holds(s_2060_jpg, awning).
holds(s_2060_jpg, porch).
holds(s_2060_jpg, tiledrooftop).
holds(s_2060_jpg, vendingmachine).
holds(s_2060_jpg, statue).
holds(s_2060_jpg, pipe).
holds(s_2060_jpg, residential).

sample(s_14225_jpg).
holds(s_14225_jpg, building).
holds(s_14225_jpg, feature).
holds(s_14225_jpg, suburban).
holds(s_14225_jpg, door).
holds(s_14225_jpg, window).
holds(s_14225_jpg, awning).
holds(s_14225_jpg, porch).
holds(s_14225_jpg, tiledrooftop).
holds(s_14225_jpg, vendingmachine).
holds(s_14225_jpg, statue).
holds(s_14225_jpg, residential).

sample(s_12887_jpg).
holds(s_12887_jpg, building).
holds(s_12887_jpg, feature).
holds(s_12887_jpg, suburban).
holds(s_12887_jpg, door).
holds(s_12887_jpg, window).
holds(s_12887_jpg, awning).
holds(s_12887_jpg, porch).
holds(s_12887_jpg, table).
holds(s_12887_jpg, tiledrooftop).
holds(s_12887_jpg, vendingmachine).
holds(s_12887_jpg, wallsign).
holds(s_12887_jpg, statue).
holds(s_12887_jpg, residential).

sample(s_8851_jpg).
holds(s_8851_jpg, building).
holds(s_8851_jpg, feature).
holds(s_8851_jpg, constructionsite).
holds(s_8851_jpg, awning).
holds(s_8851_jpg, billboard).
holds(s_8851_jpg, porch).
holds(s_8851_jpg, tiledrooftop).
holds(s_8851_jpg, vendingmachine).
holds(s_8851_jpg, wallsign).
holds(s_8851_jpg, chimney).
holds(s_8851_jpg, pipe).
holds(s_8851_jpg, machine).
holds(s_8851_jpg, industrial).

sample(s_6633_jpg).
holds(s_6633_jpg, building).
holds(s_6633_jpg, feature).
holds(s_6633_jpg, door).
holds(s_6633_jpg, window).
holds(s_6633_jpg, awning).
holds(s_6633_jpg, porch).
holds(s_6633_jpg, tiledrooftop).
holds(s_6633_jpg, vendingmachine).
holds(s_6633_jpg, statue).
holds(s_6633_jpg, machine).
holds(s_6633_jpg, residential).

sample(s_5080_jpg).
holds(s_5080_jpg, building).
holds(s_5080_jpg, feature).
holds(s_5080_jpg, constructionsite).
holds(s_5080_jpg, awning).
holds(s_5080_jpg, billboard).
holds(s_5080_jpg, porch).
holds(s_5080_jpg, tiledrooftop).
holds(s_5080_jpg, wallsign).
holds(s_5080_jpg, chimney).
holds(s_5080_jpg, pipe).
holds(s_5080_jpg, machine).
holds(s_5080_jpg, industrial).

sample(s_3152_jpg).
holds(s_3152_jpg, building).
holds(s_3152_jpg, feature).
holds(s_3152_jpg, suburban).
holds(s_3152_jpg, door).
holds(s_3152_jpg, window).
holds(s_3152_jpg, awning).
holds(s_3152_jpg, porch).
holds(s_3152_jpg, table).
holds(s_3152_jpg, tiledrooftop).
holds(s_3152_jpg, vendingmachine).
holds(s_3152_jpg, wallsign).
holds(s_3152_jpg, statue).
holds(s_3152_jpg, pipe).
holds(s_3152_jpg, residential).

sample(s_1845_jpg).
holds(s_1845_jpg, building).
holds(s_1845_jpg, feature).
holds(s_1845_jpg, hotel).
holds(s_1845_jpg, door).
holds(s_1845_jpg, awning).
holds(s_1845_jpg, billboard).
holds(s_1845_jpg, porch).
holds(s_1845_jpg, sign).
holds(s_1845_jpg, tiledrooftop).
holds(s_1845_jpg, pipe).
holds(s_1845_jpg, machine).
holds(s_1845_jpg, commercial).

sample(s_4691_jpg).
holds(s_4691_jpg, building).
holds(s_4691_jpg, feature).
holds(s_4691_jpg, suburban).
holds(s_4691_jpg, door).
holds(s_4691_jpg, window).
holds(s_4691_jpg, awning).
holds(s_4691_jpg, porch).
holds(s_4691_jpg, tiledrooftop).
holds(s_4691_jpg, vendingmachine).
holds(s_4691_jpg, statue).
holds(s_4691_jpg, residential).

sample(s_11541_jpg).
holds(s_11541_jpg, building).
holds(s_11541_jpg, feature).
holds(s_11541_jpg, hotel).
holds(s_11541_jpg, door).
holds(s_11541_jpg, awning).
holds(s_11541_jpg, billboard).
holds(s_11541_jpg, porch).
holds(s_11541_jpg, tiledrooftop).
holds(s_11541_jpg, statue).
holds(s_11541_jpg, chimney).
holds(s_11541_jpg, machine).
holds(s_11541_jpg, commercial).

sample(s_13267_jpg).
holds(s_13267_jpg, building).
holds(s_13267_jpg, feature).
holds(s_13267_jpg, constructionsite).
holds(s_13267_jpg, door).
holds(s_13267_jpg, awning).
holds(s_13267_jpg, billboard).
holds(s_13267_jpg, porch).
holds(s_13267_jpg, tiledrooftop).
holds(s_13267_jpg, wallsign).
holds(s_13267_jpg, chimney).
holds(s_13267_jpg, pipe).
holds(s_13267_jpg, machine).
holds(s_13267_jpg, industrial).

sample(s_15074_jpg).
holds(s_15074_jpg, building).
holds(s_15074_jpg, feature).
holds(s_15074_jpg, suburban).
holds(s_15074_jpg, door).
holds(s_15074_jpg, window).
holds(s_15074_jpg, awning).
holds(s_15074_jpg, porch).
holds(s_15074_jpg, table).
holds(s_15074_jpg, tiledrooftop).
holds(s_15074_jpg, vendingmachine).
holds(s_15074_jpg, wallsign).
holds(s_15074_jpg, statue).
holds(s_15074_jpg, pipe).
holds(s_15074_jpg, residential).

sample(s_9589_jpg).
holds(s_9589_jpg, building).
holds(s_9589_jpg, feature).
holds(s_9589_jpg, constructionsite).
holds(s_9589_jpg, awning).
holds(s_9589_jpg, billboard).
holds(s_9589_jpg, porch).
holds(s_9589_jpg, tiledrooftop).
holds(s_9589_jpg, wallsign).
holds(s_9589_jpg, chimney).
holds(s_9589_jpg, pipe).
holds(s_9589_jpg, machine).
holds(s_9589_jpg, industrial).

sample(s_11445_jpg).
holds(s_11445_jpg, building).
holds(s_11445_jpg, feature).
holds(s_11445_jpg, hotel).
holds(s_11445_jpg, door).
holds(s_11445_jpg, awning).
holds(s_11445_jpg, billboard).
holds(s_11445_jpg, porch).
holds(s_11445_jpg, sign).
holds(s_11445_jpg, tiledrooftop).
holds(s_11445_jpg, chimney).
holds(s_11445_jpg, pipe).
holds(s_11445_jpg, machine).
holds(s_11445_jpg, commercial).

sample(s_14188_jpg).
holds(s_14188_jpg, building).
holds(s_14188_jpg, feature).
holds(s_14188_jpg, constructionsite).
holds(s_14188_jpg, awning).
holds(s_14188_jpg, billboard).
holds(s_14188_jpg, porch).
holds(s_14188_jpg, tiledrooftop).
holds(s_14188_jpg, wallsign).
holds(s_14188_jpg, chimney).
holds(s_14188_jpg, pipe).
holds(s_14188_jpg, machine).
holds(s_14188_jpg, industrial).

sample(s_6082_jpg).
holds(s_6082_jpg, building).
holds(s_6082_jpg, feature).
holds(s_6082_jpg, constructionsite).
holds(s_6082_jpg, door).
holds(s_6082_jpg, awning).
holds(s_6082_jpg, billboard).
holds(s_6082_jpg, porch).
holds(s_6082_jpg, tiledrooftop).
holds(s_6082_jpg, vendingmachine).
holds(s_6082_jpg, wallsign).
holds(s_6082_jpg, statue).
holds(s_6082_jpg, chimney).
holds(s_6082_jpg, pipe).
holds(s_6082_jpg, machine).
holds(s_6082_jpg, industrial).

sample(s_13027_jpg).
holds(s_13027_jpg, building).
holds(s_13027_jpg, feature).
holds(s_13027_jpg, constructionsite).
holds(s_13027_jpg, awning).
holds(s_13027_jpg, billboard).
holds(s_13027_jpg, porch).
holds(s_13027_jpg, tiledrooftop).
holds(s_13027_jpg, wallsign).
holds(s_13027_jpg, chimney).
holds(s_13027_jpg, pipe).
holds(s_13027_jpg, machine).
holds(s_13027_jpg, industrial).

sample(s_4627_jpg).
holds(s_4627_jpg, building).
holds(s_4627_jpg, feature).
holds(s_4627_jpg, constructionsite).
holds(s_4627_jpg, awning).
holds(s_4627_jpg, billboard).
holds(s_4627_jpg, porch).
holds(s_4627_jpg, tiledrooftop).
holds(s_4627_jpg, wallsign).
holds(s_4627_jpg, chimney).
holds(s_4627_jpg, machine).
holds(s_4627_jpg, industrial).

sample(s_2929_jpg).
holds(s_2929_jpg, building).
holds(s_2929_jpg, feature).
holds(s_2929_jpg, constructionsite).
holds(s_2929_jpg, awning).
holds(s_2929_jpg, billboard).
holds(s_2929_jpg, porch).
holds(s_2929_jpg, tiledrooftop).
holds(s_2929_jpg, wallsign).
holds(s_2929_jpg, chimney).
holds(s_2929_jpg, pipe).
holds(s_2929_jpg, machine).
holds(s_2929_jpg, industrial).

sample(s_11727_jpg).
holds(s_11727_jpg, building).
holds(s_11727_jpg, feature).
holds(s_11727_jpg, hotel).
holds(s_11727_jpg, door).
holds(s_11727_jpg, awning).
holds(s_11727_jpg, billboard).
holds(s_11727_jpg, porch).
holds(s_11727_jpg, tiledrooftop).
holds(s_11727_jpg, statue).
holds(s_11727_jpg, chimney).
holds(s_11727_jpg, pipe).
holds(s_11727_jpg, machine).
holds(s_11727_jpg, truck).
holds(s_11727_jpg, commercial).

sample(s_10847_jpg).
holds(s_10847_jpg, building).
holds(s_10847_jpg, feature).
holds(s_10847_jpg, suburban).
holds(s_10847_jpg, door).
holds(s_10847_jpg, window).
holds(s_10847_jpg, awning).
holds(s_10847_jpg, porch).
holds(s_10847_jpg, tiledrooftop).
holds(s_10847_jpg, vendingmachine).
holds(s_10847_jpg, statue).
holds(s_10847_jpg, residential).

sample(s_5885_jpg).
holds(s_5885_jpg, building).
holds(s_5885_jpg, feature).
holds(s_5885_jpg, suburban).
holds(s_5885_jpg, door).
holds(s_5885_jpg, window).
holds(s_5885_jpg, awning).
holds(s_5885_jpg, porch).
holds(s_5885_jpg, tiledrooftop).
holds(s_5885_jpg, vendingmachine).
holds(s_5885_jpg, wallsign).
holds(s_5885_jpg, statue).
holds(s_5885_jpg, pipe).
holds(s_5885_jpg, residential).

sample(s_11008_jpg).
holds(s_11008_jpg, building).
holds(s_11008_jpg, feature).
holds(s_11008_jpg, constructionsite).
holds(s_11008_jpg, door).
holds(s_11008_jpg, awning).
holds(s_11008_jpg, porch).
holds(s_11008_jpg, tiledrooftop).
holds(s_11008_jpg, vendingmachine).
holds(s_11008_jpg, wallsign).
holds(s_11008_jpg, statue).
holds(s_11008_jpg, chimney).
holds(s_11008_jpg, pipe).
holds(s_11008_jpg, machine).
holds(s_11008_jpg, industrial).

sample(s_1877_jpg).
holds(s_1877_jpg, building).
holds(s_1877_jpg, feature).
holds(s_1877_jpg, door).
holds(s_1877_jpg, awning).
holds(s_1877_jpg, billboard).
holds(s_1877_jpg, porch).
holds(s_1877_jpg, tiledrooftop).
holds(s_1877_jpg, vendingmachine).
holds(s_1877_jpg, wallsign).
holds(s_1877_jpg, statue).
holds(s_1877_jpg, chimney).
holds(s_1877_jpg, pipe).
holds(s_1877_jpg, machine).
holds(s_1877_jpg, truck).
holds(s_1877_jpg, commercial).

sample(s_71_jpg).
holds(s_71_jpg, building).
holds(s_71_jpg, feature).
holds(s_71_jpg, suburban).
holds(s_71_jpg, door).
holds(s_71_jpg, window).
holds(s_71_jpg, awning).
holds(s_71_jpg, porch).
holds(s_71_jpg, table).
holds(s_71_jpg, tiledrooftop).
holds(s_71_jpg, vendingmachine).
holds(s_71_jpg, wallsign).
holds(s_71_jpg, statue).
holds(s_71_jpg, pipe).
holds(s_71_jpg, car).
holds(s_71_jpg, residential).

sample(s_9824_jpg).
holds(s_9824_jpg, building).
holds(s_9824_jpg, feature).
holds(s_9824_jpg, suburban).
holds(s_9824_jpg, door).
holds(s_9824_jpg, window).
holds(s_9824_jpg, awning).
holds(s_9824_jpg, porch).
holds(s_9824_jpg, tiledrooftop).
holds(s_9824_jpg, vendingmachine).
holds(s_9824_jpg, statue).
holds(s_9824_jpg, residential).

sample(s_6308_jpg).
holds(s_6308_jpg, building).
holds(s_6308_jpg, feature).
holds(s_6308_jpg, suburban).
holds(s_6308_jpg, door).
holds(s_6308_jpg, window).
holds(s_6308_jpg, awning).
holds(s_6308_jpg, porch).
holds(s_6308_jpg, tiledrooftop).
holds(s_6308_jpg, vendingmachine).
holds(s_6308_jpg, statue).
holds(s_6308_jpg, residential).

sample(s_5836_jpg).
holds(s_5836_jpg, building).
holds(s_5836_jpg, feature).
holds(s_5836_jpg, constructionsite).
holds(s_5836_jpg, awning).
holds(s_5836_jpg, billboard).
holds(s_5836_jpg, porch).
holds(s_5836_jpg, tiledrooftop).
holds(s_5836_jpg, wallsign).
holds(s_5836_jpg, chimney).
holds(s_5836_jpg, pipe).
holds(s_5836_jpg, machine).
holds(s_5836_jpg, industrial).

sample(s_14615_jpg).
holds(s_14615_jpg, building).
holds(s_14615_jpg, feature).
holds(s_14615_jpg, suburban).
holds(s_14615_jpg, door).
holds(s_14615_jpg, window).
holds(s_14615_jpg, awning).
holds(s_14615_jpg, table).
holds(s_14615_jpg, tiledrooftop).
holds(s_14615_jpg, vendingmachine).
holds(s_14615_jpg, wallsign).
holds(s_14615_jpg, statue).
holds(s_14615_jpg, pipe).
holds(s_14615_jpg, car).
holds(s_14615_jpg, residential).

sample(s_14501_jpg).
holds(s_14501_jpg, building).
holds(s_14501_jpg, feature).
holds(s_14501_jpg, suburban).
holds(s_14501_jpg, door).
holds(s_14501_jpg, window).
holds(s_14501_jpg, awning).
holds(s_14501_jpg, porch).
holds(s_14501_jpg, tiledrooftop).
holds(s_14501_jpg, vendingmachine).
holds(s_14501_jpg, statue).
holds(s_14501_jpg, pipe).
holds(s_14501_jpg, truck).
holds(s_14501_jpg, residential).

sample(s_12328_jpg).
holds(s_12328_jpg, building).
holds(s_12328_jpg, feature).
holds(s_12328_jpg, constructionsite).
holds(s_12328_jpg, door).
holds(s_12328_jpg, awning).
holds(s_12328_jpg, billboard).
holds(s_12328_jpg, porch).
holds(s_12328_jpg, tiledrooftop).
holds(s_12328_jpg, vendingmachine).
holds(s_12328_jpg, wallsign).
holds(s_12328_jpg, statue).
holds(s_12328_jpg, chimney).
holds(s_12328_jpg, pipe).
holds(s_12328_jpg, machine).
holds(s_12328_jpg, industrial).

sample(s_4411_jpg).
holds(s_4411_jpg, building).
holds(s_4411_jpg, feature).
holds(s_4411_jpg, constructionsite).
holds(s_4411_jpg, awning).
holds(s_4411_jpg, billboard).
holds(s_4411_jpg, porch).
holds(s_4411_jpg, tiledrooftop).
holds(s_4411_jpg, wallsign).
holds(s_4411_jpg, chimney).
holds(s_4411_jpg, pipe).
holds(s_4411_jpg, machine).
holds(s_4411_jpg, industrial).

sample(s_2255_jpg).
holds(s_2255_jpg, building).
holds(s_2255_jpg, feature).
holds(s_2255_jpg, suburban).
holds(s_2255_jpg, door).
holds(s_2255_jpg, window).
holds(s_2255_jpg, awning).
holds(s_2255_jpg, porch).
holds(s_2255_jpg, tiledrooftop).
holds(s_2255_jpg, vendingmachine).
holds(s_2255_jpg, statue).
holds(s_2255_jpg, residential).

sample(s_4623_jpg).
holds(s_4623_jpg, building).
holds(s_4623_jpg, feature).
holds(s_4623_jpg, hotel).
holds(s_4623_jpg, door).
holds(s_4623_jpg, awning).
holds(s_4623_jpg, billboard).
holds(s_4623_jpg, porch).
holds(s_4623_jpg, tiledrooftop).
holds(s_4623_jpg, statue).
holds(s_4623_jpg, chimney).
holds(s_4623_jpg, pipe).
holds(s_4623_jpg, machine).
holds(s_4623_jpg, truck).
holds(s_4623_jpg, commercial).

sample(s_11728_jpg).
holds(s_11728_jpg, building).
holds(s_11728_jpg, feature).
holds(s_11728_jpg, constructionsite).
holds(s_11728_jpg, awning).
holds(s_11728_jpg, billboard).
holds(s_11728_jpg, porch).
holds(s_11728_jpg, tiledrooftop).
holds(s_11728_jpg, wallsign).
holds(s_11728_jpg, chimney).
holds(s_11728_jpg, pipe).
holds(s_11728_jpg, machine).
holds(s_11728_jpg, industrial).

sample(s_2597_jpg).
holds(s_2597_jpg, building).
holds(s_2597_jpg, feature).
holds(s_2597_jpg, suburban).
holds(s_2597_jpg, door).
holds(s_2597_jpg, window).
holds(s_2597_jpg, awning).
holds(s_2597_jpg, porch).
holds(s_2597_jpg, tiledrooftop).
holds(s_2597_jpg, vendingmachine).
holds(s_2597_jpg, statue).
holds(s_2597_jpg, pipe).
holds(s_2597_jpg, residential).

sample(s_11519_jpg).
holds(s_11519_jpg, building).
holds(s_11519_jpg, feature).
holds(s_11519_jpg, suburban).
holds(s_11519_jpg, door).
holds(s_11519_jpg, window).
holds(s_11519_jpg, awning).
holds(s_11519_jpg, porch).
holds(s_11519_jpg, tiledrooftop).
holds(s_11519_jpg, vendingmachine).
holds(s_11519_jpg, statue).
holds(s_11519_jpg, residential).

sample(s_15174_jpg).
holds(s_15174_jpg, building).
holds(s_15174_jpg, feature).
holds(s_15174_jpg, hotel).
holds(s_15174_jpg, door).
holds(s_15174_jpg, awning).
holds(s_15174_jpg, billboard).
holds(s_15174_jpg, porch).
holds(s_15174_jpg, sign).
holds(s_15174_jpg, tiledrooftop).
holds(s_15174_jpg, pipe).
holds(s_15174_jpg, machine).
holds(s_15174_jpg, commercial).

sample(s_3609_jpg).
holds(s_3609_jpg, building).
holds(s_3609_jpg, feature).
holds(s_3609_jpg, hotel).
holds(s_3609_jpg, door).
holds(s_3609_jpg, awning).
holds(s_3609_jpg, billboard).
holds(s_3609_jpg, porch).
holds(s_3609_jpg, sign).
holds(s_3609_jpg, tiledrooftop).
holds(s_3609_jpg, chimney).
holds(s_3609_jpg, pipe).
holds(s_3609_jpg, machine).
holds(s_3609_jpg, commercial).

sample(s_7513_jpg).
holds(s_7513_jpg, building).
holds(s_7513_jpg, feature).
holds(s_7513_jpg, constructionsite).
holds(s_7513_jpg, awning).
holds(s_7513_jpg, billboard).
holds(s_7513_jpg, porch).
holds(s_7513_jpg, tiledrooftop).
holds(s_7513_jpg, wallsign).
holds(s_7513_jpg, chimney).
holds(s_7513_jpg, pipe).
holds(s_7513_jpg, machine).
holds(s_7513_jpg, industrial).

sample(s_8466_jpg).
holds(s_8466_jpg, building).
holds(s_8466_jpg, feature).
holds(s_8466_jpg, hotel).
holds(s_8466_jpg, door).
holds(s_8466_jpg, awning).
holds(s_8466_jpg, billboard).
holds(s_8466_jpg, porch).
holds(s_8466_jpg, sign).
holds(s_8466_jpg, tiledrooftop).
holds(s_8466_jpg, chimney).
holds(s_8466_jpg, pipe).
holds(s_8466_jpg, machine).
holds(s_8466_jpg, commercial).

sample(s_13591_jpg).
holds(s_13591_jpg, building).
holds(s_13591_jpg, feature).
holds(s_13591_jpg, constructionsite).
holds(s_13591_jpg, door).
holds(s_13591_jpg, awning).
holds(s_13591_jpg, billboard).
holds(s_13591_jpg, porch).
holds(s_13591_jpg, tiledrooftop).
holds(s_13591_jpg, vendingmachine).
holds(s_13591_jpg, wallsign).
holds(s_13591_jpg, chimney).
holds(s_13591_jpg, pipe).
holds(s_13591_jpg, machine).
holds(s_13591_jpg, industrial).

sample(s_4832_jpg).
holds(s_4832_jpg, building).
holds(s_4832_jpg, feature).
holds(s_4832_jpg, suburban).
holds(s_4832_jpg, door).
holds(s_4832_jpg, window).
holds(s_4832_jpg, awning).
holds(s_4832_jpg, porch).
holds(s_4832_jpg, table).
holds(s_4832_jpg, tiledrooftop).
holds(s_4832_jpg, vendingmachine).
holds(s_4832_jpg, wallsign).
holds(s_4832_jpg, statue).
holds(s_4832_jpg, pipe).
holds(s_4832_jpg, car).
holds(s_4832_jpg, residential).

sample(s_5652_jpg).
holds(s_5652_jpg, building).
holds(s_5652_jpg, feature).
holds(s_5652_jpg, hotel).
holds(s_5652_jpg, door).
holds(s_5652_jpg, awning).
holds(s_5652_jpg, porch).
holds(s_5652_jpg, tiledrooftop).
holds(s_5652_jpg, vendingmachine).
holds(s_5652_jpg, statue).
holds(s_5652_jpg, chimney).
holds(s_5652_jpg, pipe).
holds(s_5652_jpg, machine).
holds(s_5652_jpg, commercial).

sample(s_15570_jpg).
holds(s_15570_jpg, building).
holds(s_15570_jpg, feature).
holds(s_15570_jpg, hotel).
holds(s_15570_jpg, door).
holds(s_15570_jpg, awning).
holds(s_15570_jpg, porch).
holds(s_15570_jpg, tiledrooftop).
holds(s_15570_jpg, chimney).
holds(s_15570_jpg, machine).
holds(s_15570_jpg, commercial).

sample(s_3016_jpg).
holds(s_3016_jpg, building).
holds(s_3016_jpg, feature).
holds(s_3016_jpg, constructionsite).
holds(s_3016_jpg, door).
holds(s_3016_jpg, awning).
holds(s_3016_jpg, billboard).
holds(s_3016_jpg, porch).
holds(s_3016_jpg, tiledrooftop).
holds(s_3016_jpg, vendingmachine).
holds(s_3016_jpg, wallsign).
holds(s_3016_jpg, statue).
holds(s_3016_jpg, chimney).
holds(s_3016_jpg, pipe).
holds(s_3016_jpg, machine).
holds(s_3016_jpg, industrial).

sample(s_10326_jpg).
holds(s_10326_jpg, building).
holds(s_10326_jpg, feature).
holds(s_10326_jpg, hotel).
holds(s_10326_jpg, door).
holds(s_10326_jpg, awning).
holds(s_10326_jpg, billboard).
holds(s_10326_jpg, porch).
holds(s_10326_jpg, sign).
holds(s_10326_jpg, tiledrooftop).
holds(s_10326_jpg, chimney).
holds(s_10326_jpg, pipe).
holds(s_10326_jpg, machine).
holds(s_10326_jpg, commercial).

sample(s_4297_jpg).
holds(s_4297_jpg, building).
holds(s_4297_jpg, feature).
holds(s_4297_jpg, constructionsite).
holds(s_4297_jpg, awning).
holds(s_4297_jpg, billboard).
holds(s_4297_jpg, porch).
holds(s_4297_jpg, tiledrooftop).
holds(s_4297_jpg, wallsign).
holds(s_4297_jpg, chimney).
holds(s_4297_jpg, pipe).
holds(s_4297_jpg, machine).
holds(s_4297_jpg, industrial).

sample(s_5766_jpg).
holds(s_5766_jpg, building).
holds(s_5766_jpg, feature).
holds(s_5766_jpg, hotel).
holds(s_5766_jpg, door).
holds(s_5766_jpg, awning).
holds(s_5766_jpg, porch).
holds(s_5766_jpg, sign).
holds(s_5766_jpg, tiledrooftop).
holds(s_5766_jpg, statue).
holds(s_5766_jpg, machine).
holds(s_5766_jpg, commercial).

sample(s_13438_jpg).
holds(s_13438_jpg, building).
holds(s_13438_jpg, feature).
holds(s_13438_jpg, constructionsite).
holds(s_13438_jpg, awning).
holds(s_13438_jpg, billboard).
holds(s_13438_jpg, porch).
holds(s_13438_jpg, tiledrooftop).
holds(s_13438_jpg, wallsign).
holds(s_13438_jpg, chimney).
holds(s_13438_jpg, pipe).
holds(s_13438_jpg, machine).
holds(s_13438_jpg, industrial).

sample(s_325_jpg).
holds(s_325_jpg, building).
holds(s_325_jpg, feature).
holds(s_325_jpg, constructionsite).
holds(s_325_jpg, awning).
holds(s_325_jpg, billboard).
holds(s_325_jpg, porch).
holds(s_325_jpg, tiledrooftop).
holds(s_325_jpg, wallsign).
holds(s_325_jpg, chimney).
holds(s_325_jpg, machine).
holds(s_325_jpg, industrial).

sample(s_2273_jpg).
holds(s_2273_jpg, building).
holds(s_2273_jpg, feature).
holds(s_2273_jpg, suburban).
holds(s_2273_jpg, door).
holds(s_2273_jpg, window).
holds(s_2273_jpg, awning).
holds(s_2273_jpg, porch).
holds(s_2273_jpg, tiledrooftop).
holds(s_2273_jpg, vendingmachine).
holds(s_2273_jpg, wallsign).
holds(s_2273_jpg, statue).
holds(s_2273_jpg, pipe).
holds(s_2273_jpg, residential).

sample(s_4643_jpg).
holds(s_4643_jpg, building).
holds(s_4643_jpg, feature).
holds(s_4643_jpg, suburban).
holds(s_4643_jpg, door).
holds(s_4643_jpg, awning).
holds(s_4643_jpg, billboard).
holds(s_4643_jpg, porch).
holds(s_4643_jpg, tiledrooftop).
holds(s_4643_jpg, vendingmachine).
holds(s_4643_jpg, wallsign).
holds(s_4643_jpg, statue).
holds(s_4643_jpg, chimney).
holds(s_4643_jpg, pipe).
holds(s_4643_jpg, machine).
holds(s_4643_jpg, truck).
holds(s_4643_jpg, car).
holds(s_4643_jpg, residential).

sample(s_597_jpg).
holds(s_597_jpg, building).
holds(s_597_jpg, feature).
holds(s_597_jpg, hotel).
holds(s_597_jpg, door).
holds(s_597_jpg, awning).
holds(s_597_jpg, billboard).
holds(s_597_jpg, porch).
holds(s_597_jpg, sign).
holds(s_597_jpg, tiledrooftop).
holds(s_597_jpg, chimney).
holds(s_597_jpg, pipe).
holds(s_597_jpg, machine).
holds(s_597_jpg, commercial).

sample(s_9287_jpg).
holds(s_9287_jpg, building).
holds(s_9287_jpg, feature).
holds(s_9287_jpg, suburban).
holds(s_9287_jpg, door).
holds(s_9287_jpg, window).
holds(s_9287_jpg, awning).
holds(s_9287_jpg, porch).
holds(s_9287_jpg, tiledrooftop).
holds(s_9287_jpg, vendingmachine).
holds(s_9287_jpg, statue).
holds(s_9287_jpg, residential).

sample(s_9467_jpg).
holds(s_9467_jpg, building).
holds(s_9467_jpg, feature).
holds(s_9467_jpg, suburban).
holds(s_9467_jpg, door).
holds(s_9467_jpg, window).
holds(s_9467_jpg, awning).
holds(s_9467_jpg, porch).
holds(s_9467_jpg, tiledrooftop).
holds(s_9467_jpg, vendingmachine).
holds(s_9467_jpg, wallsign).
holds(s_9467_jpg, statue).
holds(s_9467_jpg, pipe).
holds(s_9467_jpg, residential).

sample(s_7648_jpg).
holds(s_7648_jpg, building).
holds(s_7648_jpg, feature).
holds(s_7648_jpg, constructionsite).
holds(s_7648_jpg, awning).
holds(s_7648_jpg, billboard).
holds(s_7648_jpg, porch).
holds(s_7648_jpg, tiledrooftop).
holds(s_7648_jpg, wallsign).
holds(s_7648_jpg, chimney).
holds(s_7648_jpg, pipe).
holds(s_7648_jpg, machine).
holds(s_7648_jpg, industrial).

sample(s_10391_jpg).
holds(s_10391_jpg, building).
holds(s_10391_jpg, feature).
holds(s_10391_jpg, suburban).
holds(s_10391_jpg, door).
holds(s_10391_jpg, window).
holds(s_10391_jpg, awning).
holds(s_10391_jpg, porch).
holds(s_10391_jpg, tiledrooftop).
holds(s_10391_jpg, vendingmachine).
holds(s_10391_jpg, statue).
holds(s_10391_jpg, residential).

sample(s_6827_jpg).
holds(s_6827_jpg, building).
holds(s_6827_jpg, feature).
holds(s_6827_jpg, suburban).
holds(s_6827_jpg, door).
holds(s_6827_jpg, awning).
holds(s_6827_jpg, porch).
holds(s_6827_jpg, tiledrooftop).
holds(s_6827_jpg, vendingmachine).
holds(s_6827_jpg, wallsign).
holds(s_6827_jpg, statue).
holds(s_6827_jpg, chimney).
holds(s_6827_jpg, pipe).
holds(s_6827_jpg, machine).
holds(s_6827_jpg, truck).
holds(s_6827_jpg, car).
holds(s_6827_jpg, residential).

sample(s_15981_jpg).
holds(s_15981_jpg, building).
holds(s_15981_jpg, feature).
holds(s_15981_jpg, hotel).
holds(s_15981_jpg, door).
holds(s_15981_jpg, awning).
holds(s_15981_jpg, billboard).
holds(s_15981_jpg, porch).
holds(s_15981_jpg, tiledrooftop).
holds(s_15981_jpg, statue).
holds(s_15981_jpg, chimney).
holds(s_15981_jpg, pipe).
holds(s_15981_jpg, machine).
holds(s_15981_jpg, truck).
holds(s_15981_jpg, commercial).

sample(s_15434_jpg).
holds(s_15434_jpg, building).
holds(s_15434_jpg, feature).
holds(s_15434_jpg, suburban).
holds(s_15434_jpg, door).
holds(s_15434_jpg, window).
holds(s_15434_jpg, awning).
holds(s_15434_jpg, porch).
holds(s_15434_jpg, tiledrooftop).
holds(s_15434_jpg, vendingmachine).
holds(s_15434_jpg, statue).
holds(s_15434_jpg, residential).

sample(s_10527_jpg).
holds(s_10527_jpg, building).
holds(s_10527_jpg, feature).
holds(s_10527_jpg, hotel).
holds(s_10527_jpg, door).
holds(s_10527_jpg, awning).
holds(s_10527_jpg, billboard).
holds(s_10527_jpg, porch).
holds(s_10527_jpg, sign).
holds(s_10527_jpg, tiledrooftop).
holds(s_10527_jpg, chimney).
holds(s_10527_jpg, pipe).
holds(s_10527_jpg, machine).
holds(s_10527_jpg, truck).
holds(s_10527_jpg, commercial).

sample(s_7716_jpg).
holds(s_7716_jpg, building).
holds(s_7716_jpg, feature).
holds(s_7716_jpg, hotel).
holds(s_7716_jpg, door).
holds(s_7716_jpg, awning).
holds(s_7716_jpg, porch).
holds(s_7716_jpg, tiledrooftop).
holds(s_7716_jpg, statue).
holds(s_7716_jpg, chimney).
holds(s_7716_jpg, pipe).
holds(s_7716_jpg, machine).
holds(s_7716_jpg, commercial).

sample(s_10252_jpg).
holds(s_10252_jpg, building).
holds(s_10252_jpg, feature).
holds(s_10252_jpg, constructionsite).
holds(s_10252_jpg, awning).
holds(s_10252_jpg, billboard).
holds(s_10252_jpg, porch).
holds(s_10252_jpg, tiledrooftop).
holds(s_10252_jpg, wallsign).
holds(s_10252_jpg, chimney).
holds(s_10252_jpg, pipe).
holds(s_10252_jpg, machine).
holds(s_10252_jpg, industrial).

sample(s_4557_jpg).
holds(s_4557_jpg, building).
holds(s_4557_jpg, feature).
holds(s_4557_jpg, hotel).
holds(s_4557_jpg, door).
holds(s_4557_jpg, awning).
holds(s_4557_jpg, porch).
holds(s_4557_jpg, tiledrooftop).
holds(s_4557_jpg, statue).
holds(s_4557_jpg, chimney).
holds(s_4557_jpg, machine).
holds(s_4557_jpg, commercial).

sample(s_2146_jpg).
holds(s_2146_jpg, building).
holds(s_2146_jpg, feature).
holds(s_2146_jpg, constructionsite).
holds(s_2146_jpg, awning).
holds(s_2146_jpg, billboard).
holds(s_2146_jpg, porch).
holds(s_2146_jpg, tiledrooftop).
holds(s_2146_jpg, wallsign).
holds(s_2146_jpg, chimney).
holds(s_2146_jpg, pipe).
holds(s_2146_jpg, machine).
holds(s_2146_jpg, industrial).

sample(s_661_jpg).
holds(s_661_jpg, building).
holds(s_661_jpg, feature).
holds(s_661_jpg, constructionsite).
holds(s_661_jpg, awning).
holds(s_661_jpg, billboard).
holds(s_661_jpg, porch).
holds(s_661_jpg, tiledrooftop).
holds(s_661_jpg, wallsign).
holds(s_661_jpg, chimney).
holds(s_661_jpg, pipe).
holds(s_661_jpg, machine).
holds(s_661_jpg, industrial).

sample(s_8866_jpg).
holds(s_8866_jpg, building).
holds(s_8866_jpg, feature).
holds(s_8866_jpg, constructionsite).
holds(s_8866_jpg, awning).
holds(s_8866_jpg, billboard).
holds(s_8866_jpg, porch).
holds(s_8866_jpg, tiledrooftop).
holds(s_8866_jpg, wallsign).
holds(s_8866_jpg, statue).
holds(s_8866_jpg, chimney).
holds(s_8866_jpg, pipe).
holds(s_8866_jpg, machine).
holds(s_8866_jpg, industrial).

sample(s_13476_jpg).
holds(s_13476_jpg, building).
holds(s_13476_jpg, feature).
holds(s_13476_jpg, hotel).
holds(s_13476_jpg, door).
holds(s_13476_jpg, awning).
holds(s_13476_jpg, billboard).
holds(s_13476_jpg, porch).
holds(s_13476_jpg, sign).
holds(s_13476_jpg, tiledrooftop).
holds(s_13476_jpg, chimney).
holds(s_13476_jpg, pipe).
holds(s_13476_jpg, machine).
holds(s_13476_jpg, commercial).

sample(s_10040_jpg).
holds(s_10040_jpg, building).
holds(s_10040_jpg, feature).
holds(s_10040_jpg, suburban).
holds(s_10040_jpg, door).
holds(s_10040_jpg, window).
holds(s_10040_jpg, awning).
holds(s_10040_jpg, porch).
holds(s_10040_jpg, tiledrooftop).
holds(s_10040_jpg, vendingmachine).
holds(s_10040_jpg, statue).
holds(s_10040_jpg, residential).

sample(s_4794_jpg).
holds(s_4794_jpg, building).
holds(s_4794_jpg, feature).
holds(s_4794_jpg, hotel).
holds(s_4794_jpg, door).
holds(s_4794_jpg, awning).
holds(s_4794_jpg, billboard).
holds(s_4794_jpg, porch).
holds(s_4794_jpg, sign).
holds(s_4794_jpg, tiledrooftop).
holds(s_4794_jpg, statue).
holds(s_4794_jpg, chimney).
holds(s_4794_jpg, machine).
holds(s_4794_jpg, commercial).

sample(s_5903_jpg).
holds(s_5903_jpg, building).
holds(s_5903_jpg, feature).
holds(s_5903_jpg, suburban).
holds(s_5903_jpg, door).
holds(s_5903_jpg, awning).
holds(s_5903_jpg, table).
holds(s_5903_jpg, vendingmachine).
holds(s_5903_jpg, wallsign).
holds(s_5903_jpg, statue).
holds(s_5903_jpg, chimney).
holds(s_5903_jpg, pipe).
holds(s_5903_jpg, truck).
holds(s_5903_jpg, car).
holds(s_5903_jpg, residential).

sample(s_12676_jpg).
holds(s_12676_jpg, building).
holds(s_12676_jpg, feature).
holds(s_12676_jpg, constructionsite).
holds(s_12676_jpg, awning).
holds(s_12676_jpg, billboard).
holds(s_12676_jpg, porch).
holds(s_12676_jpg, tiledrooftop).
holds(s_12676_jpg, chimney).
holds(s_12676_jpg, pipe).
holds(s_12676_jpg, machine).
holds(s_12676_jpg, industrial).

sample(s_6596_jpg).
holds(s_6596_jpg, building).
holds(s_6596_jpg, feature).
holds(s_6596_jpg, suburban).
holds(s_6596_jpg, door).
holds(s_6596_jpg, window).
holds(s_6596_jpg, awning).
holds(s_6596_jpg, porch).
holds(s_6596_jpg, table).
holds(s_6596_jpg, tiledrooftop).
holds(s_6596_jpg, vendingmachine).
holds(s_6596_jpg, wallsign).
holds(s_6596_jpg, statue).
holds(s_6596_jpg, pipe).
holds(s_6596_jpg, truck).
holds(s_6596_jpg, car).
holds(s_6596_jpg, residential).

sample(s_9283_jpg).
holds(s_9283_jpg, building).
holds(s_9283_jpg, feature).
holds(s_9283_jpg, constructionsite).
holds(s_9283_jpg, door).
holds(s_9283_jpg, awning).
holds(s_9283_jpg, billboard).
holds(s_9283_jpg, porch).
holds(s_9283_jpg, tiledrooftop).
holds(s_9283_jpg, wallsign).
holds(s_9283_jpg, chimney).
holds(s_9283_jpg, pipe).
holds(s_9283_jpg, machine).
holds(s_9283_jpg, industrial).

sample(s_8991_jpg).
holds(s_8991_jpg, building).
holds(s_8991_jpg, feature).
holds(s_8991_jpg, hotel).
holds(s_8991_jpg, door).
holds(s_8991_jpg, awning).
holds(s_8991_jpg, billboard).
holds(s_8991_jpg, porch).
holds(s_8991_jpg, sign).
holds(s_8991_jpg, tiledrooftop).
holds(s_8991_jpg, statue).
holds(s_8991_jpg, chimney).
holds(s_8991_jpg, pipe).
holds(s_8991_jpg, machine).
holds(s_8991_jpg, commercial).

sample(s_2200_jpg).
holds(s_2200_jpg, building).
holds(s_2200_jpg, feature).
holds(s_2200_jpg, constructionsite).
holds(s_2200_jpg, awning).
holds(s_2200_jpg, billboard).
holds(s_2200_jpg, porch).
holds(s_2200_jpg, tiledrooftop).
holds(s_2200_jpg, wallsign).
holds(s_2200_jpg, statue).
holds(s_2200_jpg, chimney).
holds(s_2200_jpg, machine).
holds(s_2200_jpg, industrial).

sample(s_13355_jpg).
holds(s_13355_jpg, building).
holds(s_13355_jpg, feature).
holds(s_13355_jpg, suburban).
holds(s_13355_jpg, door).
holds(s_13355_jpg, window).
holds(s_13355_jpg, awning).
holds(s_13355_jpg, porch).
holds(s_13355_jpg, tiledrooftop).
holds(s_13355_jpg, vendingmachine).
holds(s_13355_jpg, wallsign).
holds(s_13355_jpg, statue).
holds(s_13355_jpg, pipe).
holds(s_13355_jpg, residential).

sample(s_1558_jpg).
holds(s_1558_jpg, building).
holds(s_1558_jpg, feature).
holds(s_1558_jpg, constructionsite).
holds(s_1558_jpg, awning).
holds(s_1558_jpg, billboard).
holds(s_1558_jpg, porch).
holds(s_1558_jpg, tiledrooftop).
holds(s_1558_jpg, wallsign).
holds(s_1558_jpg, chimney).
holds(s_1558_jpg, pipe).
holds(s_1558_jpg, machine).
holds(s_1558_jpg, industrial).

sample(s_4845_jpg).
holds(s_4845_jpg, building).
holds(s_4845_jpg, feature).
holds(s_4845_jpg, hotel).
holds(s_4845_jpg, door).
holds(s_4845_jpg, awning).
holds(s_4845_jpg, billboard).
holds(s_4845_jpg, porch).
holds(s_4845_jpg, sign).
holds(s_4845_jpg, tiledrooftop).
holds(s_4845_jpg, statue).
holds(s_4845_jpg, chimney).
holds(s_4845_jpg, pipe).
holds(s_4845_jpg, machine).
holds(s_4845_jpg, commercial).

sample(s_2652_jpg).
holds(s_2652_jpg, building).
holds(s_2652_jpg, feature).
holds(s_2652_jpg, hotel).
holds(s_2652_jpg, door).
holds(s_2652_jpg, awning).
holds(s_2652_jpg, billboard).
holds(s_2652_jpg, porch).
holds(s_2652_jpg, sign).
holds(s_2652_jpg, tiledrooftop).
holds(s_2652_jpg, chimney).
holds(s_2652_jpg, pipe).
holds(s_2652_jpg, machine).
holds(s_2652_jpg, commercial).

sample(s_12111_jpg).
holds(s_12111_jpg, building).
holds(s_12111_jpg, feature).
holds(s_12111_jpg, hotel).
holds(s_12111_jpg, door).
holds(s_12111_jpg, awning).
holds(s_12111_jpg, billboard).
holds(s_12111_jpg, porch).
holds(s_12111_jpg, sign).
holds(s_12111_jpg, tiledrooftop).
holds(s_12111_jpg, pipe).
holds(s_12111_jpg, machine).
holds(s_12111_jpg, commercial).

sample(s_11770_jpg).
holds(s_11770_jpg, building).
holds(s_11770_jpg, feature).
holds(s_11770_jpg, constructionsite).
holds(s_11770_jpg, awning).
holds(s_11770_jpg, billboard).
holds(s_11770_jpg, porch).
holds(s_11770_jpg, tiledrooftop).
holds(s_11770_jpg, wallsign).
holds(s_11770_jpg, chimney).
holds(s_11770_jpg, pipe).
holds(s_11770_jpg, machine).
holds(s_11770_jpg, industrial).

sample(s_4231_jpg).
holds(s_4231_jpg, building).
holds(s_4231_jpg, feature).
holds(s_4231_jpg, constructionsite).
holds(s_4231_jpg, awning).
holds(s_4231_jpg, billboard).
holds(s_4231_jpg, porch).
holds(s_4231_jpg, tiledrooftop).
holds(s_4231_jpg, statue).
holds(s_4231_jpg, chimney).
holds(s_4231_jpg, machine).
holds(s_4231_jpg, industrial).

sample(s_15999_jpg).
holds(s_15999_jpg, building).
holds(s_15999_jpg, feature).
holds(s_15999_jpg, hotel).
holds(s_15999_jpg, door).
holds(s_15999_jpg, awning).
holds(s_15999_jpg, billboard).
holds(s_15999_jpg, porch).
holds(s_15999_jpg, tiledrooftop).
holds(s_15999_jpg, statue).
holds(s_15999_jpg, chimney).
holds(s_15999_jpg, pipe).
holds(s_15999_jpg, machine).
holds(s_15999_jpg, truck).
holds(s_15999_jpg, commercial).

sample(s_10583_jpg).
holds(s_10583_jpg, building).
holds(s_10583_jpg, feature).
holds(s_10583_jpg, door).
holds(s_10583_jpg, awning).
holds(s_10583_jpg, porch).
holds(s_10583_jpg, tiledrooftop).
holds(s_10583_jpg, vendingmachine).
holds(s_10583_jpg, wallsign).
holds(s_10583_jpg, statue).
holds(s_10583_jpg, chimney).
holds(s_10583_jpg, pipe).
holds(s_10583_jpg, machine).

sample(s_2566_jpg).
holds(s_2566_jpg, building).
holds(s_2566_jpg, feature).
holds(s_2566_jpg, constructionsite).
holds(s_2566_jpg, awning).
holds(s_2566_jpg, billboard).
holds(s_2566_jpg, porch).
holds(s_2566_jpg, tiledrooftop).
holds(s_2566_jpg, wallsign).
holds(s_2566_jpg, chimney).
holds(s_2566_jpg, pipe).
holds(s_2566_jpg, machine).
holds(s_2566_jpg, industrial).

sample(s_6180_jpg).
holds(s_6180_jpg, building).
holds(s_6180_jpg, feature).
holds(s_6180_jpg, hotel).
holds(s_6180_jpg, door).
holds(s_6180_jpg, awning).
holds(s_6180_jpg, billboard).
holds(s_6180_jpg, porch).
holds(s_6180_jpg, sign).
holds(s_6180_jpg, tiledrooftop).
holds(s_6180_jpg, statue).
holds(s_6180_jpg, chimney).
holds(s_6180_jpg, machine).
holds(s_6180_jpg, commercial).

sample(s_14791_jpg).
holds(s_14791_jpg, building).
holds(s_14791_jpg, feature).
holds(s_14791_jpg, constructionsite).
holds(s_14791_jpg, awning).
holds(s_14791_jpg, billboard).
holds(s_14791_jpg, porch).
holds(s_14791_jpg, tiledrooftop).
holds(s_14791_jpg, chimney).
holds(s_14791_jpg, pipe).
holds(s_14791_jpg, machine).
holds(s_14791_jpg, industrial).

sample(s_7544_jpg).
holds(s_7544_jpg, building).
holds(s_7544_jpg, feature).
holds(s_7544_jpg, suburban).
holds(s_7544_jpg, door).
holds(s_7544_jpg, window).
holds(s_7544_jpg, awning).
holds(s_7544_jpg, table).
holds(s_7544_jpg, tiledrooftop).
holds(s_7544_jpg, vendingmachine).
holds(s_7544_jpg, wallsign).
holds(s_7544_jpg, statue).
holds(s_7544_jpg, pipe).
holds(s_7544_jpg, residential).

sample(s_8582_jpg).
holds(s_8582_jpg, building).
holds(s_8582_jpg, feature).
holds(s_8582_jpg, suburban).
holds(s_8582_jpg, door).
holds(s_8582_jpg, window).
holds(s_8582_jpg, awning).
holds(s_8582_jpg, porch).
holds(s_8582_jpg, table).
holds(s_8582_jpg, tiledrooftop).
holds(s_8582_jpg, vendingmachine).
holds(s_8582_jpg, wallsign).
holds(s_8582_jpg, statue).
holds(s_8582_jpg, pipe).
holds(s_8582_jpg, truck).
holds(s_8582_jpg, car).
holds(s_8582_jpg, residential).

sample(s_11599_jpg).
holds(s_11599_jpg, building).
holds(s_11599_jpg, feature).
holds(s_11599_jpg, constructionsite).
holds(s_11599_jpg, door).
holds(s_11599_jpg, awning).
holds(s_11599_jpg, billboard).
holds(s_11599_jpg, porch).
holds(s_11599_jpg, tiledrooftop).
holds(s_11599_jpg, vendingmachine).
holds(s_11599_jpg, wallsign).
holds(s_11599_jpg, chimney).
holds(s_11599_jpg, pipe).
holds(s_11599_jpg, machine).
holds(s_11599_jpg, industrial).

sample(s_9764_jpg).
holds(s_9764_jpg, building).
holds(s_9764_jpg, feature).
holds(s_9764_jpg, suburban).
holds(s_9764_jpg, door).
holds(s_9764_jpg, window).
holds(s_9764_jpg, awning).
holds(s_9764_jpg, porch).
holds(s_9764_jpg, tiledrooftop).
holds(s_9764_jpg, vendingmachine).
holds(s_9764_jpg, wallsign).
holds(s_9764_jpg, statue).
holds(s_9764_jpg, pipe).
holds(s_9764_jpg, residential).

sample(s_7658_jpg).
holds(s_7658_jpg, building).
holds(s_7658_jpg, feature).
holds(s_7658_jpg, suburban).
holds(s_7658_jpg, door).
holds(s_7658_jpg, window).
holds(s_7658_jpg, awning).
holds(s_7658_jpg, porch).
holds(s_7658_jpg, tiledrooftop).
holds(s_7658_jpg, vendingmachine).
holds(s_7658_jpg, statue).
holds(s_7658_jpg, residential).

sample(s_6134_jpg).
holds(s_6134_jpg, building).
holds(s_6134_jpg, feature).
holds(s_6134_jpg, suburban).
holds(s_6134_jpg, door).
holds(s_6134_jpg, window).
holds(s_6134_jpg, awning).
holds(s_6134_jpg, porch).
holds(s_6134_jpg, tiledrooftop).
holds(s_6134_jpg, vendingmachine).
holds(s_6134_jpg, wallsign).
holds(s_6134_jpg, statue).
holds(s_6134_jpg, pipe).
holds(s_6134_jpg, car).
holds(s_6134_jpg, residential).

sample(s_15258_jpg).
holds(s_15258_jpg, building).
holds(s_15258_jpg, feature).
holds(s_15258_jpg, hotel).
holds(s_15258_jpg, door).
holds(s_15258_jpg, awning).
holds(s_15258_jpg, billboard).
holds(s_15258_jpg, porch).
holds(s_15258_jpg, sign).
holds(s_15258_jpg, tiledrooftop).
holds(s_15258_jpg, statue).
holds(s_15258_jpg, chimney).
holds(s_15258_jpg, machine).
holds(s_15258_jpg, commercial).

sample(s_1966_jpg).
holds(s_1966_jpg, building).
holds(s_1966_jpg, feature).
holds(s_1966_jpg, constructionsite).
holds(s_1966_jpg, door).
holds(s_1966_jpg, awning).
holds(s_1966_jpg, billboard).
holds(s_1966_jpg, porch).
holds(s_1966_jpg, tiledrooftop).
holds(s_1966_jpg, wallsign).
holds(s_1966_jpg, statue).
holds(s_1966_jpg, chimney).
holds(s_1966_jpg, pipe).
holds(s_1966_jpg, machine).
holds(s_1966_jpg, industrial).

sample(s_558_jpg).
holds(s_558_jpg, building).
holds(s_558_jpg, feature).
holds(s_558_jpg, hotel).
holds(s_558_jpg, door).
holds(s_558_jpg, awning).
holds(s_558_jpg, billboard).
holds(s_558_jpg, porch).
holds(s_558_jpg, sign).
holds(s_558_jpg, tiledrooftop).
holds(s_558_jpg, statue).
holds(s_558_jpg, chimney).
holds(s_558_jpg, pipe).
holds(s_558_jpg, machine).
holds(s_558_jpg, commercial).

sample(s_12744_jpg).
holds(s_12744_jpg, building).
holds(s_12744_jpg, feature).
holds(s_12744_jpg, hotel).
holds(s_12744_jpg, door).
holds(s_12744_jpg, awning).
holds(s_12744_jpg, billboard).
holds(s_12744_jpg, porch).
holds(s_12744_jpg, sign).
holds(s_12744_jpg, tiledrooftop).
holds(s_12744_jpg, pipe).
holds(s_12744_jpg, machine).
holds(s_12744_jpg, commercial).

sample(s_10836_jpg).
holds(s_10836_jpg, building).
holds(s_10836_jpg, feature).
holds(s_10836_jpg, hotel).
holds(s_10836_jpg, door).
holds(s_10836_jpg, awning).
holds(s_10836_jpg, billboard).
holds(s_10836_jpg, porch).
holds(s_10836_jpg, sign).
holds(s_10836_jpg, tiledrooftop).
holds(s_10836_jpg, chimney).
holds(s_10836_jpg, pipe).
holds(s_10836_jpg, machine).
holds(s_10836_jpg, commercial).

sample(s_2927_jpg).
holds(s_2927_jpg, building).
holds(s_2927_jpg, feature).
holds(s_2927_jpg, suburban).
holds(s_2927_jpg, door).
holds(s_2927_jpg, awning).
holds(s_2927_jpg, billboard).
holds(s_2927_jpg, porch).
holds(s_2927_jpg, tiledrooftop).
holds(s_2927_jpg, vendingmachine).
holds(s_2927_jpg, wallsign).
holds(s_2927_jpg, statue).
holds(s_2927_jpg, chimney).
holds(s_2927_jpg, pipe).
holds(s_2927_jpg, machine).
holds(s_2927_jpg, truck).
holds(s_2927_jpg, car).
holds(s_2927_jpg, residential).

sample(s_6789_jpg).
holds(s_6789_jpg, building).
holds(s_6789_jpg, feature).
holds(s_6789_jpg, hotel).
holds(s_6789_jpg, door).
holds(s_6789_jpg, awning).
holds(s_6789_jpg, porch).
holds(s_6789_jpg, tiledrooftop).
holds(s_6789_jpg, statue).
holds(s_6789_jpg, chimney).
holds(s_6789_jpg, pipe).
holds(s_6789_jpg, machine).
holds(s_6789_jpg, commercial).

sample(s_1384_jpg).
holds(s_1384_jpg, building).
holds(s_1384_jpg, feature).
holds(s_1384_jpg, constructionsite).
holds(s_1384_jpg, awning).
holds(s_1384_jpg, billboard).
holds(s_1384_jpg, porch).
holds(s_1384_jpg, tiledrooftop).
holds(s_1384_jpg, wallsign).
holds(s_1384_jpg, chimney).
holds(s_1384_jpg, machine).
holds(s_1384_jpg, industrial).

sample(s_11082_jpg).
holds(s_11082_jpg, building).
holds(s_11082_jpg, feature).
holds(s_11082_jpg, hotel).
holds(s_11082_jpg, door).
holds(s_11082_jpg, awning).
holds(s_11082_jpg, porch).
holds(s_11082_jpg, tiledrooftop).
holds(s_11082_jpg, vendingmachine).
holds(s_11082_jpg, statue).
holds(s_11082_jpg, chimney).
holds(s_11082_jpg, pipe).
holds(s_11082_jpg, machine).
holds(s_11082_jpg, commercial).

sample(s_1447_jpg).
holds(s_1447_jpg, building).
holds(s_1447_jpg, feature).
holds(s_1447_jpg, constructionsite).
holds(s_1447_jpg, awning).
holds(s_1447_jpg, billboard).
holds(s_1447_jpg, porch).
holds(s_1447_jpg, tiledrooftop).
holds(s_1447_jpg, wallsign).
holds(s_1447_jpg, chimney).
holds(s_1447_jpg, pipe).
holds(s_1447_jpg, machine).
holds(s_1447_jpg, industrial).

sample(s_102_jpg).
holds(s_102_jpg, building).
holds(s_102_jpg, feature).
holds(s_102_jpg, hotel).
holds(s_102_jpg, door).
holds(s_102_jpg, awning).
holds(s_102_jpg, porch).
holds(s_102_jpg, tiledrooftop).
holds(s_102_jpg, statue).
holds(s_102_jpg, chimney).
holds(s_102_jpg, machine).
holds(s_102_jpg, commercial).

sample(s_13044_jpg).
holds(s_13044_jpg, building).
holds(s_13044_jpg, feature).
holds(s_13044_jpg, hotel).
holds(s_13044_jpg, door).
holds(s_13044_jpg, awning).
holds(s_13044_jpg, porch).
holds(s_13044_jpg, sign).
holds(s_13044_jpg, tiledrooftop).
holds(s_13044_jpg, statue).
holds(s_13044_jpg, pipe).
holds(s_13044_jpg, machine).
holds(s_13044_jpg, commercial).

sample(s_9366_jpg).
holds(s_9366_jpg, building).
holds(s_9366_jpg, feature).
holds(s_9366_jpg, hotel).
holds(s_9366_jpg, door).
holds(s_9366_jpg, awning).
holds(s_9366_jpg, billboard).
holds(s_9366_jpg, porch).
holds(s_9366_jpg, sign).
holds(s_9366_jpg, tiledrooftop).
holds(s_9366_jpg, chimney).
holds(s_9366_jpg, pipe).
holds(s_9366_jpg, machine).
holds(s_9366_jpg, commercial).

sample(s_7600_jpg).
holds(s_7600_jpg, building).
holds(s_7600_jpg, feature).
holds(s_7600_jpg, constructionsite).
holds(s_7600_jpg, awning).
holds(s_7600_jpg, billboard).
holds(s_7600_jpg, porch).
holds(s_7600_jpg, tiledrooftop).
holds(s_7600_jpg, chimney).
holds(s_7600_jpg, machine).
holds(s_7600_jpg, industrial).

sample(s_11269_jpg).
holds(s_11269_jpg, building).
holds(s_11269_jpg, feature).
holds(s_11269_jpg, constructionsite).
holds(s_11269_jpg, awning).
holds(s_11269_jpg, billboard).
holds(s_11269_jpg, porch).
holds(s_11269_jpg, tiledrooftop).
holds(s_11269_jpg, chimney).
holds(s_11269_jpg, pipe).
holds(s_11269_jpg, machine).
holds(s_11269_jpg, industrial).

sample(s_8116_jpg).
holds(s_8116_jpg, building).
holds(s_8116_jpg, feature).
holds(s_8116_jpg, constructionsite).
holds(s_8116_jpg, door).
holds(s_8116_jpg, awning).
holds(s_8116_jpg, billboard).
holds(s_8116_jpg, porch).
holds(s_8116_jpg, tiledrooftop).
holds(s_8116_jpg, wallsign).
holds(s_8116_jpg, statue).
holds(s_8116_jpg, chimney).
holds(s_8116_jpg, pipe).
holds(s_8116_jpg, machine).
holds(s_8116_jpg, industrial).

sample(s_13706_jpg).
holds(s_13706_jpg, building).
holds(s_13706_jpg, feature).
holds(s_13706_jpg, suburban).
holds(s_13706_jpg, door).
holds(s_13706_jpg, window).
holds(s_13706_jpg, awning).
holds(s_13706_jpg, porch).
holds(s_13706_jpg, tiledrooftop).
holds(s_13706_jpg, vendingmachine).
holds(s_13706_jpg, wallsign).
holds(s_13706_jpg, statue).
holds(s_13706_jpg, pipe).
holds(s_13706_jpg, residential).

sample(s_12694_jpg).
holds(s_12694_jpg, building).
holds(s_12694_jpg, feature).
holds(s_12694_jpg, constructionsite).
holds(s_12694_jpg, awning).
holds(s_12694_jpg, billboard).
holds(s_12694_jpg, porch).
holds(s_12694_jpg, tiledrooftop).
holds(s_12694_jpg, wallsign).
holds(s_12694_jpg, chimney).
holds(s_12694_jpg, pipe).
holds(s_12694_jpg, machine).
holds(s_12694_jpg, industrial).

sample(s_14062_jpg).
holds(s_14062_jpg, building).
holds(s_14062_jpg, feature).
holds(s_14062_jpg, constructionsite).
holds(s_14062_jpg, awning).
holds(s_14062_jpg, billboard).
holds(s_14062_jpg, porch).
holds(s_14062_jpg, tiledrooftop).
holds(s_14062_jpg, wallsign).
holds(s_14062_jpg, chimney).
holds(s_14062_jpg, pipe).
holds(s_14062_jpg, machine).
holds(s_14062_jpg, industrial).

sample(s_3433_jpg).
holds(s_3433_jpg, building).
holds(s_3433_jpg, feature).
holds(s_3433_jpg, constructionsite).
holds(s_3433_jpg, door).
holds(s_3433_jpg, awning).
holds(s_3433_jpg, billboard).
holds(s_3433_jpg, porch).
holds(s_3433_jpg, tiledrooftop).
holds(s_3433_jpg, wallsign).
holds(s_3433_jpg, chimney).
holds(s_3433_jpg, pipe).
holds(s_3433_jpg, machine).
holds(s_3433_jpg, industrial).

sample(s_8169_jpg).
holds(s_8169_jpg, building).
holds(s_8169_jpg, feature).
holds(s_8169_jpg, hotel).
holds(s_8169_jpg, door).
holds(s_8169_jpg, awning).
holds(s_8169_jpg, billboard).
holds(s_8169_jpg, porch).
holds(s_8169_jpg, sign).
holds(s_8169_jpg, tiledrooftop).
holds(s_8169_jpg, chimney).
holds(s_8169_jpg, pipe).
holds(s_8169_jpg, machine).
holds(s_8169_jpg, commercial).

sample(s_10524_jpg).
holds(s_10524_jpg, building).
holds(s_10524_jpg, feature).
holds(s_10524_jpg, hotel).
holds(s_10524_jpg, door).
holds(s_10524_jpg, awning).
holds(s_10524_jpg, billboard).
holds(s_10524_jpg, porch).
holds(s_10524_jpg, tiledrooftop).
holds(s_10524_jpg, wallsign).
holds(s_10524_jpg, statue).
holds(s_10524_jpg, chimney).
holds(s_10524_jpg, pipe).
holds(s_10524_jpg, machine).
holds(s_10524_jpg, truck).
holds(s_10524_jpg, car).
holds(s_10524_jpg, commercial).

sample(s_7493_jpg).
holds(s_7493_jpg, building).
holds(s_7493_jpg, feature).
holds(s_7493_jpg, suburban).
holds(s_7493_jpg, door).
holds(s_7493_jpg, window).
holds(s_7493_jpg, awning).
holds(s_7493_jpg, porch).
holds(s_7493_jpg, tiledrooftop).
holds(s_7493_jpg, vendingmachine).
holds(s_7493_jpg, statue).
holds(s_7493_jpg, pipe).
holds(s_7493_jpg, residential).

sample(s_14100_jpg).
holds(s_14100_jpg, building).
holds(s_14100_jpg, feature).
holds(s_14100_jpg, hotel).
holds(s_14100_jpg, door).
holds(s_14100_jpg, awning).
holds(s_14100_jpg, porch).
holds(s_14100_jpg, sign).
holds(s_14100_jpg, tiledrooftop).
holds(s_14100_jpg, statue).
holds(s_14100_jpg, pipe).
holds(s_14100_jpg, machine).
holds(s_14100_jpg, commercial).

sample(s_15504_jpg).
holds(s_15504_jpg, building).
holds(s_15504_jpg, feature).
holds(s_15504_jpg, hotel).
holds(s_15504_jpg, door).
holds(s_15504_jpg, window).
holds(s_15504_jpg, awning).
holds(s_15504_jpg, porch).
holds(s_15504_jpg, tiledrooftop).
holds(s_15504_jpg, vendingmachine).
holds(s_15504_jpg, statue).
holds(s_15504_jpg, pipe).
holds(s_15504_jpg, machine).
holds(s_15504_jpg, commercial).

sample(s_10558_jpg).
holds(s_10558_jpg, building).
holds(s_10558_jpg, feature).
holds(s_10558_jpg, constructionsite).
holds(s_10558_jpg, awning).
holds(s_10558_jpg, billboard).
holds(s_10558_jpg, porch).
holds(s_10558_jpg, sign).
holds(s_10558_jpg, tiledrooftop).
holds(s_10558_jpg, wallsign).
holds(s_10558_jpg, chimney).
holds(s_10558_jpg, pipe).
holds(s_10558_jpg, machine).
holds(s_10558_jpg, industrial).

sample(s_7946_jpg).
holds(s_7946_jpg, building).
holds(s_7946_jpg, feature).
holds(s_7946_jpg, suburban).
holds(s_7946_jpg, door).
holds(s_7946_jpg, awning).
holds(s_7946_jpg, porch).
holds(s_7946_jpg, table).
holds(s_7946_jpg, tiledrooftop).
holds(s_7946_jpg, vendingmachine).
holds(s_7946_jpg, wallsign).
holds(s_7946_jpg, statue).
holds(s_7946_jpg, chimney).
holds(s_7946_jpg, pipe).
holds(s_7946_jpg, truck).
holds(s_7946_jpg, car).
holds(s_7946_jpg, residential).

sample(s_6060_jpg).
holds(s_6060_jpg, building).
holds(s_6060_jpg, feature).
holds(s_6060_jpg, hotel).
holds(s_6060_jpg, door).
holds(s_6060_jpg, awning).
holds(s_6060_jpg, billboard).
holds(s_6060_jpg, porch).
holds(s_6060_jpg, sign).
holds(s_6060_jpg, tiledrooftop).
holds(s_6060_jpg, statue).
holds(s_6060_jpg, chimney).
holds(s_6060_jpg, pipe).
holds(s_6060_jpg, machine).
holds(s_6060_jpg, commercial).

sample(s_7372_jpg).
holds(s_7372_jpg, building).
holds(s_7372_jpg, feature).
holds(s_7372_jpg, constructionsite).
holds(s_7372_jpg, awning).
holds(s_7372_jpg, billboard).
holds(s_7372_jpg, porch).
holds(s_7372_jpg, tiledrooftop).
holds(s_7372_jpg, wallsign).
holds(s_7372_jpg, chimney).
holds(s_7372_jpg, pipe).
holds(s_7372_jpg, machine).
holds(s_7372_jpg, industrial).

sample(s_1208_jpg).
holds(s_1208_jpg, building).
holds(s_1208_jpg, feature).
holds(s_1208_jpg, suburban).
holds(s_1208_jpg, door).
holds(s_1208_jpg, awning).
holds(s_1208_jpg, table).
holds(s_1208_jpg, vendingmachine).
holds(s_1208_jpg, wallsign).
holds(s_1208_jpg, statue).
holds(s_1208_jpg, chimney).
holds(s_1208_jpg, pipe).
holds(s_1208_jpg, truck).
holds(s_1208_jpg, car).
holds(s_1208_jpg, residential).

sample(s_6854_jpg).
holds(s_6854_jpg, building).
holds(s_6854_jpg, feature).
holds(s_6854_jpg, suburban).
holds(s_6854_jpg, door).
holds(s_6854_jpg, window).
holds(s_6854_jpg, awning).
holds(s_6854_jpg, table).
holds(s_6854_jpg, tiledrooftop).
holds(s_6854_jpg, vendingmachine).
holds(s_6854_jpg, wallsign).
holds(s_6854_jpg, statue).
holds(s_6854_jpg, pipe).
holds(s_6854_jpg, car).
holds(s_6854_jpg, residential).

sample(s_14832_jpg).
holds(s_14832_jpg, building).
holds(s_14832_jpg, feature).
holds(s_14832_jpg, hotel).
holds(s_14832_jpg, door).
holds(s_14832_jpg, awning).
holds(s_14832_jpg, billboard).
holds(s_14832_jpg, porch).
holds(s_14832_jpg, sign).
holds(s_14832_jpg, tiledrooftop).
holds(s_14832_jpg, chimney).
holds(s_14832_jpg, pipe).
holds(s_14832_jpg, machine).
holds(s_14832_jpg, truck).
holds(s_14832_jpg, commercial).

sample(s_2407_jpg).
holds(s_2407_jpg, building).
holds(s_2407_jpg, feature).
holds(s_2407_jpg, constructionsite).
holds(s_2407_jpg, door).
holds(s_2407_jpg, awning).
holds(s_2407_jpg, billboard).
holds(s_2407_jpg, porch).
holds(s_2407_jpg, tiledrooftop).
holds(s_2407_jpg, vendingmachine).
holds(s_2407_jpg, wallsign).
holds(s_2407_jpg, statue).
holds(s_2407_jpg, chimney).
holds(s_2407_jpg, pipe).
holds(s_2407_jpg, machine).
holds(s_2407_jpg, industrial).

sample(s_11451_jpg).
holds(s_11451_jpg, building).
holds(s_11451_jpg, feature).
holds(s_11451_jpg, hotel).
holds(s_11451_jpg, door).
holds(s_11451_jpg, awning).
holds(s_11451_jpg, billboard).
holds(s_11451_jpg, porch).
holds(s_11451_jpg, sign).
holds(s_11451_jpg, tiledrooftop).
holds(s_11451_jpg, wallsign).
holds(s_11451_jpg, chimney).
holds(s_11451_jpg, pipe).
holds(s_11451_jpg, machine).
holds(s_11451_jpg, truck).
holds(s_11451_jpg, car).
holds(s_11451_jpg, commercial).

sample(s_15513_jpg).
holds(s_15513_jpg, building).
holds(s_15513_jpg, feature).
holds(s_15513_jpg, hotel).
holds(s_15513_jpg, door).
holds(s_15513_jpg, awning).
holds(s_15513_jpg, porch).
holds(s_15513_jpg, tiledrooftop).
holds(s_15513_jpg, statue).
holds(s_15513_jpg, chimney).
holds(s_15513_jpg, machine).
holds(s_15513_jpg, commercial).

sample(s_11582_jpg).
holds(s_11582_jpg, building).
holds(s_11582_jpg, feature).
holds(s_11582_jpg, suburban).
holds(s_11582_jpg, door).
holds(s_11582_jpg, window).
holds(s_11582_jpg, awning).
holds(s_11582_jpg, porch).
holds(s_11582_jpg, tiledrooftop).
holds(s_11582_jpg, vendingmachine).
holds(s_11582_jpg, wallsign).
holds(s_11582_jpg, statue).
holds(s_11582_jpg, residential).

sample(s_6512_jpg).
holds(s_6512_jpg, building).
holds(s_6512_jpg, feature).
holds(s_6512_jpg, suburban).
holds(s_6512_jpg, door).
holds(s_6512_jpg, window).
holds(s_6512_jpg, awning).
holds(s_6512_jpg, porch).
holds(s_6512_jpg, tiledrooftop).
holds(s_6512_jpg, vendingmachine).
holds(s_6512_jpg, statue).
holds(s_6512_jpg, residential).

sample(s_9884_jpg).
holds(s_9884_jpg, building).
holds(s_9884_jpg, feature).
holds(s_9884_jpg, suburban).
holds(s_9884_jpg, door).
holds(s_9884_jpg, window).
holds(s_9884_jpg, awning).
holds(s_9884_jpg, porch).
holds(s_9884_jpg, tiledrooftop).
holds(s_9884_jpg, vendingmachine).
holds(s_9884_jpg, wallsign).
holds(s_9884_jpg, statue).
holds(s_9884_jpg, pipe).
holds(s_9884_jpg, car).
holds(s_9884_jpg, residential).

sample(s_8023_jpg).
holds(s_8023_jpg, building).
holds(s_8023_jpg, feature).
holds(s_8023_jpg, constructionsite).
holds(s_8023_jpg, awning).
holds(s_8023_jpg, billboard).
holds(s_8023_jpg, porch).
holds(s_8023_jpg, tiledrooftop).
holds(s_8023_jpg, wallsign).
holds(s_8023_jpg, chimney).
holds(s_8023_jpg, pipe).
holds(s_8023_jpg, machine).
holds(s_8023_jpg, industrial).

sample(s_4932_jpg).
holds(s_4932_jpg, building).
holds(s_4932_jpg, feature).
holds(s_4932_jpg, hotel).
holds(s_4932_jpg, door).
holds(s_4932_jpg, awning).
holds(s_4932_jpg, porch).
holds(s_4932_jpg, tiledrooftop).
holds(s_4932_jpg, statue).
holds(s_4932_jpg, chimney).
holds(s_4932_jpg, pipe).
holds(s_4932_jpg, machine).
holds(s_4932_jpg, truck).
holds(s_4932_jpg, commercial).

sample(s_3517_jpg).
holds(s_3517_jpg, building).
holds(s_3517_jpg, feature).
holds(s_3517_jpg, constructionsite).
holds(s_3517_jpg, door).
holds(s_3517_jpg, awning).
holds(s_3517_jpg, billboard).
holds(s_3517_jpg, porch).
holds(s_3517_jpg, tiledrooftop).
holds(s_3517_jpg, vendingmachine).
holds(s_3517_jpg, wallsign).
holds(s_3517_jpg, statue).
holds(s_3517_jpg, chimney).
holds(s_3517_jpg, pipe).
holds(s_3517_jpg, machine).
holds(s_3517_jpg, industrial).

sample(s_8619_jpg).
holds(s_8619_jpg, building).
holds(s_8619_jpg, feature).
holds(s_8619_jpg, hotel).
holds(s_8619_jpg, door).
holds(s_8619_jpg, awning).
holds(s_8619_jpg, billboard).
holds(s_8619_jpg, porch).
holds(s_8619_jpg, sign).
holds(s_8619_jpg, tiledrooftop).
holds(s_8619_jpg, pipe).
holds(s_8619_jpg, machine).
holds(s_8619_jpg, commercial).

sample(s_1085_jpg).
holds(s_1085_jpg, building).
holds(s_1085_jpg, feature).
holds(s_1085_jpg, suburban).
holds(s_1085_jpg, door).
holds(s_1085_jpg, awning).
holds(s_1085_jpg, table).
holds(s_1085_jpg, tiledrooftop).
holds(s_1085_jpg, vendingmachine).
holds(s_1085_jpg, wallsign).
holds(s_1085_jpg, statue).
holds(s_1085_jpg, pipe).
holds(s_1085_jpg, truck).
holds(s_1085_jpg, car).
holds(s_1085_jpg, residential).

sample(s_14396_jpg).
holds(s_14396_jpg, building).
holds(s_14396_jpg, feature).
holds(s_14396_jpg, suburban).
holds(s_14396_jpg, door).
holds(s_14396_jpg, window).
holds(s_14396_jpg, awning).
holds(s_14396_jpg, porch).
holds(s_14396_jpg, table).
holds(s_14396_jpg, tiledrooftop).
holds(s_14396_jpg, vendingmachine).
holds(s_14396_jpg, wallsign).
holds(s_14396_jpg, statue).
holds(s_14396_jpg, pipe).
holds(s_14396_jpg, residential).

sample(s_12382_jpg).
holds(s_12382_jpg, building).
holds(s_12382_jpg, feature).
holds(s_12382_jpg, constructionsite).
holds(s_12382_jpg, door).
holds(s_12382_jpg, awning).
holds(s_12382_jpg, billboard).
holds(s_12382_jpg, porch).
holds(s_12382_jpg, tiledrooftop).
holds(s_12382_jpg, vendingmachine).
holds(s_12382_jpg, wallsign).
holds(s_12382_jpg, statue).
holds(s_12382_jpg, chimney).
holds(s_12382_jpg, pipe).
holds(s_12382_jpg, machine).
holds(s_12382_jpg, industrial).

sample(s_4953_jpg).
holds(s_4953_jpg, building).
holds(s_4953_jpg, feature).
holds(s_4953_jpg, hotel).
holds(s_4953_jpg, door).
holds(s_4953_jpg, awning).
holds(s_4953_jpg, billboard).
holds(s_4953_jpg, porch).
holds(s_4953_jpg, tiledrooftop).
holds(s_4953_jpg, statue).
holds(s_4953_jpg, chimney).
holds(s_4953_jpg, pipe).
holds(s_4953_jpg, machine).
holds(s_4953_jpg, truck).
holds(s_4953_jpg, commercial).

sample(s_4577_jpg).
holds(s_4577_jpg, building).
holds(s_4577_jpg, feature).
holds(s_4577_jpg, suburban).
holds(s_4577_jpg, door).
holds(s_4577_jpg, window).
holds(s_4577_jpg, awning).
holds(s_4577_jpg, porch).
holds(s_4577_jpg, tiledrooftop).
holds(s_4577_jpg, vendingmachine).
holds(s_4577_jpg, wallsign).
holds(s_4577_jpg, statue).
holds(s_4577_jpg, residential).

sample(s_12167_jpg).
holds(s_12167_jpg, building).
holds(s_12167_jpg, feature).
holds(s_12167_jpg, suburban).
holds(s_12167_jpg, door).
holds(s_12167_jpg, window).
holds(s_12167_jpg, awning).
holds(s_12167_jpg, porch).
holds(s_12167_jpg, tiledrooftop).
holds(s_12167_jpg, vendingmachine).
holds(s_12167_jpg, statue).
holds(s_12167_jpg, residential).

sample(s_2640_jpg).
holds(s_2640_jpg, building).
holds(s_2640_jpg, feature).
holds(s_2640_jpg, hotel).
holds(s_2640_jpg, door).
holds(s_2640_jpg, awning).
holds(s_2640_jpg, billboard).
holds(s_2640_jpg, porch).
holds(s_2640_jpg, sign).
holds(s_2640_jpg, tiledrooftop).
holds(s_2640_jpg, pipe).
holds(s_2640_jpg, machine).
holds(s_2640_jpg, commercial).

sample(s_13288_jpg).
holds(s_13288_jpg, building).
holds(s_13288_jpg, feature).
holds(s_13288_jpg, constructionsite).
holds(s_13288_jpg, awning).
holds(s_13288_jpg, billboard).
holds(s_13288_jpg, porch).
holds(s_13288_jpg, tiledrooftop).
holds(s_13288_jpg, wallsign).
holds(s_13288_jpg, chimney).
holds(s_13288_jpg, pipe).
holds(s_13288_jpg, machine).
holds(s_13288_jpg, industrial).

sample(s_11593_jpg).
holds(s_11593_jpg, building).
holds(s_11593_jpg, feature).
holds(s_11593_jpg, constructionsite).
holds(s_11593_jpg, awning).
holds(s_11593_jpg, billboard).
holds(s_11593_jpg, porch).
holds(s_11593_jpg, tiledrooftop).
holds(s_11593_jpg, wallsign).
holds(s_11593_jpg, chimney).
holds(s_11593_jpg, pipe).
holds(s_11593_jpg, machine).
holds(s_11593_jpg, industrial).

sample(s_12597_jpg).
holds(s_12597_jpg, building).
holds(s_12597_jpg, feature).
holds(s_12597_jpg, hotel).
holds(s_12597_jpg, door).
holds(s_12597_jpg, awning).
holds(s_12597_jpg, porch).
holds(s_12597_jpg, sign).
holds(s_12597_jpg, tiledrooftop).
holds(s_12597_jpg, statue).
holds(s_12597_jpg, machine).
holds(s_12597_jpg, commercial).

sample(s_8008_jpg).
holds(s_8008_jpg, building).
holds(s_8008_jpg, feature).
holds(s_8008_jpg, constructionsite).
holds(s_8008_jpg, awning).
holds(s_8008_jpg, billboard).
holds(s_8008_jpg, porch).
holds(s_8008_jpg, tiledrooftop).
holds(s_8008_jpg, wallsign).
holds(s_8008_jpg, chimney).
holds(s_8008_jpg, machine).
holds(s_8008_jpg, industrial).

sample(s_1130_jpg).
holds(s_1130_jpg, building).
holds(s_1130_jpg, feature).
holds(s_1130_jpg, suburban).
holds(s_1130_jpg, door).
holds(s_1130_jpg, window).
holds(s_1130_jpg, awning).
holds(s_1130_jpg, porch).
holds(s_1130_jpg, table).
holds(s_1130_jpg, tiledrooftop).
holds(s_1130_jpg, vendingmachine).
holds(s_1130_jpg, wallsign).
holds(s_1130_jpg, statue).
holds(s_1130_jpg, pipe).
holds(s_1130_jpg, car).
holds(s_1130_jpg, residential).

sample(s_10936_jpg).
holds(s_10936_jpg, building).
holds(s_10936_jpg, feature).
holds(s_10936_jpg, constructionsite).
holds(s_10936_jpg, door).
holds(s_10936_jpg, awning).
holds(s_10936_jpg, billboard).
holds(s_10936_jpg, porch).
holds(s_10936_jpg, tiledrooftop).
holds(s_10936_jpg, vendingmachine).
holds(s_10936_jpg, wallsign).
holds(s_10936_jpg, statue).
holds(s_10936_jpg, chimney).
holds(s_10936_jpg, pipe).
holds(s_10936_jpg, machine).
holds(s_10936_jpg, industrial).

sample(s_134_jpg).
holds(s_134_jpg, building).
holds(s_134_jpg, feature).
holds(s_134_jpg, suburban).
holds(s_134_jpg, door).
holds(s_134_jpg, window).
holds(s_134_jpg, awning).
holds(s_134_jpg, porch).
holds(s_134_jpg, table).
holds(s_134_jpg, tiledrooftop).
holds(s_134_jpg, vendingmachine).
holds(s_134_jpg, wallsign).
holds(s_134_jpg, statue).
holds(s_134_jpg, pipe).
holds(s_134_jpg, truck).
holds(s_134_jpg, car).
holds(s_134_jpg, residential).

sample(s_1960_jpg).
holds(s_1960_jpg, building).
holds(s_1960_jpg, feature).
holds(s_1960_jpg, constructionsite).
holds(s_1960_jpg, awning).
holds(s_1960_jpg, billboard).
holds(s_1960_jpg, porch).
holds(s_1960_jpg, tiledrooftop).
holds(s_1960_jpg, wallsign).
holds(s_1960_jpg, chimney).
holds(s_1960_jpg, pipe).
holds(s_1960_jpg, machine).
holds(s_1960_jpg, industrial).

sample(s_11281_jpg).
holds(s_11281_jpg, building).
holds(s_11281_jpg, feature).
holds(s_11281_jpg, constructionsite).
holds(s_11281_jpg, awning).
holds(s_11281_jpg, billboard).
holds(s_11281_jpg, porch).
holds(s_11281_jpg, tiledrooftop).
holds(s_11281_jpg, wallsign).
holds(s_11281_jpg, statue).
holds(s_11281_jpg, chimney).
holds(s_11281_jpg, pipe).
holds(s_11281_jpg, machine).
holds(s_11281_jpg, industrial).

sample(s_14167_jpg).
holds(s_14167_jpg, building).
holds(s_14167_jpg, feature).
holds(s_14167_jpg, constructionsite).
holds(s_14167_jpg, awning).
holds(s_14167_jpg, billboard).
holds(s_14167_jpg, porch).
holds(s_14167_jpg, tiledrooftop).
holds(s_14167_jpg, wallsign).
holds(s_14167_jpg, statue).
holds(s_14167_jpg, chimney).
holds(s_14167_jpg, pipe).
holds(s_14167_jpg, machine).
holds(s_14167_jpg, industrial).

sample(s_13129_jpg).
holds(s_13129_jpg, building).
holds(s_13129_jpg, feature).
holds(s_13129_jpg, constructionsite).
holds(s_13129_jpg, awning).
holds(s_13129_jpg, billboard).
holds(s_13129_jpg, porch).
holds(s_13129_jpg, tiledrooftop).
holds(s_13129_jpg, wallsign).
holds(s_13129_jpg, chimney).
holds(s_13129_jpg, machine).
holds(s_13129_jpg, industrial).

sample(s_14455_jpg).
holds(s_14455_jpg, building).
holds(s_14455_jpg, feature).
holds(s_14455_jpg, constructionsite).
holds(s_14455_jpg, awning).
holds(s_14455_jpg, billboard).
holds(s_14455_jpg, porch).
holds(s_14455_jpg, tiledrooftop).
holds(s_14455_jpg, wallsign).
holds(s_14455_jpg, chimney).
holds(s_14455_jpg, pipe).
holds(s_14455_jpg, machine).
holds(s_14455_jpg, industrial).

sample(s_12967_jpg).
holds(s_12967_jpg, building).
holds(s_12967_jpg, feature).
holds(s_12967_jpg, constructionsite).
holds(s_12967_jpg, door).
holds(s_12967_jpg, awning).
holds(s_12967_jpg, billboard).
holds(s_12967_jpg, porch).
holds(s_12967_jpg, tiledrooftop).
holds(s_12967_jpg, wallsign).
holds(s_12967_jpg, chimney).
holds(s_12967_jpg, pipe).
holds(s_12967_jpg, machine).
holds(s_12967_jpg, industrial).

sample(s_10661_jpg).
holds(s_10661_jpg, building).
holds(s_10661_jpg, feature).
holds(s_10661_jpg, suburban).
holds(s_10661_jpg, door).
holds(s_10661_jpg, window).
holds(s_10661_jpg, awning).
holds(s_10661_jpg, porch).
holds(s_10661_jpg, tiledrooftop).
holds(s_10661_jpg, vendingmachine).
holds(s_10661_jpg, statue).
holds(s_10661_jpg, pipe).
holds(s_10661_jpg, residential).

sample(s_5075_jpg).
holds(s_5075_jpg, building).
holds(s_5075_jpg, feature).
holds(s_5075_jpg, suburban).
holds(s_5075_jpg, door).
holds(s_5075_jpg, window).
holds(s_5075_jpg, awning).
holds(s_5075_jpg, porch).
holds(s_5075_jpg, table).
holds(s_5075_jpg, tiledrooftop).
holds(s_5075_jpg, vendingmachine).
holds(s_5075_jpg, wallsign).
holds(s_5075_jpg, statue).
holds(s_5075_jpg, car).
holds(s_5075_jpg, residential).

sample(s_489_jpg).
holds(s_489_jpg, building).
holds(s_489_jpg, feature).
holds(s_489_jpg, hotel).
holds(s_489_jpg, door).
holds(s_489_jpg, awning).
holds(s_489_jpg, billboard).
holds(s_489_jpg, porch).
holds(s_489_jpg, sign).
holds(s_489_jpg, tiledrooftop).
holds(s_489_jpg, statue).
holds(s_489_jpg, chimney).
holds(s_489_jpg, pipe).
holds(s_489_jpg, machine).
holds(s_489_jpg, truck).
holds(s_489_jpg, commercial).

sample(s_3935_jpg).
holds(s_3935_jpg, building).
holds(s_3935_jpg, feature).
holds(s_3935_jpg, suburban).
holds(s_3935_jpg, door).
holds(s_3935_jpg, window).
holds(s_3935_jpg, awning).
holds(s_3935_jpg, table).
holds(s_3935_jpg, tiledrooftop).
holds(s_3935_jpg, vendingmachine).
holds(s_3935_jpg, wallsign).
holds(s_3935_jpg, statue).
holds(s_3935_jpg, pipe).
holds(s_3935_jpg, car).
holds(s_3935_jpg, residential).

sample(s_3548_jpg).
holds(s_3548_jpg, building).
holds(s_3548_jpg, feature).
holds(s_3548_jpg, suburban).
holds(s_3548_jpg, door).
holds(s_3548_jpg, window).
holds(s_3548_jpg, awning).
holds(s_3548_jpg, porch).
holds(s_3548_jpg, table).
holds(s_3548_jpg, tiledrooftop).
holds(s_3548_jpg, vendingmachine).
holds(s_3548_jpg, wallsign).
holds(s_3548_jpg, statue).
holds(s_3548_jpg, pipe).
holds(s_3548_jpg, residential).

sample(s_15712_jpg).
holds(s_15712_jpg, building).
holds(s_15712_jpg, feature).
holds(s_15712_jpg, constructionsite).
holds(s_15712_jpg, awning).
holds(s_15712_jpg, billboard).
holds(s_15712_jpg, porch).
holds(s_15712_jpg, tiledrooftop).
holds(s_15712_jpg, wallsign).
holds(s_15712_jpg, statue).
holds(s_15712_jpg, chimney).
holds(s_15712_jpg, machine).
holds(s_15712_jpg, industrial).

sample(s_9765_jpg).
holds(s_9765_jpg, building).
holds(s_9765_jpg, feature).
holds(s_9765_jpg, hotel).
holds(s_9765_jpg, door).
holds(s_9765_jpg, awning).
holds(s_9765_jpg, billboard).
holds(s_9765_jpg, porch).
holds(s_9765_jpg, tiledrooftop).
holds(s_9765_jpg, statue).
holds(s_9765_jpg, chimney).
holds(s_9765_jpg, machine).
holds(s_9765_jpg, commercial).

sample(s_5284_jpg).
holds(s_5284_jpg, building).
holds(s_5284_jpg, feature).
holds(s_5284_jpg, constructionsite).
holds(s_5284_jpg, awning).
holds(s_5284_jpg, billboard).
holds(s_5284_jpg, porch).
holds(s_5284_jpg, tiledrooftop).
holds(s_5284_jpg, vendingmachine).
holds(s_5284_jpg, wallsign).
holds(s_5284_jpg, chimney).
holds(s_5284_jpg, pipe).
holds(s_5284_jpg, machine).
holds(s_5284_jpg, industrial).

sample(s_3673_jpg).
holds(s_3673_jpg, building).
holds(s_3673_jpg, feature).
holds(s_3673_jpg, constructionsite).
holds(s_3673_jpg, door).
holds(s_3673_jpg, awning).
holds(s_3673_jpg, billboard).
holds(s_3673_jpg, porch).
holds(s_3673_jpg, tiledrooftop).
holds(s_3673_jpg, vendingmachine).
holds(s_3673_jpg, wallsign).
holds(s_3673_jpg, statue).
holds(s_3673_jpg, chimney).
holds(s_3673_jpg, pipe).
holds(s_3673_jpg, machine).
holds(s_3673_jpg, industrial).

sample(s_15486_jpg).
holds(s_15486_jpg, building).
holds(s_15486_jpg, feature).
holds(s_15486_jpg, hotel).
holds(s_15486_jpg, door).
holds(s_15486_jpg, window).
holds(s_15486_jpg, awning).
holds(s_15486_jpg, porch).
holds(s_15486_jpg, tiledrooftop).
holds(s_15486_jpg, vendingmachine).
holds(s_15486_jpg, statue).
holds(s_15486_jpg, chimney).
holds(s_15486_jpg, machine).
holds(s_15486_jpg, commercial).

sample(s_1876_jpg).
holds(s_1876_jpg, building).
holds(s_1876_jpg, feature).
holds(s_1876_jpg, constructionsite).
holds(s_1876_jpg, awning).
holds(s_1876_jpg, billboard).
holds(s_1876_jpg, porch).
holds(s_1876_jpg, tiledrooftop).
holds(s_1876_jpg, wallsign).
holds(s_1876_jpg, chimney).
holds(s_1876_jpg, machine).
holds(s_1876_jpg, industrial).

sample(s_6496_jpg).
holds(s_6496_jpg, building).
holds(s_6496_jpg, feature).
holds(s_6496_jpg, constructionsite).
holds(s_6496_jpg, awning).
holds(s_6496_jpg, billboard).
holds(s_6496_jpg, porch).
holds(s_6496_jpg, tiledrooftop).
holds(s_6496_jpg, chimney).
holds(s_6496_jpg, pipe).
holds(s_6496_jpg, machine).
holds(s_6496_jpg, industrial).

sample(s_7368_jpg).
holds(s_7368_jpg, building).
holds(s_7368_jpg, feature).
holds(s_7368_jpg, hotel).
holds(s_7368_jpg, door).
holds(s_7368_jpg, awning).
holds(s_7368_jpg, billboard).
holds(s_7368_jpg, porch).
holds(s_7368_jpg, sign).
holds(s_7368_jpg, tiledrooftop).
holds(s_7368_jpg, pipe).
holds(s_7368_jpg, machine).
holds(s_7368_jpg, commercial).

sample(s_8449_jpg).
holds(s_8449_jpg, building).
holds(s_8449_jpg, feature).
holds(s_8449_jpg, constructionsite).
holds(s_8449_jpg, awning).
holds(s_8449_jpg, billboard).
holds(s_8449_jpg, porch).
holds(s_8449_jpg, tiledrooftop).
holds(s_8449_jpg, vendingmachine).
holds(s_8449_jpg, wallsign).
holds(s_8449_jpg, chimney).
holds(s_8449_jpg, pipe).
holds(s_8449_jpg, machine).
holds(s_8449_jpg, industrial).

sample(s_2442_jpg).
holds(s_2442_jpg, building).
holds(s_2442_jpg, feature).
holds(s_2442_jpg, hotel).
holds(s_2442_jpg, door).
holds(s_2442_jpg, awning).
holds(s_2442_jpg, billboard).
holds(s_2442_jpg, porch).
holds(s_2442_jpg, sign).
holds(s_2442_jpg, tiledrooftop).
holds(s_2442_jpg, pipe).
holds(s_2442_jpg, machine).
holds(s_2442_jpg, commercial).

sample(s_5875_jpg).
holds(s_5875_jpg, building).
holds(s_5875_jpg, feature).
holds(s_5875_jpg, constructionsite).
holds(s_5875_jpg, awning).
holds(s_5875_jpg, billboard).
holds(s_5875_jpg, porch).
holds(s_5875_jpg, tiledrooftop).
holds(s_5875_jpg, wallsign).
holds(s_5875_jpg, chimney).
holds(s_5875_jpg, pipe).
holds(s_5875_jpg, machine).
holds(s_5875_jpg, industrial).

sample(s_7195_jpg).
holds(s_7195_jpg, building).
holds(s_7195_jpg, feature).
holds(s_7195_jpg, constructionsite).
holds(s_7195_jpg, awning).
holds(s_7195_jpg, billboard).
holds(s_7195_jpg, porch).
holds(s_7195_jpg, tiledrooftop).
holds(s_7195_jpg, wallsign).
holds(s_7195_jpg, chimney).
holds(s_7195_jpg, pipe).
holds(s_7195_jpg, machine).
holds(s_7195_jpg, industrial).

sample(s_15683_jpg).
holds(s_15683_jpg, building).
holds(s_15683_jpg, feature).
holds(s_15683_jpg, suburban).
holds(s_15683_jpg, door).
holds(s_15683_jpg, window).
holds(s_15683_jpg, awning).
holds(s_15683_jpg, table).
holds(s_15683_jpg, tiledrooftop).
holds(s_15683_jpg, vendingmachine).
holds(s_15683_jpg, wallsign).
holds(s_15683_jpg, statue).
holds(s_15683_jpg, pipe).
holds(s_15683_jpg, residential).

sample(s_13074_jpg).
holds(s_13074_jpg, building).
holds(s_13074_jpg, feature).
holds(s_13074_jpg, hotel).
holds(s_13074_jpg, door).
holds(s_13074_jpg, awning).
holds(s_13074_jpg, billboard).
holds(s_13074_jpg, porch).
holds(s_13074_jpg, sign).
holds(s_13074_jpg, tiledrooftop).
holds(s_13074_jpg, pipe).
holds(s_13074_jpg, machine).
holds(s_13074_jpg, commercial).

sample(s_13704_jpg).
holds(s_13704_jpg, building).
holds(s_13704_jpg, feature).
holds(s_13704_jpg, hotel).
holds(s_13704_jpg, door).
holds(s_13704_jpg, awning).
holds(s_13704_jpg, billboard).
holds(s_13704_jpg, porch).
holds(s_13704_jpg, sign).
holds(s_13704_jpg, tiledrooftop).
holds(s_13704_jpg, chimney).
holds(s_13704_jpg, pipe).
holds(s_13704_jpg, machine).
holds(s_13704_jpg, truck).
holds(s_13704_jpg, commercial).

sample(s_6368_jpg).
holds(s_6368_jpg, building).
holds(s_6368_jpg, feature).
holds(s_6368_jpg, suburban).
holds(s_6368_jpg, door).
holds(s_6368_jpg, window).
holds(s_6368_jpg, awning).
holds(s_6368_jpg, porch).
holds(s_6368_jpg, table).
holds(s_6368_jpg, tiledrooftop).
holds(s_6368_jpg, vendingmachine).
holds(s_6368_jpg, wallsign).
holds(s_6368_jpg, statue).
holds(s_6368_jpg, pipe).
holds(s_6368_jpg, residential).

sample(s_6028_jpg).
holds(s_6028_jpg, building).
holds(s_6028_jpg, feature).
holds(s_6028_jpg, constructionsite).
holds(s_6028_jpg, awning).
holds(s_6028_jpg, billboard).
holds(s_6028_jpg, porch).
holds(s_6028_jpg, tiledrooftop).
holds(s_6028_jpg, wallsign).
holds(s_6028_jpg, chimney).
holds(s_6028_jpg, pipe).
holds(s_6028_jpg, machine).
holds(s_6028_jpg, industrial).

sample(s_14330_jpg).
holds(s_14330_jpg, building).
holds(s_14330_jpg, feature).
holds(s_14330_jpg, suburban).
holds(s_14330_jpg, door).
holds(s_14330_jpg, window).
holds(s_14330_jpg, awning).
holds(s_14330_jpg, table).
holds(s_14330_jpg, tiledrooftop).
holds(s_14330_jpg, vendingmachine).
holds(s_14330_jpg, wallsign).
holds(s_14330_jpg, statue).
holds(s_14330_jpg, pipe).
holds(s_14330_jpg, residential).

sample(s_417_jpg).
holds(s_417_jpg, building).
holds(s_417_jpg, feature).
holds(s_417_jpg, hotel).
holds(s_417_jpg, door).
holds(s_417_jpg, awning).
holds(s_417_jpg, porch).
holds(s_417_jpg, sign).
holds(s_417_jpg, tiledrooftop).
holds(s_417_jpg, statue).
holds(s_417_jpg, pipe).
holds(s_417_jpg, machine).
holds(s_417_jpg, commercial).

sample(s_4858_jpg).
holds(s_4858_jpg, building).
holds(s_4858_jpg, feature).
holds(s_4858_jpg, constructionsite).
holds(s_4858_jpg, awning).
holds(s_4858_jpg, billboard).
holds(s_4858_jpg, porch).
holds(s_4858_jpg, tiledrooftop).
holds(s_4858_jpg, wallsign).
holds(s_4858_jpg, chimney).
holds(s_4858_jpg, pipe).
holds(s_4858_jpg, machine).
holds(s_4858_jpg, industrial).

sample(s_12338_jpg).
holds(s_12338_jpg, building).
holds(s_12338_jpg, feature).
holds(s_12338_jpg, suburban).
holds(s_12338_jpg, door).
holds(s_12338_jpg, window).
holds(s_12338_jpg, awning).
holds(s_12338_jpg, porch).
holds(s_12338_jpg, tiledrooftop).
holds(s_12338_jpg, vendingmachine).
holds(s_12338_jpg, wallsign).
holds(s_12338_jpg, statue).
holds(s_12338_jpg, pipe).
holds(s_12338_jpg, residential).

sample(s_9462_jpg).
holds(s_9462_jpg, building).
holds(s_9462_jpg, feature).
holds(s_9462_jpg, hotel).
holds(s_9462_jpg, door).
holds(s_9462_jpg, awning).
holds(s_9462_jpg, billboard).
holds(s_9462_jpg, porch).
holds(s_9462_jpg, sign).
holds(s_9462_jpg, tiledrooftop).
holds(s_9462_jpg, statue).
holds(s_9462_jpg, chimney).
holds(s_9462_jpg, machine).
holds(s_9462_jpg, commercial).

sample(s_15374_jpg).
holds(s_15374_jpg, building).
holds(s_15374_jpg, feature).
holds(s_15374_jpg, suburban).
holds(s_15374_jpg, door).
holds(s_15374_jpg, window).
holds(s_15374_jpg, awning).
holds(s_15374_jpg, porch).
holds(s_15374_jpg, tiledrooftop).
holds(s_15374_jpg, vendingmachine).
holds(s_15374_jpg, wallsign).
holds(s_15374_jpg, statue).
holds(s_15374_jpg, pipe).
holds(s_15374_jpg, car).
holds(s_15374_jpg, residential).

sample(s_828_jpg).
holds(s_828_jpg, building).
holds(s_828_jpg, feature).
holds(s_828_jpg, hotel).
holds(s_828_jpg, door).
holds(s_828_jpg, awning).
holds(s_828_jpg, billboard).
holds(s_828_jpg, porch).
holds(s_828_jpg, tiledrooftop).
holds(s_828_jpg, statue).
holds(s_828_jpg, chimney).
holds(s_828_jpg, machine).
holds(s_828_jpg, commercial).

sample(s_7262_jpg).
holds(s_7262_jpg, building).
holds(s_7262_jpg, feature).
holds(s_7262_jpg, suburban).
holds(s_7262_jpg, door).
holds(s_7262_jpg, window).
holds(s_7262_jpg, awning).
holds(s_7262_jpg, porch).
holds(s_7262_jpg, tiledrooftop).
holds(s_7262_jpg, vendingmachine).
holds(s_7262_jpg, wallsign).
holds(s_7262_jpg, statue).
holds(s_7262_jpg, residential).

sample(s_8045_jpg).
holds(s_8045_jpg, building).
holds(s_8045_jpg, feature).
holds(s_8045_jpg, suburban).
holds(s_8045_jpg, door).
holds(s_8045_jpg, window).
holds(s_8045_jpg, awning).
holds(s_8045_jpg, porch).
holds(s_8045_jpg, tiledrooftop).
holds(s_8045_jpg, vendingmachine).
holds(s_8045_jpg, statue).
holds(s_8045_jpg, residential).

sample(s_766_jpg).
holds(s_766_jpg, building).
holds(s_766_jpg, feature).
holds(s_766_jpg, constructionsite).
holds(s_766_jpg, awning).
holds(s_766_jpg, billboard).
holds(s_766_jpg, porch).
holds(s_766_jpg, tiledrooftop).
holds(s_766_jpg, vendingmachine).
holds(s_766_jpg, wallsign).
holds(s_766_jpg, statue).
holds(s_766_jpg, chimney).
holds(s_766_jpg, pipe).
holds(s_766_jpg, machine).
holds(s_766_jpg, industrial).

sample(s_2075_jpg).
holds(s_2075_jpg, building).
holds(s_2075_jpg, feature).
holds(s_2075_jpg, suburban).
holds(s_2075_jpg, door).
holds(s_2075_jpg, window).
holds(s_2075_jpg, awning).
holds(s_2075_jpg, porch).
holds(s_2075_jpg, table).
holds(s_2075_jpg, tiledrooftop).
holds(s_2075_jpg, vendingmachine).
holds(s_2075_jpg, wallsign).
holds(s_2075_jpg, statue).
holds(s_2075_jpg, pipe).
holds(s_2075_jpg, car).
holds(s_2075_jpg, residential).

sample(s_5559_jpg).
holds(s_5559_jpg, building).
holds(s_5559_jpg, feature).
holds(s_5559_jpg, hotel).
holds(s_5559_jpg, door).
holds(s_5559_jpg, awning).
holds(s_5559_jpg, billboard).
holds(s_5559_jpg, porch).
holds(s_5559_jpg, sign).
holds(s_5559_jpg, tiledrooftop).
holds(s_5559_jpg, chimney).
holds(s_5559_jpg, pipe).
holds(s_5559_jpg, machine).
holds(s_5559_jpg, commercial).

sample(s_12524_jpg).
holds(s_12524_jpg, building).
holds(s_12524_jpg, feature).
holds(s_12524_jpg, suburban).
holds(s_12524_jpg, door).
holds(s_12524_jpg, window).
holds(s_12524_jpg, awning).
holds(s_12524_jpg, porch).
holds(s_12524_jpg, tiledrooftop).
holds(s_12524_jpg, vendingmachine).
holds(s_12524_jpg, wallsign).
holds(s_12524_jpg, statue).
holds(s_12524_jpg, pipe).
holds(s_12524_jpg, residential).

sample(s_1253_jpg).
holds(s_1253_jpg, building).
holds(s_1253_jpg, feature).
holds(s_1253_jpg, suburban).
holds(s_1253_jpg, door).
holds(s_1253_jpg, window).
holds(s_1253_jpg, awning).
holds(s_1253_jpg, porch).
holds(s_1253_jpg, tiledrooftop).
holds(s_1253_jpg, vendingmachine).
holds(s_1253_jpg, statue).
holds(s_1253_jpg, residential).

sample(s_8057_jpg).
holds(s_8057_jpg, building).
holds(s_8057_jpg, feature).
holds(s_8057_jpg, suburban).
holds(s_8057_jpg, door).
holds(s_8057_jpg, awning).
holds(s_8057_jpg, porch).
holds(s_8057_jpg, table).
holds(s_8057_jpg, tiledrooftop).
holds(s_8057_jpg, vendingmachine).
holds(s_8057_jpg, wallsign).
holds(s_8057_jpg, statue).
holds(s_8057_jpg, chimney).
holds(s_8057_jpg, pipe).
holds(s_8057_jpg, truck).
holds(s_8057_jpg, car).
holds(s_8057_jpg, residential).

sample(s_6032_jpg).
holds(s_6032_jpg, building).
holds(s_6032_jpg, feature).
holds(s_6032_jpg, suburban).
holds(s_6032_jpg, door).
holds(s_6032_jpg, window).
holds(s_6032_jpg, awning).
holds(s_6032_jpg, table).
holds(s_6032_jpg, tiledrooftop).
holds(s_6032_jpg, vendingmachine).
holds(s_6032_jpg, wallsign).
holds(s_6032_jpg, statue).
holds(s_6032_jpg, pipe).
holds(s_6032_jpg, residential).

sample(s_9904_jpg).
holds(s_9904_jpg, building).
holds(s_9904_jpg, feature).
holds(s_9904_jpg, constructionsite).
holds(s_9904_jpg, door).
holds(s_9904_jpg, awning).
holds(s_9904_jpg, billboard).
holds(s_9904_jpg, porch).
holds(s_9904_jpg, tiledrooftop).
holds(s_9904_jpg, vendingmachine).
holds(s_9904_jpg, wallsign).
holds(s_9904_jpg, statue).
holds(s_9904_jpg, chimney).
holds(s_9904_jpg, pipe).
holds(s_9904_jpg, machine).
holds(s_9904_jpg, industrial).

sample(s_6347_jpg).
holds(s_6347_jpg, building).
holds(s_6347_jpg, feature).
holds(s_6347_jpg, suburban).
holds(s_6347_jpg, door).
holds(s_6347_jpg, window).
holds(s_6347_jpg, awning).
holds(s_6347_jpg, porch).
holds(s_6347_jpg, tiledrooftop).
holds(s_6347_jpg, vendingmachine).
holds(s_6347_jpg, statue).
holds(s_6347_jpg, residential).

sample(s_10581_jpg).
holds(s_10581_jpg, building).
holds(s_10581_jpg, feature).
holds(s_10581_jpg, hotel).
holds(s_10581_jpg, door).
holds(s_10581_jpg, awning).
holds(s_10581_jpg, porch).
holds(s_10581_jpg, tiledrooftop).
holds(s_10581_jpg, statue).
holds(s_10581_jpg, chimney).
holds(s_10581_jpg, pipe).
holds(s_10581_jpg, machine).
holds(s_10581_jpg, truck).
holds(s_10581_jpg, commercial).

sample(s_12112_jpg).
holds(s_12112_jpg, building).
holds(s_12112_jpg, feature).
holds(s_12112_jpg, constructionsite).
holds(s_12112_jpg, door).
holds(s_12112_jpg, awning).
holds(s_12112_jpg, billboard).
holds(s_12112_jpg, porch).
holds(s_12112_jpg, tiledrooftop).
holds(s_12112_jpg, wallsign).
holds(s_12112_jpg, chimney).
holds(s_12112_jpg, pipe).
holds(s_12112_jpg, machine).
holds(s_12112_jpg, industrial).

sample(s_7019_jpg).
holds(s_7019_jpg, building).
holds(s_7019_jpg, feature).
holds(s_7019_jpg, suburban).
holds(s_7019_jpg, door).
holds(s_7019_jpg, awning).
holds(s_7019_jpg, billboard).
holds(s_7019_jpg, porch).
holds(s_7019_jpg, table).
holds(s_7019_jpg, vendingmachine).
holds(s_7019_jpg, wallsign).
holds(s_7019_jpg, statue).
holds(s_7019_jpg, chimney).
holds(s_7019_jpg, pipe).
holds(s_7019_jpg, truck).
holds(s_7019_jpg, car).
holds(s_7019_jpg, residential).

sample(s_2182_jpg).
holds(s_2182_jpg, building).
holds(s_2182_jpg, feature).
holds(s_2182_jpg, constructionsite).
holds(s_2182_jpg, door).
holds(s_2182_jpg, awning).
holds(s_2182_jpg, porch).
holds(s_2182_jpg, tiledrooftop).
holds(s_2182_jpg, wallsign).
holds(s_2182_jpg, chimney).
holds(s_2182_jpg, pipe).
holds(s_2182_jpg, machine).
holds(s_2182_jpg, car).
holds(s_2182_jpg, industrial).

sample(s_12969_jpg).
holds(s_12969_jpg, building).
holds(s_12969_jpg, feature).
holds(s_12969_jpg, hotel).
holds(s_12969_jpg, door).
holds(s_12969_jpg, awning).
holds(s_12969_jpg, billboard).
holds(s_12969_jpg, porch).
holds(s_12969_jpg, sign).
holds(s_12969_jpg, tiledrooftop).
holds(s_12969_jpg, pipe).
holds(s_12969_jpg, machine).
holds(s_12969_jpg, commercial).

sample(s_788_jpg).
holds(s_788_jpg, building).
holds(s_788_jpg, feature).
holds(s_788_jpg, suburban).
holds(s_788_jpg, door).
holds(s_788_jpg, window).
holds(s_788_jpg, awning).
holds(s_788_jpg, porch).
holds(s_788_jpg, tiledrooftop).
holds(s_788_jpg, vendingmachine).
holds(s_788_jpg, statue).
holds(s_788_jpg, residential).

sample(s_8794_jpg).
holds(s_8794_jpg, building).
holds(s_8794_jpg, feature).
holds(s_8794_jpg, constructionsite).
holds(s_8794_jpg, awning).
holds(s_8794_jpg, billboard).
holds(s_8794_jpg, porch).
holds(s_8794_jpg, tiledrooftop).
holds(s_8794_jpg, wallsign).
holds(s_8794_jpg, chimney).
holds(s_8794_jpg, pipe).
holds(s_8794_jpg, machine).
holds(s_8794_jpg, industrial).

sample(s_15206_jpg).
holds(s_15206_jpg, building).
holds(s_15206_jpg, feature).
holds(s_15206_jpg, suburban).
holds(s_15206_jpg, door).
holds(s_15206_jpg, window).
holds(s_15206_jpg, awning).
holds(s_15206_jpg, porch).
holds(s_15206_jpg, tiledrooftop).
holds(s_15206_jpg, vendingmachine).
holds(s_15206_jpg, statue).
holds(s_15206_jpg, residential).

sample(s_7615_jpg).
holds(s_7615_jpg, building).
holds(s_7615_jpg, feature).
holds(s_7615_jpg, constructionsite).
holds(s_7615_jpg, awning).
holds(s_7615_jpg, billboard).
holds(s_7615_jpg, porch).
holds(s_7615_jpg, tiledrooftop).
holds(s_7615_jpg, wallsign).
holds(s_7615_jpg, chimney).
holds(s_7615_jpg, pipe).
holds(s_7615_jpg, machine).
holds(s_7615_jpg, industrial).

sample(s_4532_jpg).
holds(s_4532_jpg, building).
holds(s_4532_jpg, feature).
holds(s_4532_jpg, suburban).
holds(s_4532_jpg, door).
holds(s_4532_jpg, window).
holds(s_4532_jpg, awning).
holds(s_4532_jpg, porch).
holds(s_4532_jpg, tiledrooftop).
holds(s_4532_jpg, vendingmachine).
holds(s_4532_jpg, statue).
holds(s_4532_jpg, pipe).
holds(s_4532_jpg, residential).

sample(s_6685_jpg).
holds(s_6685_jpg, building).
holds(s_6685_jpg, feature).
holds(s_6685_jpg, constructionsite).
holds(s_6685_jpg, awning).
holds(s_6685_jpg, billboard).
holds(s_6685_jpg, porch).
holds(s_6685_jpg, tiledrooftop).
holds(s_6685_jpg, wallsign).
holds(s_6685_jpg, chimney).
holds(s_6685_jpg, machine).
holds(s_6685_jpg, industrial).

sample(s_3768_jpg).
holds(s_3768_jpg, building).
holds(s_3768_jpg, feature).
holds(s_3768_jpg, hotel).
holds(s_3768_jpg, door).
holds(s_3768_jpg, awning).
holds(s_3768_jpg, porch).
holds(s_3768_jpg, sign).
holds(s_3768_jpg, tiledrooftop).
holds(s_3768_jpg, pipe).
holds(s_3768_jpg, machine).
holds(s_3768_jpg, commercial).

sample(s_3746_jpg).
holds(s_3746_jpg, building).
holds(s_3746_jpg, feature).
holds(s_3746_jpg, suburban).
holds(s_3746_jpg, door).
holds(s_3746_jpg, window).
holds(s_3746_jpg, awning).
holds(s_3746_jpg, porch).
holds(s_3746_jpg, tiledrooftop).
holds(s_3746_jpg, vendingmachine).
holds(s_3746_jpg, statue).
holds(s_3746_jpg, residential).

sample(s_10580_jpg).
holds(s_10580_jpg, building).
holds(s_10580_jpg, feature).
holds(s_10580_jpg, suburban).
holds(s_10580_jpg, door).
holds(s_10580_jpg, window).
holds(s_10580_jpg, awning).
holds(s_10580_jpg, porch).
holds(s_10580_jpg, tiledrooftop).
holds(s_10580_jpg, vendingmachine).
holds(s_10580_jpg, statue).
holds(s_10580_jpg, residential).

sample(s_3970_jpg).
holds(s_3970_jpg, building).
holds(s_3970_jpg, feature).
holds(s_3970_jpg, constructionsite).
holds(s_3970_jpg, awning).
holds(s_3970_jpg, billboard).
holds(s_3970_jpg, porch).
holds(s_3970_jpg, tiledrooftop).
holds(s_3970_jpg, wallsign).
holds(s_3970_jpg, chimney).
holds(s_3970_jpg, pipe).
holds(s_3970_jpg, machine).
holds(s_3970_jpg, industrial).

sample(s_15430_jpg).
holds(s_15430_jpg, building).
holds(s_15430_jpg, feature).
holds(s_15430_jpg, constructionsite).
holds(s_15430_jpg, awning).
holds(s_15430_jpg, billboard).
holds(s_15430_jpg, porch).
holds(s_15430_jpg, tiledrooftop).
holds(s_15430_jpg, wallsign).
holds(s_15430_jpg, chimney).
holds(s_15430_jpg, pipe).
holds(s_15430_jpg, machine).
holds(s_15430_jpg, industrial).

sample(s_8245_jpg).
holds(s_8245_jpg, building).
holds(s_8245_jpg, feature).
holds(s_8245_jpg, constructionsite).
holds(s_8245_jpg, awning).
holds(s_8245_jpg, billboard).
holds(s_8245_jpg, porch).
holds(s_8245_jpg, tiledrooftop).
holds(s_8245_jpg, wallsign).
holds(s_8245_jpg, chimney).
holds(s_8245_jpg, pipe).
holds(s_8245_jpg, machine).
holds(s_8245_jpg, industrial).

sample(s_988_jpg).
holds(s_988_jpg, building).
holds(s_988_jpg, feature).
holds(s_988_jpg, constructionsite).
holds(s_988_jpg, awning).
holds(s_988_jpg, billboard).
holds(s_988_jpg, porch).
holds(s_988_jpg, tiledrooftop).
holds(s_988_jpg, wallsign).
holds(s_988_jpg, statue).
holds(s_988_jpg, chimney).
holds(s_988_jpg, pipe).
holds(s_988_jpg, machine).
holds(s_988_jpg, industrial).

sample(s_14226_jpg).
holds(s_14226_jpg, building).
holds(s_14226_jpg, feature).
holds(s_14226_jpg, hotel).
holds(s_14226_jpg, door).
holds(s_14226_jpg, awning).
holds(s_14226_jpg, billboard).
holds(s_14226_jpg, porch).
holds(s_14226_jpg, sign).
holds(s_14226_jpg, tiledrooftop).
holds(s_14226_jpg, chimney).
holds(s_14226_jpg, pipe).
holds(s_14226_jpg, machine).
holds(s_14226_jpg, commercial).

sample(s_6021_jpg).
holds(s_6021_jpg, building).
holds(s_6021_jpg, feature).
holds(s_6021_jpg, hotel).
holds(s_6021_jpg, door).
holds(s_6021_jpg, awning).
holds(s_6021_jpg, porch).
holds(s_6021_jpg, tiledrooftop).
holds(s_6021_jpg, vendingmachine).
holds(s_6021_jpg, wallsign).
holds(s_6021_jpg, statue).
holds(s_6021_jpg, chimney).
holds(s_6021_jpg, pipe).
holds(s_6021_jpg, machine).
holds(s_6021_jpg, commercial).

sample(s_7618_jpg).
holds(s_7618_jpg, building).
holds(s_7618_jpg, feature).
holds(s_7618_jpg, constructionsite).
holds(s_7618_jpg, awning).
holds(s_7618_jpg, billboard).
holds(s_7618_jpg, porch).
holds(s_7618_jpg, tiledrooftop).
holds(s_7618_jpg, wallsign).
holds(s_7618_jpg, chimney).
holds(s_7618_jpg, pipe).
holds(s_7618_jpg, machine).
holds(s_7618_jpg, industrial).

sample(s_11305_jpg).
holds(s_11305_jpg, building).
holds(s_11305_jpg, feature).
holds(s_11305_jpg, constructionsite).
holds(s_11305_jpg, awning).
holds(s_11305_jpg, billboard).
holds(s_11305_jpg, porch).
holds(s_11305_jpg, tiledrooftop).
holds(s_11305_jpg, wallsign).
holds(s_11305_jpg, chimney).
holds(s_11305_jpg, pipe).
holds(s_11305_jpg, machine).
holds(s_11305_jpg, industrial).

sample(s_3139_jpg).
holds(s_3139_jpg, building).
holds(s_3139_jpg, feature).
holds(s_3139_jpg, constructionsite).
holds(s_3139_jpg, awning).
holds(s_3139_jpg, billboard).
holds(s_3139_jpg, porch).
holds(s_3139_jpg, tiledrooftop).
holds(s_3139_jpg, wallsign).
holds(s_3139_jpg, chimney).
holds(s_3139_jpg, machine).
holds(s_3139_jpg, industrial).

sample(s_14391_jpg).
holds(s_14391_jpg, building).
holds(s_14391_jpg, feature).
holds(s_14391_jpg, hotel).
holds(s_14391_jpg, door).
holds(s_14391_jpg, window).
holds(s_14391_jpg, awning).
holds(s_14391_jpg, porch).
holds(s_14391_jpg, tiledrooftop).
holds(s_14391_jpg, vendingmachine).
holds(s_14391_jpg, statue).
holds(s_14391_jpg, pipe).
holds(s_14391_jpg, machine).
holds(s_14391_jpg, commercial).

sample(s_3331_jpg).
holds(s_3331_jpg, building).
holds(s_3331_jpg, feature).
holds(s_3331_jpg, constructionsite).
holds(s_3331_jpg, door).
holds(s_3331_jpg, awning).
holds(s_3331_jpg, billboard).
holds(s_3331_jpg, porch).
holds(s_3331_jpg, tiledrooftop).
holds(s_3331_jpg, vendingmachine).
holds(s_3331_jpg, wallsign).
holds(s_3331_jpg, statue).
holds(s_3331_jpg, chimney).
holds(s_3331_jpg, pipe).
holds(s_3331_jpg, machine).
holds(s_3331_jpg, industrial).

sample(s_10745_jpg).
holds(s_10745_jpg, building).
holds(s_10745_jpg, feature).
holds(s_10745_jpg, suburban).
holds(s_10745_jpg, door).
holds(s_10745_jpg, awning).
holds(s_10745_jpg, table).
holds(s_10745_jpg, vendingmachine).
holds(s_10745_jpg, wallsign).
holds(s_10745_jpg, statue).
holds(s_10745_jpg, chimney).
holds(s_10745_jpg, pipe).
holds(s_10745_jpg, truck).
holds(s_10745_jpg, car).
holds(s_10745_jpg, residential).

sample(s_1480_jpg).
holds(s_1480_jpg, building).
holds(s_1480_jpg, feature).
holds(s_1480_jpg, constructionsite).
holds(s_1480_jpg, door).
holds(s_1480_jpg, awning).
holds(s_1480_jpg, billboard).
holds(s_1480_jpg, porch).
holds(s_1480_jpg, tiledrooftop).
holds(s_1480_jpg, vendingmachine).
holds(s_1480_jpg, wallsign).
holds(s_1480_jpg, statue).
holds(s_1480_jpg, chimney).
holds(s_1480_jpg, pipe).
holds(s_1480_jpg, machine).
holds(s_1480_jpg, industrial).

sample(s_8435_jpg).
holds(s_8435_jpg, building).
holds(s_8435_jpg, feature).
holds(s_8435_jpg, suburban).
holds(s_8435_jpg, door).
holds(s_8435_jpg, window).
holds(s_8435_jpg, awning).
holds(s_8435_jpg, porch).
holds(s_8435_jpg, tiledrooftop).
holds(s_8435_jpg, vendingmachine).
holds(s_8435_jpg, statue).
holds(s_8435_jpg, residential).

sample(s_11491_jpg).
holds(s_11491_jpg, building).
holds(s_11491_jpg, feature).
holds(s_11491_jpg, constructionsite).
holds(s_11491_jpg, door).
holds(s_11491_jpg, awning).
holds(s_11491_jpg, billboard).
holds(s_11491_jpg, porch).
holds(s_11491_jpg, tiledrooftop).
holds(s_11491_jpg, wallsign).
holds(s_11491_jpg, chimney).
holds(s_11491_jpg, pipe).
holds(s_11491_jpg, machine).
holds(s_11491_jpg, industrial).

sample(s_11453_jpg).
holds(s_11453_jpg, building).
holds(s_11453_jpg, feature).
holds(s_11453_jpg, suburban).
holds(s_11453_jpg, door).
holds(s_11453_jpg, window).
holds(s_11453_jpg, awning).
holds(s_11453_jpg, porch).
holds(s_11453_jpg, tiledrooftop).
holds(s_11453_jpg, vendingmachine).
holds(s_11453_jpg, statue).
holds(s_11453_jpg, pipe).
holds(s_11453_jpg, machine).
holds(s_11453_jpg, residential).

sample(s_11182_jpg).
holds(s_11182_jpg, building).
holds(s_11182_jpg, feature).
holds(s_11182_jpg, constructionsite).
holds(s_11182_jpg, awning).
holds(s_11182_jpg, billboard).
holds(s_11182_jpg, porch).
holds(s_11182_jpg, tiledrooftop).
holds(s_11182_jpg, wallsign).
holds(s_11182_jpg, chimney).
holds(s_11182_jpg, machine).
holds(s_11182_jpg, industrial).

sample(s_3055_jpg).
holds(s_3055_jpg, building).
holds(s_3055_jpg, feature).
holds(s_3055_jpg, constructionsite).
holds(s_3055_jpg, door).
holds(s_3055_jpg, awning).
holds(s_3055_jpg, billboard).
holds(s_3055_jpg, porch).
holds(s_3055_jpg, tiledrooftop).
holds(s_3055_jpg, wallsign).
holds(s_3055_jpg, chimney).
holds(s_3055_jpg, pipe).
holds(s_3055_jpg, machine).
holds(s_3055_jpg, industrial).

sample(s_14816_jpg).
holds(s_14816_jpg, building).
holds(s_14816_jpg, feature).
holds(s_14816_jpg, suburban).
holds(s_14816_jpg, door).
holds(s_14816_jpg, window).
holds(s_14816_jpg, awning).
holds(s_14816_jpg, porch).
holds(s_14816_jpg, tiledrooftop).
holds(s_14816_jpg, vendingmachine).
holds(s_14816_jpg, statue).
holds(s_14816_jpg, residential).

sample(s_12217_jpg).
holds(s_12217_jpg, building).
holds(s_12217_jpg, feature).
holds(s_12217_jpg, constructionsite).
holds(s_12217_jpg, awning).
holds(s_12217_jpg, billboard).
holds(s_12217_jpg, porch).
holds(s_12217_jpg, tiledrooftop).
holds(s_12217_jpg, chimney).
holds(s_12217_jpg, machine).
holds(s_12217_jpg, industrial).

sample(s_9752_jpg).
holds(s_9752_jpg, building).
holds(s_9752_jpg, feature).
holds(s_9752_jpg, suburban).
holds(s_9752_jpg, door).
holds(s_9752_jpg, window).
holds(s_9752_jpg, awning).
holds(s_9752_jpg, porch).
holds(s_9752_jpg, tiledrooftop).
holds(s_9752_jpg, vendingmachine).
holds(s_9752_jpg, statue).
holds(s_9752_jpg, residential).

sample(s_12812_jpg).
holds(s_12812_jpg, building).
holds(s_12812_jpg, feature).
holds(s_12812_jpg, suburban).
holds(s_12812_jpg, door).
holds(s_12812_jpg, window).
holds(s_12812_jpg, awning).
holds(s_12812_jpg, table).
holds(s_12812_jpg, tiledrooftop).
holds(s_12812_jpg, vendingmachine).
holds(s_12812_jpg, wallsign).
holds(s_12812_jpg, statue).
holds(s_12812_jpg, pipe).
holds(s_12812_jpg, residential).

sample(s_419_jpg).
holds(s_419_jpg, building).
holds(s_419_jpg, feature).
holds(s_419_jpg, suburban).
holds(s_419_jpg, door).
holds(s_419_jpg, window).
holds(s_419_jpg, awning).
holds(s_419_jpg, table).
holds(s_419_jpg, tiledrooftop).
holds(s_419_jpg, vendingmachine).
holds(s_419_jpg, wallsign).
holds(s_419_jpg, statue).
holds(s_419_jpg, pipe).
holds(s_419_jpg, car).
holds(s_419_jpg, residential).

sample(s_4984_jpg).
holds(s_4984_jpg, building).
holds(s_4984_jpg, feature).
holds(s_4984_jpg, constructionsite).
holds(s_4984_jpg, awning).
holds(s_4984_jpg, billboard).
holds(s_4984_jpg, porch).
holds(s_4984_jpg, tiledrooftop).
holds(s_4984_jpg, wallsign).
holds(s_4984_jpg, chimney).
holds(s_4984_jpg, pipe).
holds(s_4984_jpg, machine).
holds(s_4984_jpg, industrial).

sample(s_1890_jpg).
holds(s_1890_jpg, building).
holds(s_1890_jpg, feature).
holds(s_1890_jpg, hotel).
holds(s_1890_jpg, door).
holds(s_1890_jpg, awning).
holds(s_1890_jpg, billboard).
holds(s_1890_jpg, porch).
holds(s_1890_jpg, sign).
holds(s_1890_jpg, tiledrooftop).
holds(s_1890_jpg, chimney).
holds(s_1890_jpg, pipe).
holds(s_1890_jpg, machine).
holds(s_1890_jpg, commercial).

sample(s_12095_jpg).
holds(s_12095_jpg, building).
holds(s_12095_jpg, feature).
holds(s_12095_jpg, suburban).
holds(s_12095_jpg, door).
holds(s_12095_jpg, window).
holds(s_12095_jpg, awning).
holds(s_12095_jpg, porch).
holds(s_12095_jpg, tiledrooftop).
holds(s_12095_jpg, vendingmachine).
holds(s_12095_jpg, statue).
holds(s_12095_jpg, pipe).
holds(s_12095_jpg, residential).

sample(s_4720_jpg).
holds(s_4720_jpg, building).
holds(s_4720_jpg, feature).
holds(s_4720_jpg, constructionsite).
holds(s_4720_jpg, awning).
holds(s_4720_jpg, billboard).
holds(s_4720_jpg, porch).
holds(s_4720_jpg, tiledrooftop).
holds(s_4720_jpg, vendingmachine).
holds(s_4720_jpg, wallsign).
holds(s_4720_jpg, statue).
holds(s_4720_jpg, chimney).
holds(s_4720_jpg, pipe).
holds(s_4720_jpg, machine).
holds(s_4720_jpg, industrial).

sample(s_13126_jpg).
holds(s_13126_jpg, building).
holds(s_13126_jpg, feature).
holds(s_13126_jpg, constructionsite).
holds(s_13126_jpg, door).
holds(s_13126_jpg, awning).
holds(s_13126_jpg, billboard).
holds(s_13126_jpg, porch).
holds(s_13126_jpg, tiledrooftop).
holds(s_13126_jpg, vendingmachine).
holds(s_13126_jpg, wallsign).
holds(s_13126_jpg, chimney).
holds(s_13126_jpg, pipe).
holds(s_13126_jpg, machine).
holds(s_13126_jpg, industrial).

sample(s_4837_jpg).
holds(s_4837_jpg, building).
holds(s_4837_jpg, feature).
holds(s_4837_jpg, constructionsite).
holds(s_4837_jpg, awning).
holds(s_4837_jpg, billboard).
holds(s_4837_jpg, porch).
holds(s_4837_jpg, tiledrooftop).
holds(s_4837_jpg, vendingmachine).
holds(s_4837_jpg, wallsign).
holds(s_4837_jpg, chimney).
holds(s_4837_jpg, pipe).
holds(s_4837_jpg, machine).
holds(s_4837_jpg, industrial).

sample(s_1004_jpg).
holds(s_1004_jpg, building).
holds(s_1004_jpg, feature).
holds(s_1004_jpg, suburban).
holds(s_1004_jpg, door).
holds(s_1004_jpg, window).
holds(s_1004_jpg, awning).
holds(s_1004_jpg, table).
holds(s_1004_jpg, tiledrooftop).
holds(s_1004_jpg, vendingmachine).
holds(s_1004_jpg, wallsign).
holds(s_1004_jpg, statue).
holds(s_1004_jpg, pipe).
holds(s_1004_jpg, car).
holds(s_1004_jpg, residential).

sample(s_11758_jpg).
holds(s_11758_jpg, building).
holds(s_11758_jpg, feature).
holds(s_11758_jpg, constructionsite).
holds(s_11758_jpg, door).
holds(s_11758_jpg, awning).
holds(s_11758_jpg, billboard).
holds(s_11758_jpg, porch).
holds(s_11758_jpg, tiledrooftop).
holds(s_11758_jpg, wallsign).
holds(s_11758_jpg, chimney).
holds(s_11758_jpg, pipe).
holds(s_11758_jpg, machine).
holds(s_11758_jpg, industrial).

sample(s_866_jpg).
holds(s_866_jpg, building).
holds(s_866_jpg, feature).
holds(s_866_jpg, suburban).
holds(s_866_jpg, door).
holds(s_866_jpg, window).
holds(s_866_jpg, awning).
holds(s_866_jpg, porch).
holds(s_866_jpg, table).
holds(s_866_jpg, tiledrooftop).
holds(s_866_jpg, vendingmachine).
holds(s_866_jpg, wallsign).
holds(s_866_jpg, statue).
holds(s_866_jpg, pipe).
holds(s_866_jpg, residential).

sample(s_4386_jpg).
holds(s_4386_jpg, building).
holds(s_4386_jpg, feature).
holds(s_4386_jpg, hotel).
holds(s_4386_jpg, door).
holds(s_4386_jpg, awning).
holds(s_4386_jpg, porch).
holds(s_4386_jpg, tiledrooftop).
holds(s_4386_jpg, statue).
holds(s_4386_jpg, chimney).
holds(s_4386_jpg, machine).
holds(s_4386_jpg, commercial).

sample(s_11953_jpg).
holds(s_11953_jpg, building).
holds(s_11953_jpg, feature).
holds(s_11953_jpg, constructionsite).
holds(s_11953_jpg, door).
holds(s_11953_jpg, awning).
holds(s_11953_jpg, billboard).
holds(s_11953_jpg, porch).
holds(s_11953_jpg, tiledrooftop).
holds(s_11953_jpg, vendingmachine).
holds(s_11953_jpg, wallsign).
holds(s_11953_jpg, statue).
holds(s_11953_jpg, chimney).
holds(s_11953_jpg, pipe).
holds(s_11953_jpg, machine).
holds(s_11953_jpg, industrial).

sample(s_10590_jpg).
holds(s_10590_jpg, building).
holds(s_10590_jpg, feature).
holds(s_10590_jpg, hotel).
holds(s_10590_jpg, door).
holds(s_10590_jpg, awning).
holds(s_10590_jpg, billboard).
holds(s_10590_jpg, porch).
holds(s_10590_jpg, sign).
holds(s_10590_jpg, tiledrooftop).
holds(s_10590_jpg, chimney).
holds(s_10590_jpg, pipe).
holds(s_10590_jpg, machine).
holds(s_10590_jpg, commercial).

sample(s_8648_jpg).
holds(s_8648_jpg, building).
holds(s_8648_jpg, feature).
holds(s_8648_jpg, suburban).
holds(s_8648_jpg, door).
holds(s_8648_jpg, window).
holds(s_8648_jpg, awning).
holds(s_8648_jpg, porch).
holds(s_8648_jpg, table).
holds(s_8648_jpg, tiledrooftop).
holds(s_8648_jpg, vendingmachine).
holds(s_8648_jpg, wallsign).
holds(s_8648_jpg, statue).
holds(s_8648_jpg, residential).

sample(s_14842_jpg).
holds(s_14842_jpg, building).
holds(s_14842_jpg, feature).
holds(s_14842_jpg, constructionsite).
holds(s_14842_jpg, awning).
holds(s_14842_jpg, billboard).
holds(s_14842_jpg, porch).
holds(s_14842_jpg, tiledrooftop).
holds(s_14842_jpg, chimney).
holds(s_14842_jpg, machine).
holds(s_14842_jpg, industrial).

sample(s_13460_jpg).
holds(s_13460_jpg, building).
holds(s_13460_jpg, feature).
holds(s_13460_jpg, suburban).
holds(s_13460_jpg, door).
holds(s_13460_jpg, window).
holds(s_13460_jpg, awning).
holds(s_13460_jpg, porch).
holds(s_13460_jpg, table).
holds(s_13460_jpg, tiledrooftop).
holds(s_13460_jpg, vendingmachine).
holds(s_13460_jpg, wallsign).
holds(s_13460_jpg, statue).
holds(s_13460_jpg, pipe).
holds(s_13460_jpg, residential).

sample(s_44_jpg).
holds(s_44_jpg, building).
holds(s_44_jpg, feature).
holds(s_44_jpg, suburban).
holds(s_44_jpg, door).
holds(s_44_jpg, window).
holds(s_44_jpg, awning).
holds(s_44_jpg, porch).
holds(s_44_jpg, tiledrooftop).
holds(s_44_jpg, vendingmachine).
holds(s_44_jpg, wallsign).
holds(s_44_jpg, statue).
holds(s_44_jpg, pipe).
holds(s_44_jpg, truck).
holds(s_44_jpg, residential).

sample(s_15711_jpg).
holds(s_15711_jpg, building).
holds(s_15711_jpg, feature).
holds(s_15711_jpg, hotel).
holds(s_15711_jpg, door).
holds(s_15711_jpg, awning).
holds(s_15711_jpg, porch).
holds(s_15711_jpg, tiledrooftop).
holds(s_15711_jpg, statue).
holds(s_15711_jpg, chimney).
holds(s_15711_jpg, machine).
holds(s_15711_jpg, commercial).

sample(s_7791_jpg).
holds(s_7791_jpg, building).
holds(s_7791_jpg, feature).
holds(s_7791_jpg, hotel).
holds(s_7791_jpg, door).
holds(s_7791_jpg, awning).
holds(s_7791_jpg, billboard).
holds(s_7791_jpg, porch).
holds(s_7791_jpg, sign).
holds(s_7791_jpg, tiledrooftop).
holds(s_7791_jpg, pipe).
holds(s_7791_jpg, machine).
holds(s_7791_jpg, commercial).

sample(s_11622_jpg).
holds(s_11622_jpg, building).
holds(s_11622_jpg, feature).
holds(s_11622_jpg, hotel).
holds(s_11622_jpg, door).
holds(s_11622_jpg, awning).
holds(s_11622_jpg, billboard).
holds(s_11622_jpg, porch).
holds(s_11622_jpg, sign).
holds(s_11622_jpg, tiledrooftop).
holds(s_11622_jpg, chimney).
holds(s_11622_jpg, pipe).
holds(s_11622_jpg, machine).
holds(s_11622_jpg, commercial).

sample(s_1119_jpg).
holds(s_1119_jpg, building).
holds(s_1119_jpg, feature).
holds(s_1119_jpg, hotel).
holds(s_1119_jpg, door).
holds(s_1119_jpg, awning).
holds(s_1119_jpg, billboard).
holds(s_1119_jpg, porch).
holds(s_1119_jpg, sign).
holds(s_1119_jpg, tiledrooftop).
holds(s_1119_jpg, chimney).
holds(s_1119_jpg, pipe).
holds(s_1119_jpg, machine).
holds(s_1119_jpg, commercial).

sample(s_741_jpg).
holds(s_741_jpg, building).
holds(s_741_jpg, feature).
holds(s_741_jpg, hotel).
holds(s_741_jpg, door).
holds(s_741_jpg, awning).
holds(s_741_jpg, billboard).
holds(s_741_jpg, porch).
holds(s_741_jpg, sign).
holds(s_741_jpg, tiledrooftop).
holds(s_741_jpg, pipe).
holds(s_741_jpg, machine).
holds(s_741_jpg, commercial).

sample(s_3470_jpg).
holds(s_3470_jpg, building).
holds(s_3470_jpg, feature).
holds(s_3470_jpg, suburban).
holds(s_3470_jpg, door).
holds(s_3470_jpg, window).
holds(s_3470_jpg, awning).
holds(s_3470_jpg, porch).
holds(s_3470_jpg, tiledrooftop).
holds(s_3470_jpg, vendingmachine).
holds(s_3470_jpg, statue).
holds(s_3470_jpg, residential).

sample(s_12158_jpg).
holds(s_12158_jpg, building).
holds(s_12158_jpg, feature).
holds(s_12158_jpg, suburban).
holds(s_12158_jpg, door).
holds(s_12158_jpg, window).
holds(s_12158_jpg, awning).
holds(s_12158_jpg, porch).
holds(s_12158_jpg, tiledrooftop).
holds(s_12158_jpg, vendingmachine).
holds(s_12158_jpg, wallsign).
holds(s_12158_jpg, statue).
holds(s_12158_jpg, residential).

sample(s_15949_jpg).
holds(s_15949_jpg, building).
holds(s_15949_jpg, feature).
holds(s_15949_jpg, constructionsite).
holds(s_15949_jpg, door).
holds(s_15949_jpg, awning).
holds(s_15949_jpg, billboard).
holds(s_15949_jpg, porch).
holds(s_15949_jpg, tiledrooftop).
holds(s_15949_jpg, wallsign).
holds(s_15949_jpg, statue).
holds(s_15949_jpg, chimney).
holds(s_15949_jpg, pipe).
holds(s_15949_jpg, machine).
holds(s_15949_jpg, industrial).

sample(s_15042_jpg).
holds(s_15042_jpg, building).
holds(s_15042_jpg, feature).
holds(s_15042_jpg, hotel).
holds(s_15042_jpg, door).
holds(s_15042_jpg, awning).
holds(s_15042_jpg, billboard).
holds(s_15042_jpg, porch).
holds(s_15042_jpg, sign).
holds(s_15042_jpg, tiledrooftop).
holds(s_15042_jpg, chimney).
holds(s_15042_jpg, pipe).
holds(s_15042_jpg, machine).
holds(s_15042_jpg, commercial).

sample(s_6639_jpg).
holds(s_6639_jpg, building).
holds(s_6639_jpg, feature).
holds(s_6639_jpg, hotel).
holds(s_6639_jpg, door).
holds(s_6639_jpg, awning).
holds(s_6639_jpg, billboard).
holds(s_6639_jpg, porch).
holds(s_6639_jpg, sign).
holds(s_6639_jpg, tiledrooftop).
holds(s_6639_jpg, pipe).
holds(s_6639_jpg, machine).
holds(s_6639_jpg, commercial).

sample(s_2916_jpg).
holds(s_2916_jpg, building).
holds(s_2916_jpg, feature).
holds(s_2916_jpg, hotel).
holds(s_2916_jpg, door).
holds(s_2916_jpg, awning).
holds(s_2916_jpg, billboard).
holds(s_2916_jpg, porch).
holds(s_2916_jpg, sign).
holds(s_2916_jpg, tiledrooftop).
holds(s_2916_jpg, pipe).
holds(s_2916_jpg, machine).
holds(s_2916_jpg, commercial).

sample(s_7256_jpg).
holds(s_7256_jpg, building).
holds(s_7256_jpg, feature).
holds(s_7256_jpg, suburban).
holds(s_7256_jpg, door).
holds(s_7256_jpg, window).
holds(s_7256_jpg, awning).
holds(s_7256_jpg, porch).
holds(s_7256_jpg, tiledrooftop).
holds(s_7256_jpg, vendingmachine).
holds(s_7256_jpg, statue).
holds(s_7256_jpg, residential).

sample(s_6382_jpg).
holds(s_6382_jpg, building).
holds(s_6382_jpg, feature).
holds(s_6382_jpg, constructionsite).
holds(s_6382_jpg, awning).
holds(s_6382_jpg, billboard).
holds(s_6382_jpg, porch).
holds(s_6382_jpg, tiledrooftop).
holds(s_6382_jpg, wallsign).
holds(s_6382_jpg, chimney).
holds(s_6382_jpg, pipe).
holds(s_6382_jpg, machine).
holds(s_6382_jpg, industrial).

sample(s_2147_jpg).
holds(s_2147_jpg, building).
holds(s_2147_jpg, feature).
holds(s_2147_jpg, suburban).
holds(s_2147_jpg, door).
holds(s_2147_jpg, awning).
holds(s_2147_jpg, table).
holds(s_2147_jpg, vendingmachine).
holds(s_2147_jpg, wallsign).
holds(s_2147_jpg, statue).
holds(s_2147_jpg, chimney).
holds(s_2147_jpg, pipe).
holds(s_2147_jpg, truck).
holds(s_2147_jpg, car).
holds(s_2147_jpg, residential).

sample(s_6183_jpg).
holds(s_6183_jpg, building).
holds(s_6183_jpg, feature).
holds(s_6183_jpg, hotel).
holds(s_6183_jpg, door).
holds(s_6183_jpg, awning).
holds(s_6183_jpg, billboard).
holds(s_6183_jpg, porch).
holds(s_6183_jpg, sign).
holds(s_6183_jpg, tiledrooftop).
holds(s_6183_jpg, chimney).
holds(s_6183_jpg, pipe).
holds(s_6183_jpg, machine).
holds(s_6183_jpg, commercial).

sample(s_1019_jpg).
holds(s_1019_jpg, building).
holds(s_1019_jpg, feature).
holds(s_1019_jpg, suburban).
holds(s_1019_jpg, door).
holds(s_1019_jpg, window).
holds(s_1019_jpg, awning).
holds(s_1019_jpg, porch).
holds(s_1019_jpg, table).
holds(s_1019_jpg, tiledrooftop).
holds(s_1019_jpg, vendingmachine).
holds(s_1019_jpg, wallsign).
holds(s_1019_jpg, statue).
holds(s_1019_jpg, pipe).
holds(s_1019_jpg, car).
holds(s_1019_jpg, residential).

sample(s_14015_jpg).
holds(s_14015_jpg, building).
holds(s_14015_jpg, feature).
holds(s_14015_jpg, suburban).
holds(s_14015_jpg, door).
holds(s_14015_jpg, window).
holds(s_14015_jpg, awning).
holds(s_14015_jpg, porch).
holds(s_14015_jpg, tiledrooftop).
holds(s_14015_jpg, vendingmachine).
holds(s_14015_jpg, wallsign).
holds(s_14015_jpg, statue).
holds(s_14015_jpg, pipe).
holds(s_14015_jpg, residential).

sample(s_11914_jpg).
holds(s_11914_jpg, building).
holds(s_11914_jpg, feature).
holds(s_11914_jpg, constructionsite).
holds(s_11914_jpg, awning).
holds(s_11914_jpg, billboard).
holds(s_11914_jpg, porch).
holds(s_11914_jpg, tiledrooftop).
holds(s_11914_jpg, vendingmachine).
holds(s_11914_jpg, wallsign).
holds(s_11914_jpg, chimney).
holds(s_11914_jpg, pipe).
holds(s_11914_jpg, machine).
holds(s_11914_jpg, industrial).

sample(s_885_jpg).
holds(s_885_jpg, building).
holds(s_885_jpg, feature).
holds(s_885_jpg, hotel).
holds(s_885_jpg, door).
holds(s_885_jpg, awning).
holds(s_885_jpg, billboard).
holds(s_885_jpg, porch).
holds(s_885_jpg, sign).
holds(s_885_jpg, tiledrooftop).
holds(s_885_jpg, chimney).
holds(s_885_jpg, pipe).
holds(s_885_jpg, machine).
holds(s_885_jpg, commercial).

sample(s_9819_jpg).
holds(s_9819_jpg, building).
holds(s_9819_jpg, feature).
holds(s_9819_jpg, hotel).
holds(s_9819_jpg, door).
holds(s_9819_jpg, awning).
holds(s_9819_jpg, porch).
holds(s_9819_jpg, tiledrooftop).
holds(s_9819_jpg, vendingmachine).
holds(s_9819_jpg, statue).
holds(s_9819_jpg, chimney).
holds(s_9819_jpg, machine).
holds(s_9819_jpg, commercial).

sample(s_8080_jpg).
holds(s_8080_jpg, building).
holds(s_8080_jpg, feature).
holds(s_8080_jpg, constructionsite).
holds(s_8080_jpg, awning).
holds(s_8080_jpg, billboard).
holds(s_8080_jpg, porch).
holds(s_8080_jpg, tiledrooftop).
holds(s_8080_jpg, wallsign).
holds(s_8080_jpg, chimney).
holds(s_8080_jpg, pipe).
holds(s_8080_jpg, machine).
holds(s_8080_jpg, industrial).

sample(s_9345_jpg).
holds(s_9345_jpg, building).
holds(s_9345_jpg, feature).
holds(s_9345_jpg, hotel).
holds(s_9345_jpg, door).
holds(s_9345_jpg, awning).
holds(s_9345_jpg, billboard).
holds(s_9345_jpg, porch).
holds(s_9345_jpg, sign).
holds(s_9345_jpg, tiledrooftop).
holds(s_9345_jpg, chimney).
holds(s_9345_jpg, pipe).
holds(s_9345_jpg, machine).
holds(s_9345_jpg, commercial).

sample(s_5727_jpg).
holds(s_5727_jpg, building).
holds(s_5727_jpg, feature).
holds(s_5727_jpg, hotel).
holds(s_5727_jpg, door).
holds(s_5727_jpg, awning).
holds(s_5727_jpg, billboard).
holds(s_5727_jpg, porch).
holds(s_5727_jpg, sign).
holds(s_5727_jpg, tiledrooftop).
holds(s_5727_jpg, chimney).
holds(s_5727_jpg, pipe).
holds(s_5727_jpg, machine).
holds(s_5727_jpg, commercial).

sample(s_13532_jpg).
holds(s_13532_jpg, building).
holds(s_13532_jpg, feature).
holds(s_13532_jpg, suburban).
holds(s_13532_jpg, door).
holds(s_13532_jpg, awning).
holds(s_13532_jpg, porch).
holds(s_13532_jpg, table).
holds(s_13532_jpg, tiledrooftop).
holds(s_13532_jpg, vendingmachine).
holds(s_13532_jpg, wallsign).
holds(s_13532_jpg, statue).
holds(s_13532_jpg, chimney).
holds(s_13532_jpg, pipe).
holds(s_13532_jpg, truck).
holds(s_13532_jpg, car).
holds(s_13532_jpg, residential).

sample(s_6293_jpg).
holds(s_6293_jpg, building).
holds(s_6293_jpg, feature).
holds(s_6293_jpg, suburban).
holds(s_6293_jpg, door).
holds(s_6293_jpg, window).
holds(s_6293_jpg, awning).
holds(s_6293_jpg, porch).
holds(s_6293_jpg, tiledrooftop).
holds(s_6293_jpg, vendingmachine).
holds(s_6293_jpg, wallsign).
holds(s_6293_jpg, statue).
holds(s_6293_jpg, residential).

sample(s_9557_jpg).
holds(s_9557_jpg, building).
holds(s_9557_jpg, feature).
holds(s_9557_jpg, suburban).
holds(s_9557_jpg, door).
holds(s_9557_jpg, window).
holds(s_9557_jpg, awning).
holds(s_9557_jpg, porch).
holds(s_9557_jpg, tiledrooftop).
holds(s_9557_jpg, vendingmachine).
holds(s_9557_jpg, wallsign).
holds(s_9557_jpg, statue).
holds(s_9557_jpg, pipe).
holds(s_9557_jpg, residential).

sample(s_13967_jpg).
holds(s_13967_jpg, building).
holds(s_13967_jpg, feature).
holds(s_13967_jpg, suburban).
holds(s_13967_jpg, door).
holds(s_13967_jpg, awning).
holds(s_13967_jpg, billboard).
holds(s_13967_jpg, porch).
holds(s_13967_jpg, table).
holds(s_13967_jpg, tiledrooftop).
holds(s_13967_jpg, vendingmachine).
holds(s_13967_jpg, wallsign).
holds(s_13967_jpg, statue).
holds(s_13967_jpg, chimney).
holds(s_13967_jpg, pipe).
holds(s_13967_jpg, truck).
holds(s_13967_jpg, car).
holds(s_13967_jpg, residential).

sample(s_9842_jpg).
holds(s_9842_jpg, building).
holds(s_9842_jpg, feature).
holds(s_9842_jpg, suburban).
holds(s_9842_jpg, door).
holds(s_9842_jpg, awning).
holds(s_9842_jpg, table).
holds(s_9842_jpg, vendingmachine).
holds(s_9842_jpg, wallsign).
holds(s_9842_jpg, statue).
holds(s_9842_jpg, chimney).
holds(s_9842_jpg, pipe).
holds(s_9842_jpg, truck).
holds(s_9842_jpg, car).
holds(s_9842_jpg, residential).

sample(s_11704_jpg).
holds(s_11704_jpg, building).
holds(s_11704_jpg, feature).
holds(s_11704_jpg, constructionsite).
holds(s_11704_jpg, awning).
holds(s_11704_jpg, billboard).
holds(s_11704_jpg, porch).
holds(s_11704_jpg, tiledrooftop).
holds(s_11704_jpg, wallsign).
holds(s_11704_jpg, chimney).
holds(s_11704_jpg, machine).
holds(s_11704_jpg, industrial).

sample(s_10874_jpg).
holds(s_10874_jpg, building).
holds(s_10874_jpg, feature).
holds(s_10874_jpg, suburban).
holds(s_10874_jpg, door).
holds(s_10874_jpg, window).
holds(s_10874_jpg, awning).
holds(s_10874_jpg, table).
holds(s_10874_jpg, tiledrooftop).
holds(s_10874_jpg, vendingmachine).
holds(s_10874_jpg, wallsign).
holds(s_10874_jpg, statue).
holds(s_10874_jpg, pipe).
holds(s_10874_jpg, residential).

sample(s_1461_jpg).
holds(s_1461_jpg, building).
holds(s_1461_jpg, feature).
holds(s_1461_jpg, hotel).
holds(s_1461_jpg, door).
holds(s_1461_jpg, awning).
holds(s_1461_jpg, billboard).
holds(s_1461_jpg, porch).
holds(s_1461_jpg, sign).
holds(s_1461_jpg, tiledrooftop).
holds(s_1461_jpg, statue).
holds(s_1461_jpg, chimney).
holds(s_1461_jpg, pipe).
holds(s_1461_jpg, machine).
holds(s_1461_jpg, commercial).

sample(s_11545_jpg).
holds(s_11545_jpg, building).
holds(s_11545_jpg, feature).
holds(s_11545_jpg, constructionsite).
holds(s_11545_jpg, awning).
holds(s_11545_jpg, billboard).
holds(s_11545_jpg, porch).
holds(s_11545_jpg, tiledrooftop).
holds(s_11545_jpg, wallsign).
holds(s_11545_jpg, chimney).
holds(s_11545_jpg, pipe).
holds(s_11545_jpg, machine).
holds(s_11545_jpg, industrial).

sample(s_7737_jpg).
holds(s_7737_jpg, building).
holds(s_7737_jpg, feature).
holds(s_7737_jpg, hotel).
holds(s_7737_jpg, door).
holds(s_7737_jpg, awning).
holds(s_7737_jpg, porch).
holds(s_7737_jpg, sign).
holds(s_7737_jpg, tiledrooftop).
holds(s_7737_jpg, statue).
holds(s_7737_jpg, chimney).
holds(s_7737_jpg, pipe).
holds(s_7737_jpg, machine).
holds(s_7737_jpg, commercial).

sample(s_3699_jpg).
holds(s_3699_jpg, building).
holds(s_3699_jpg, feature).
holds(s_3699_jpg, hotel).
holds(s_3699_jpg, door).
holds(s_3699_jpg, awning).
holds(s_3699_jpg, billboard).
holds(s_3699_jpg, porch).
holds(s_3699_jpg, tiledrooftop).
holds(s_3699_jpg, statue).
holds(s_3699_jpg, chimney).
holds(s_3699_jpg, machine).
holds(s_3699_jpg, commercial).

sample(s_12637_jpg).
holds(s_12637_jpg, building).
holds(s_12637_jpg, feature).
holds(s_12637_jpg, constructionsite).
holds(s_12637_jpg, door).
holds(s_12637_jpg, awning).
holds(s_12637_jpg, billboard).
holds(s_12637_jpg, porch).
holds(s_12637_jpg, tiledrooftop).
holds(s_12637_jpg, vendingmachine).
holds(s_12637_jpg, wallsign).
holds(s_12637_jpg, chimney).
holds(s_12637_jpg, pipe).
holds(s_12637_jpg, machine).
holds(s_12637_jpg, industrial).

sample(s_15078_jpg).
holds(s_15078_jpg, building).
holds(s_15078_jpg, feature).
holds(s_15078_jpg, hotel).
holds(s_15078_jpg, door).
holds(s_15078_jpg, awning).
holds(s_15078_jpg, porch).
holds(s_15078_jpg, tiledrooftop).
holds(s_15078_jpg, vendingmachine).
holds(s_15078_jpg, statue).
holds(s_15078_jpg, chimney).
holds(s_15078_jpg, machine).
holds(s_15078_jpg, commercial).

sample(s_6522_jpg).
holds(s_6522_jpg, building).
holds(s_6522_jpg, feature).
holds(s_6522_jpg, hotel).
holds(s_6522_jpg, door).
holds(s_6522_jpg, awning).
holds(s_6522_jpg, porch).
holds(s_6522_jpg, tiledrooftop).
holds(s_6522_jpg, vendingmachine).
holds(s_6522_jpg, wallsign).
holds(s_6522_jpg, statue).
holds(s_6522_jpg, chimney).
holds(s_6522_jpg, machine).
holds(s_6522_jpg, commercial).

sample(s_8554_jpg).
holds(s_8554_jpg, building).
holds(s_8554_jpg, feature).
holds(s_8554_jpg, constructionsite).
holds(s_8554_jpg, awning).
holds(s_8554_jpg, billboard).
holds(s_8554_jpg, porch).
holds(s_8554_jpg, tiledrooftop).
holds(s_8554_jpg, wallsign).
holds(s_8554_jpg, statue).
holds(s_8554_jpg, chimney).
holds(s_8554_jpg, pipe).
holds(s_8554_jpg, machine).
holds(s_8554_jpg, industrial).

sample(s_10788_jpg).
holds(s_10788_jpg, building).
holds(s_10788_jpg, feature).
holds(s_10788_jpg, hotel).
holds(s_10788_jpg, door).
holds(s_10788_jpg, awning).
holds(s_10788_jpg, billboard).
holds(s_10788_jpg, porch).
holds(s_10788_jpg, sign).
holds(s_10788_jpg, tiledrooftop).
holds(s_10788_jpg, chimney).
holds(s_10788_jpg, pipe).
holds(s_10788_jpg, machine).
holds(s_10788_jpg, commercial).

sample(s_6440_jpg).
holds(s_6440_jpg, building).
holds(s_6440_jpg, feature).
holds(s_6440_jpg, suburban).
holds(s_6440_jpg, door).
holds(s_6440_jpg, window).
holds(s_6440_jpg, awning).
holds(s_6440_jpg, porch).
holds(s_6440_jpg, tiledrooftop).
holds(s_6440_jpg, vendingmachine).
holds(s_6440_jpg, statue).
holds(s_6440_jpg, residential).

sample(s_8830_jpg).
holds(s_8830_jpg, building).
holds(s_8830_jpg, feature).
holds(s_8830_jpg, constructionsite).
holds(s_8830_jpg, awning).
holds(s_8830_jpg, billboard).
holds(s_8830_jpg, porch).
holds(s_8830_jpg, tiledrooftop).
holds(s_8830_jpg, chimney).
holds(s_8830_jpg, machine).
holds(s_8830_jpg, industrial).

sample(s_7028_jpg).
holds(s_7028_jpg, building).
holds(s_7028_jpg, feature).
holds(s_7028_jpg, suburban).
holds(s_7028_jpg, door).
holds(s_7028_jpg, window).
holds(s_7028_jpg, awning).
holds(s_7028_jpg, porch).
holds(s_7028_jpg, tiledrooftop).
holds(s_7028_jpg, vendingmachine).
holds(s_7028_jpg, statue).
holds(s_7028_jpg, residential).

sample(s_6523_jpg).
holds(s_6523_jpg, building).
holds(s_6523_jpg, feature).
holds(s_6523_jpg, constructionsite).
holds(s_6523_jpg, door).
holds(s_6523_jpg, awning).
holds(s_6523_jpg, billboard).
holds(s_6523_jpg, porch).
holds(s_6523_jpg, tiledrooftop).
holds(s_6523_jpg, vendingmachine).
holds(s_6523_jpg, wallsign).
holds(s_6523_jpg, chimney).
holds(s_6523_jpg, pipe).
holds(s_6523_jpg, machine).
holds(s_6523_jpg, industrial).

sample(s_688_jpg).
holds(s_688_jpg, building).
holds(s_688_jpg, feature).
holds(s_688_jpg, constructionsite).
holds(s_688_jpg, awning).
holds(s_688_jpg, billboard).
holds(s_688_jpg, porch).
holds(s_688_jpg, tiledrooftop).
holds(s_688_jpg, vendingmachine).
holds(s_688_jpg, wallsign).
holds(s_688_jpg, statue).
holds(s_688_jpg, chimney).
holds(s_688_jpg, pipe).
holds(s_688_jpg, machine).
holds(s_688_jpg, industrial).

sample(s_9226_jpg).
holds(s_9226_jpg, building).
holds(s_9226_jpg, feature).
holds(s_9226_jpg, constructionsite).
holds(s_9226_jpg, awning).
holds(s_9226_jpg, billboard).
holds(s_9226_jpg, porch).
holds(s_9226_jpg, tiledrooftop).
holds(s_9226_jpg, wallsign).
holds(s_9226_jpg, chimney).
holds(s_9226_jpg, pipe).
holds(s_9226_jpg, machine).
holds(s_9226_jpg, industrial).

sample(s_679_jpg).
holds(s_679_jpg, building).
holds(s_679_jpg, feature).
holds(s_679_jpg, constructionsite).
holds(s_679_jpg, awning).
holds(s_679_jpg, billboard).
holds(s_679_jpg, porch).
holds(s_679_jpg, tiledrooftop).
holds(s_679_jpg, wallsign).
holds(s_679_jpg, chimney).
holds(s_679_jpg, pipe).
holds(s_679_jpg, machine).
holds(s_679_jpg, industrial).

sample(s_6252_jpg).
holds(s_6252_jpg, building).
holds(s_6252_jpg, feature).
holds(s_6252_jpg, hotel).
holds(s_6252_jpg, door).
holds(s_6252_jpg, awning).
holds(s_6252_jpg, billboard).
holds(s_6252_jpg, porch).
holds(s_6252_jpg, sign).
holds(s_6252_jpg, tiledrooftop).
holds(s_6252_jpg, statue).
holds(s_6252_jpg, chimney).
holds(s_6252_jpg, pipe).
holds(s_6252_jpg, machine).
holds(s_6252_jpg, commercial).

sample(s_12707_jpg).
holds(s_12707_jpg, building).
holds(s_12707_jpg, feature).
holds(s_12707_jpg, suburban).
holds(s_12707_jpg, door).
holds(s_12707_jpg, window).
holds(s_12707_jpg, awning).
holds(s_12707_jpg, porch).
holds(s_12707_jpg, tiledrooftop).
holds(s_12707_jpg, vendingmachine).
holds(s_12707_jpg, statue).
holds(s_12707_jpg, residential).

sample(s_6190_jpg).
holds(s_6190_jpg, building).
holds(s_6190_jpg, feature).
holds(s_6190_jpg, constructionsite).
holds(s_6190_jpg, awning).
holds(s_6190_jpg, billboard).
holds(s_6190_jpg, porch).
holds(s_6190_jpg, tiledrooftop).
holds(s_6190_jpg, wallsign).
holds(s_6190_jpg, chimney).
holds(s_6190_jpg, machine).
holds(s_6190_jpg, industrial).

sample(s_11333_jpg).
holds(s_11333_jpg, building).
holds(s_11333_jpg, feature).
holds(s_11333_jpg, suburban).
holds(s_11333_jpg, door).
holds(s_11333_jpg, window).
holds(s_11333_jpg, awning).
holds(s_11333_jpg, porch).
holds(s_11333_jpg, tiledrooftop).
holds(s_11333_jpg, vendingmachine).
holds(s_11333_jpg, wallsign).
holds(s_11333_jpg, statue).
holds(s_11333_jpg, pipe).
holds(s_11333_jpg, truck).
holds(s_11333_jpg, car).
holds(s_11333_jpg, residential).

sample(s_8979_jpg).
holds(s_8979_jpg, building).
holds(s_8979_jpg, feature).
holds(s_8979_jpg, hotel).
holds(s_8979_jpg, door).
holds(s_8979_jpg, awning).
holds(s_8979_jpg, billboard).
holds(s_8979_jpg, porch).
holds(s_8979_jpg, sign).
holds(s_8979_jpg, tiledrooftop).
holds(s_8979_jpg, pipe).
holds(s_8979_jpg, machine).
holds(s_8979_jpg, commercial).

sample(s_5640_jpg).
holds(s_5640_jpg, building).
holds(s_5640_jpg, feature).
holds(s_5640_jpg, hotel).
holds(s_5640_jpg, door).
holds(s_5640_jpg, awning).
holds(s_5640_jpg, porch).
holds(s_5640_jpg, sign).
holds(s_5640_jpg, tiledrooftop).
holds(s_5640_jpg, chimney).
holds(s_5640_jpg, pipe).
holds(s_5640_jpg, machine).
holds(s_5640_jpg, commercial).

sample(s_5116_jpg).
holds(s_5116_jpg, building).
holds(s_5116_jpg, feature).
holds(s_5116_jpg, constructionsite).
holds(s_5116_jpg, awning).
holds(s_5116_jpg, billboard).
holds(s_5116_jpg, porch).
holds(s_5116_jpg, tiledrooftop).
holds(s_5116_jpg, wallsign).
holds(s_5116_jpg, chimney).
holds(s_5116_jpg, pipe).
holds(s_5116_jpg, machine).
holds(s_5116_jpg, industrial).

sample(s_12992_jpg).
holds(s_12992_jpg, building).
holds(s_12992_jpg, feature).
holds(s_12992_jpg, suburban).
holds(s_12992_jpg, door).
holds(s_12992_jpg, window).
holds(s_12992_jpg, awning).
holds(s_12992_jpg, porch).
holds(s_12992_jpg, tiledrooftop).
holds(s_12992_jpg, vendingmachine).
holds(s_12992_jpg, wallsign).
holds(s_12992_jpg, statue).
holds(s_12992_jpg, residential).

sample(s_12833_jpg).
holds(s_12833_jpg, building).
holds(s_12833_jpg, feature).
holds(s_12833_jpg, suburban).
holds(s_12833_jpg, door).
holds(s_12833_jpg, window).
holds(s_12833_jpg, awning).
holds(s_12833_jpg, porch).
holds(s_12833_jpg, table).
holds(s_12833_jpg, tiledrooftop).
holds(s_12833_jpg, vendingmachine).
holds(s_12833_jpg, wallsign).
holds(s_12833_jpg, statue).
holds(s_12833_jpg, pipe).
holds(s_12833_jpg, car).
holds(s_12833_jpg, residential).

sample(s_7092_jpg).
holds(s_7092_jpg, building).
holds(s_7092_jpg, feature).
holds(s_7092_jpg, hotel).
holds(s_7092_jpg, door).
holds(s_7092_jpg, awning).
holds(s_7092_jpg, billboard).
holds(s_7092_jpg, porch).
holds(s_7092_jpg, sign).
holds(s_7092_jpg, tiledrooftop).
holds(s_7092_jpg, chimney).
holds(s_7092_jpg, pipe).
holds(s_7092_jpg, machine).
holds(s_7092_jpg, truck).
holds(s_7092_jpg, commercial).

sample(s_12247_jpg).
holds(s_12247_jpg, building).
holds(s_12247_jpg, feature).
holds(s_12247_jpg, constructionsite).
holds(s_12247_jpg, door).
holds(s_12247_jpg, awning).
holds(s_12247_jpg, billboard).
holds(s_12247_jpg, porch).
holds(s_12247_jpg, tiledrooftop).
holds(s_12247_jpg, wallsign).
holds(s_12247_jpg, chimney).
holds(s_12247_jpg, pipe).
holds(s_12247_jpg, machine).
holds(s_12247_jpg, industrial).

sample(s_12843_jpg).
holds(s_12843_jpg, building).
holds(s_12843_jpg, feature).
holds(s_12843_jpg, hotel).
holds(s_12843_jpg, door).
holds(s_12843_jpg, awning).
holds(s_12843_jpg, billboard).
holds(s_12843_jpg, porch).
holds(s_12843_jpg, sign).
holds(s_12843_jpg, tiledrooftop).
holds(s_12843_jpg, statue).
holds(s_12843_jpg, chimney).
holds(s_12843_jpg, pipe).
holds(s_12843_jpg, machine).
holds(s_12843_jpg, commercial).

sample(s_5867_jpg).
holds(s_5867_jpg, building).
holds(s_5867_jpg, feature).
holds(s_5867_jpg, suburban).
holds(s_5867_jpg, door).
holds(s_5867_jpg, window).
holds(s_5867_jpg, awning).
holds(s_5867_jpg, porch).
holds(s_5867_jpg, tiledrooftop).
holds(s_5867_jpg, vendingmachine).
holds(s_5867_jpg, statue).
holds(s_5867_jpg, pipe).
holds(s_5867_jpg, machine).
holds(s_5867_jpg, residential).

sample(s_3131_jpg).
holds(s_3131_jpg, building).
holds(s_3131_jpg, feature).
holds(s_3131_jpg, constructionsite).
holds(s_3131_jpg, door).
holds(s_3131_jpg, awning).
holds(s_3131_jpg, billboard).
holds(s_3131_jpg, porch).
holds(s_3131_jpg, tiledrooftop).
holds(s_3131_jpg, vendingmachine).
holds(s_3131_jpg, wallsign).
holds(s_3131_jpg, statue).
holds(s_3131_jpg, chimney).
holds(s_3131_jpg, pipe).
holds(s_3131_jpg, machine).
holds(s_3131_jpg, industrial).

sample(s_11524_jpg).
holds(s_11524_jpg, building).
holds(s_11524_jpg, feature).
holds(s_11524_jpg, constructionsite).
holds(s_11524_jpg, awning).
holds(s_11524_jpg, billboard).
holds(s_11524_jpg, porch).
holds(s_11524_jpg, tiledrooftop).
holds(s_11524_jpg, wallsign).
holds(s_11524_jpg, chimney).
holds(s_11524_jpg, pipe).
holds(s_11524_jpg, machine).
holds(s_11524_jpg, industrial).

sample(s_7478_jpg).
holds(s_7478_jpg, building).
holds(s_7478_jpg, feature).
holds(s_7478_jpg, suburban).
holds(s_7478_jpg, door).
holds(s_7478_jpg, window).
holds(s_7478_jpg, awning).
holds(s_7478_jpg, table).
holds(s_7478_jpg, tiledrooftop).
holds(s_7478_jpg, vendingmachine).
holds(s_7478_jpg, wallsign).
holds(s_7478_jpg, statue).
holds(s_7478_jpg, pipe).
holds(s_7478_jpg, residential).

sample(s_5139_jpg).
holds(s_5139_jpg, building).
holds(s_5139_jpg, feature).
holds(s_5139_jpg, hotel).
holds(s_5139_jpg, door).
holds(s_5139_jpg, awning).
holds(s_5139_jpg, billboard).
holds(s_5139_jpg, porch).
holds(s_5139_jpg, sign).
holds(s_5139_jpg, tiledrooftop).
holds(s_5139_jpg, chimney).
holds(s_5139_jpg, pipe).
holds(s_5139_jpg, machine).
holds(s_5139_jpg, commercial).

sample(s_14749_jpg).
holds(s_14749_jpg, building).
holds(s_14749_jpg, feature).
holds(s_14749_jpg, constructionsite).
holds(s_14749_jpg, awning).
holds(s_14749_jpg, billboard).
holds(s_14749_jpg, porch).
holds(s_14749_jpg, tiledrooftop).
holds(s_14749_jpg, wallsign).
holds(s_14749_jpg, chimney).
holds(s_14749_jpg, pipe).
holds(s_14749_jpg, machine).
holds(s_14749_jpg, industrial).

sample(s_11570_jpg).
holds(s_11570_jpg, building).
holds(s_11570_jpg, feature).
holds(s_11570_jpg, constructionsite).
holds(s_11570_jpg, door).
holds(s_11570_jpg, awning).
holds(s_11570_jpg, billboard).
holds(s_11570_jpg, porch).
holds(s_11570_jpg, tiledrooftop).
holds(s_11570_jpg, vendingmachine).
holds(s_11570_jpg, wallsign).
holds(s_11570_jpg, statue).
holds(s_11570_jpg, chimney).
holds(s_11570_jpg, pipe).
holds(s_11570_jpg, machine).
holds(s_11570_jpg, truck).

sample(s_15867_jpg).
holds(s_15867_jpg, building).
holds(s_15867_jpg, feature).
holds(s_15867_jpg, hotel).
holds(s_15867_jpg, door).
holds(s_15867_jpg, awning).
holds(s_15867_jpg, porch).
holds(s_15867_jpg, sign).
holds(s_15867_jpg, tiledrooftop).
holds(s_15867_jpg, pipe).
holds(s_15867_jpg, machine).
holds(s_15867_jpg, commercial).

sample(s_11657_jpg).
holds(s_11657_jpg, building).
holds(s_11657_jpg, feature).
holds(s_11657_jpg, suburban).
holds(s_11657_jpg, door).
holds(s_11657_jpg, window).
holds(s_11657_jpg, awning).
holds(s_11657_jpg, porch).
holds(s_11657_jpg, tiledrooftop).
holds(s_11657_jpg, vendingmachine).
holds(s_11657_jpg, statue).
holds(s_11657_jpg, residential).

sample(s_1981_jpg).
holds(s_1981_jpg, building).
holds(s_1981_jpg, feature).
holds(s_1981_jpg, constructionsite).
holds(s_1981_jpg, awning).
holds(s_1981_jpg, billboard).
holds(s_1981_jpg, porch).
holds(s_1981_jpg, tiledrooftop).
holds(s_1981_jpg, wallsign).
holds(s_1981_jpg, chimney).
holds(s_1981_jpg, pipe).
holds(s_1981_jpg, machine).
holds(s_1981_jpg, industrial).

sample(s_4971_jpg).
holds(s_4971_jpg, building).
holds(s_4971_jpg, feature).
holds(s_4971_jpg, hotel).
holds(s_4971_jpg, door).
holds(s_4971_jpg, awning).
holds(s_4971_jpg, billboard).
holds(s_4971_jpg, porch).
holds(s_4971_jpg, sign).
holds(s_4971_jpg, tiledrooftop).
holds(s_4971_jpg, pipe).
holds(s_4971_jpg, machine).
holds(s_4971_jpg, commercial).

sample(s_869_jpg).
holds(s_869_jpg, building).
holds(s_869_jpg, feature).
holds(s_869_jpg, suburban).
holds(s_869_jpg, door).
holds(s_869_jpg, window).
holds(s_869_jpg, awning).
holds(s_869_jpg, porch).
holds(s_869_jpg, table).
holds(s_869_jpg, tiledrooftop).
holds(s_869_jpg, vendingmachine).
holds(s_869_jpg, wallsign).
holds(s_869_jpg, statue).
holds(s_869_jpg, pipe).
holds(s_869_jpg, car).
holds(s_869_jpg, residential).

sample(s_4281_jpg).
holds(s_4281_jpg, building).
holds(s_4281_jpg, feature).
holds(s_4281_jpg, hotel).
holds(s_4281_jpg, door).
holds(s_4281_jpg, awning).
holds(s_4281_jpg, billboard).
holds(s_4281_jpg, porch).
holds(s_4281_jpg, sign).
holds(s_4281_jpg, tiledrooftop).
holds(s_4281_jpg, statue).
holds(s_4281_jpg, chimney).
holds(s_4281_jpg, machine).
holds(s_4281_jpg, commercial).

sample(s_5861_jpg).
holds(s_5861_jpg, building).
holds(s_5861_jpg, feature).
holds(s_5861_jpg, suburban).
holds(s_5861_jpg, door).
holds(s_5861_jpg, window).
holds(s_5861_jpg, awning).
holds(s_5861_jpg, porch).
holds(s_5861_jpg, tiledrooftop).
holds(s_5861_jpg, vendingmachine).
holds(s_5861_jpg, statue).
holds(s_5861_jpg, residential).

sample(s_5514_jpg).
holds(s_5514_jpg, building).
holds(s_5514_jpg, feature).
holds(s_5514_jpg, hotel).
holds(s_5514_jpg, door).
holds(s_5514_jpg, awning).
holds(s_5514_jpg, billboard).
holds(s_5514_jpg, porch).
holds(s_5514_jpg, sign).
holds(s_5514_jpg, tiledrooftop).
holds(s_5514_jpg, chimney).
holds(s_5514_jpg, pipe).
holds(s_5514_jpg, machine).
holds(s_5514_jpg, truck).
holds(s_5514_jpg, commercial).

sample(s_15129_jpg).
holds(s_15129_jpg, building).
holds(s_15129_jpg, feature).
holds(s_15129_jpg, hotel).
holds(s_15129_jpg, door).
holds(s_15129_jpg, awning).
holds(s_15129_jpg, porch).
holds(s_15129_jpg, sign).
holds(s_15129_jpg, tiledrooftop).
holds(s_15129_jpg, statue).
holds(s_15129_jpg, pipe).
holds(s_15129_jpg, machine).
holds(s_15129_jpg, commercial).

sample(s_1403_jpg).
holds(s_1403_jpg, building).
holds(s_1403_jpg, feature).
holds(s_1403_jpg, suburban).
holds(s_1403_jpg, door).
holds(s_1403_jpg, window).
holds(s_1403_jpg, awning).
holds(s_1403_jpg, porch).
holds(s_1403_jpg, table).
holds(s_1403_jpg, tiledrooftop).
holds(s_1403_jpg, vendingmachine).
holds(s_1403_jpg, wallsign).
holds(s_1403_jpg, statue).
holds(s_1403_jpg, pipe).
holds(s_1403_jpg, truck).
holds(s_1403_jpg, car).
holds(s_1403_jpg, residential).

sample(s_4063_jpg).
holds(s_4063_jpg, building).
holds(s_4063_jpg, feature).
holds(s_4063_jpg, constructionsite).
holds(s_4063_jpg, awning).
holds(s_4063_jpg, billboard).
holds(s_4063_jpg, porch).
holds(s_4063_jpg, tiledrooftop).
holds(s_4063_jpg, wallsign).
holds(s_4063_jpg, chimney).
holds(s_4063_jpg, pipe).
holds(s_4063_jpg, machine).
holds(s_4063_jpg, industrial).

sample(s_15196_jpg).
holds(s_15196_jpg, building).
holds(s_15196_jpg, feature).
holds(s_15196_jpg, constructionsite).
holds(s_15196_jpg, awning).
holds(s_15196_jpg, billboard).
holds(s_15196_jpg, porch).
holds(s_15196_jpg, tiledrooftop).
holds(s_15196_jpg, wallsign).
holds(s_15196_jpg, chimney).
holds(s_15196_jpg, pipe).
holds(s_15196_jpg, machine).
holds(s_15196_jpg, industrial).

sample(s_10615_jpg).
holds(s_10615_jpg, building).
holds(s_10615_jpg, feature).
holds(s_10615_jpg, constructionsite).
holds(s_10615_jpg, awning).
holds(s_10615_jpg, billboard).
holds(s_10615_jpg, porch).
holds(s_10615_jpg, tiledrooftop).
holds(s_10615_jpg, wallsign).
holds(s_10615_jpg, chimney).
holds(s_10615_jpg, pipe).
holds(s_10615_jpg, machine).
holds(s_10615_jpg, industrial).

sample(s_12053_jpg).
holds(s_12053_jpg, building).
holds(s_12053_jpg, feature).
holds(s_12053_jpg, suburban).
holds(s_12053_jpg, door).
holds(s_12053_jpg, window).
holds(s_12053_jpg, awning).
holds(s_12053_jpg, porch).
holds(s_12053_jpg, tiledrooftop).
holds(s_12053_jpg, vendingmachine).
holds(s_12053_jpg, wallsign).
holds(s_12053_jpg, statue).
holds(s_12053_jpg, residential).

sample(s_10422_jpg).
holds(s_10422_jpg, building).
holds(s_10422_jpg, feature).
holds(s_10422_jpg, hotel).
holds(s_10422_jpg, door).
holds(s_10422_jpg, awning).
holds(s_10422_jpg, billboard).
holds(s_10422_jpg, porch).
holds(s_10422_jpg, sign).
holds(s_10422_jpg, tiledrooftop).
holds(s_10422_jpg, statue).
holds(s_10422_jpg, chimney).
holds(s_10422_jpg, pipe).
holds(s_10422_jpg, machine).
holds(s_10422_jpg, truck).
holds(s_10422_jpg, commercial).

sample(s_9100_jpg).
holds(s_9100_jpg, building).
holds(s_9100_jpg, feature).
holds(s_9100_jpg, constructionsite).
holds(s_9100_jpg, awning).
holds(s_9100_jpg, billboard).
holds(s_9100_jpg, porch).
holds(s_9100_jpg, tiledrooftop).
holds(s_9100_jpg, wallsign).
holds(s_9100_jpg, chimney).
holds(s_9100_jpg, pipe).
holds(s_9100_jpg, machine).
holds(s_9100_jpg, industrial).

sample(s_9040_jpg).
holds(s_9040_jpg, building).
holds(s_9040_jpg, feature).
holds(s_9040_jpg, constructionsite).
holds(s_9040_jpg, awning).
holds(s_9040_jpg, billboard).
holds(s_9040_jpg, porch).
holds(s_9040_jpg, tiledrooftop).
holds(s_9040_jpg, wallsign).
holds(s_9040_jpg, chimney).
holds(s_9040_jpg, pipe).
holds(s_9040_jpg, machine).
holds(s_9040_jpg, industrial).

sample(s_9209_jpg).
holds(s_9209_jpg, building).
holds(s_9209_jpg, feature).
holds(s_9209_jpg, suburban).
holds(s_9209_jpg, door).
holds(s_9209_jpg, window).
holds(s_9209_jpg, awning).
holds(s_9209_jpg, table).
holds(s_9209_jpg, tiledrooftop).
holds(s_9209_jpg, vendingmachine).
holds(s_9209_jpg, wallsign).
holds(s_9209_jpg, statue).
holds(s_9209_jpg, pipe).
holds(s_9209_jpg, residential).

sample(s_10348_jpg).
holds(s_10348_jpg, building).
holds(s_10348_jpg, feature).
holds(s_10348_jpg, constructionsite).
holds(s_10348_jpg, awning).
holds(s_10348_jpg, billboard).
holds(s_10348_jpg, porch).
holds(s_10348_jpg, tiledrooftop).
holds(s_10348_jpg, wallsign).
holds(s_10348_jpg, chimney).
holds(s_10348_jpg, pipe).
holds(s_10348_jpg, machine).
holds(s_10348_jpg, industrial).

sample(s_12201_jpg).
holds(s_12201_jpg, building).
holds(s_12201_jpg, feature).
holds(s_12201_jpg, hotel).
holds(s_12201_jpg, door).
holds(s_12201_jpg, awning).
holds(s_12201_jpg, porch).
holds(s_12201_jpg, tiledrooftop).
holds(s_12201_jpg, statue).
holds(s_12201_jpg, chimney).
holds(s_12201_jpg, machine).
holds(s_12201_jpg, commercial).

sample(s_5821_jpg).
holds(s_5821_jpg, building).
holds(s_5821_jpg, feature).
holds(s_5821_jpg, constructionsite).
holds(s_5821_jpg, awning).
holds(s_5821_jpg, billboard).
holds(s_5821_jpg, porch).
holds(s_5821_jpg, tiledrooftop).
holds(s_5821_jpg, wallsign).
holds(s_5821_jpg, chimney).
holds(s_5821_jpg, pipe).
holds(s_5821_jpg, machine).
holds(s_5821_jpg, industrial).

sample(s_9320_jpg).
holds(s_9320_jpg, building).
holds(s_9320_jpg, feature).
holds(s_9320_jpg, suburban).
holds(s_9320_jpg, door).
holds(s_9320_jpg, window).
holds(s_9320_jpg, awning).
holds(s_9320_jpg, porch).
holds(s_9320_jpg, tiledrooftop).
holds(s_9320_jpg, vendingmachine).
holds(s_9320_jpg, statue).
holds(s_9320_jpg, residential).

sample(s_8640_jpg).
holds(s_8640_jpg, building).
holds(s_8640_jpg, feature).
holds(s_8640_jpg, hotel).
holds(s_8640_jpg, door).
holds(s_8640_jpg, awning).
holds(s_8640_jpg, billboard).
holds(s_8640_jpg, porch).
holds(s_8640_jpg, sign).
holds(s_8640_jpg, tiledrooftop).
holds(s_8640_jpg, pipe).
holds(s_8640_jpg, machine).
holds(s_8640_jpg, commercial).

sample(s_11901_jpg).
holds(s_11901_jpg, building).
holds(s_11901_jpg, feature).
holds(s_11901_jpg, hotel).
holds(s_11901_jpg, door).
holds(s_11901_jpg, awning).
holds(s_11901_jpg, billboard).
holds(s_11901_jpg, porch).
holds(s_11901_jpg, sign).
holds(s_11901_jpg, tiledrooftop).
holds(s_11901_jpg, chimney).
holds(s_11901_jpg, pipe).
holds(s_11901_jpg, machine).
holds(s_11901_jpg, truck).
holds(s_11901_jpg, commercial).

sample(s_13518_jpg).
holds(s_13518_jpg, building).
holds(s_13518_jpg, feature).
holds(s_13518_jpg, hotel).
holds(s_13518_jpg, door).
holds(s_13518_jpg, awning).
holds(s_13518_jpg, billboard).
holds(s_13518_jpg, porch).
holds(s_13518_jpg, sign).
holds(s_13518_jpg, tiledrooftop).
holds(s_13518_jpg, statue).
holds(s_13518_jpg, pipe).
holds(s_13518_jpg, machine).
holds(s_13518_jpg, commercial).

sample(s_8529_jpg).
holds(s_8529_jpg, building).
holds(s_8529_jpg, feature).
holds(s_8529_jpg, hotel).
holds(s_8529_jpg, door).
holds(s_8529_jpg, awning).
holds(s_8529_jpg, porch).
holds(s_8529_jpg, tiledrooftop).
holds(s_8529_jpg, vendingmachine).
holds(s_8529_jpg, wallsign).
holds(s_8529_jpg, statue).
holds(s_8529_jpg, chimney).
holds(s_8529_jpg, pipe).
holds(s_8529_jpg, machine).
holds(s_8529_jpg, commercial).

sample(s_2088_jpg).
holds(s_2088_jpg, building).
holds(s_2088_jpg, feature).
holds(s_2088_jpg, hotel).
holds(s_2088_jpg, door).
holds(s_2088_jpg, awning).
holds(s_2088_jpg, porch).
holds(s_2088_jpg, tiledrooftop).
holds(s_2088_jpg, statue).
holds(s_2088_jpg, chimney).
holds(s_2088_jpg, pipe).
holds(s_2088_jpg, machine).
holds(s_2088_jpg, commercial).

sample(s_4294_jpg).
holds(s_4294_jpg, building).
holds(s_4294_jpg, feature).
holds(s_4294_jpg, constructionsite).
holds(s_4294_jpg, awning).
holds(s_4294_jpg, billboard).
holds(s_4294_jpg, porch).
holds(s_4294_jpg, vendingmachine).
holds(s_4294_jpg, wallsign).
holds(s_4294_jpg, chimney).
holds(s_4294_jpg, pipe).
holds(s_4294_jpg, machine).
holds(s_4294_jpg, industrial).

sample(s_4067_jpg).
holds(s_4067_jpg, building).
holds(s_4067_jpg, feature).
holds(s_4067_jpg, suburban).
holds(s_4067_jpg, door).
holds(s_4067_jpg, window).
holds(s_4067_jpg, awning).
holds(s_4067_jpg, porch).
holds(s_4067_jpg, tiledrooftop).
holds(s_4067_jpg, vendingmachine).
holds(s_4067_jpg, wallsign).
holds(s_4067_jpg, statue).
holds(s_4067_jpg, pipe).
holds(s_4067_jpg, residential).

sample(s_9339_jpg).
holds(s_9339_jpg, building).
holds(s_9339_jpg, feature).
holds(s_9339_jpg, hotel).
holds(s_9339_jpg, door).
holds(s_9339_jpg, awning).
holds(s_9339_jpg, porch).
holds(s_9339_jpg, tiledrooftop).
holds(s_9339_jpg, vendingmachine).
holds(s_9339_jpg, wallsign).
holds(s_9339_jpg, statue).
holds(s_9339_jpg, chimney).
holds(s_9339_jpg, pipe).
holds(s_9339_jpg, machine).
holds(s_9339_jpg, commercial).

sample(s_4635_jpg).
holds(s_4635_jpg, building).
holds(s_4635_jpg, feature).
holds(s_4635_jpg, hotel).
holds(s_4635_jpg, door).
holds(s_4635_jpg, awning).
holds(s_4635_jpg, billboard).
holds(s_4635_jpg, porch).
holds(s_4635_jpg, sign).
holds(s_4635_jpg, tiledrooftop).
holds(s_4635_jpg, pipe).
holds(s_4635_jpg, machine).
holds(s_4635_jpg, commercial).

sample(s_3858_jpg).
holds(s_3858_jpg, building).
holds(s_3858_jpg, feature).
holds(s_3858_jpg, hotel).
holds(s_3858_jpg, door).
holds(s_3858_jpg, awning).
holds(s_3858_jpg, billboard).
holds(s_3858_jpg, porch).
holds(s_3858_jpg, sign).
holds(s_3858_jpg, tiledrooftop).
holds(s_3858_jpg, statue).
holds(s_3858_jpg, chimney).
holds(s_3858_jpg, pipe).
holds(s_3858_jpg, machine).
holds(s_3858_jpg, commercial).

sample(s_4301_jpg).
holds(s_4301_jpg, building).
holds(s_4301_jpg, feature).
holds(s_4301_jpg, suburban).
holds(s_4301_jpg, door).
holds(s_4301_jpg, awning).
holds(s_4301_jpg, porch).
holds(s_4301_jpg, tiledrooftop).
holds(s_4301_jpg, vendingmachine).
holds(s_4301_jpg, wallsign).
holds(s_4301_jpg, statue).
holds(s_4301_jpg, chimney).
holds(s_4301_jpg, pipe).
holds(s_4301_jpg, truck).
holds(s_4301_jpg, car).
holds(s_4301_jpg, residential).

sample(s_1254_jpg).
holds(s_1254_jpg, building).
holds(s_1254_jpg, feature).
holds(s_1254_jpg, hotel).
holds(s_1254_jpg, door).
holds(s_1254_jpg, awning).
holds(s_1254_jpg, billboard).
holds(s_1254_jpg, porch).
holds(s_1254_jpg, sign).
holds(s_1254_jpg, tiledrooftop).
holds(s_1254_jpg, chimney).
holds(s_1254_jpg, pipe).
holds(s_1254_jpg, machine).
holds(s_1254_jpg, truck).
holds(s_1254_jpg, commercial).

sample(s_5407_jpg).
holds(s_5407_jpg, building).
holds(s_5407_jpg, feature).
holds(s_5407_jpg, constructionsite).
holds(s_5407_jpg, awning).
holds(s_5407_jpg, billboard).
holds(s_5407_jpg, porch).
holds(s_5407_jpg, tiledrooftop).
holds(s_5407_jpg, chimney).
holds(s_5407_jpg, pipe).
holds(s_5407_jpg, machine).
holds(s_5407_jpg, industrial).

sample(s_2320_jpg).
holds(s_2320_jpg, building).
holds(s_2320_jpg, feature).
holds(s_2320_jpg, constructionsite).
holds(s_2320_jpg, awning).
holds(s_2320_jpg, billboard).
holds(s_2320_jpg, porch).
holds(s_2320_jpg, tiledrooftop).
holds(s_2320_jpg, wallsign).
holds(s_2320_jpg, chimney).
holds(s_2320_jpg, pipe).
holds(s_2320_jpg, machine).
holds(s_2320_jpg, industrial).

sample(s_1811_jpg).
holds(s_1811_jpg, building).
holds(s_1811_jpg, feature).
holds(s_1811_jpg, suburban).
holds(s_1811_jpg, door).
holds(s_1811_jpg, window).
holds(s_1811_jpg, awning).
holds(s_1811_jpg, porch).
holds(s_1811_jpg, tiledrooftop).
holds(s_1811_jpg, vendingmachine).
holds(s_1811_jpg, statue).
holds(s_1811_jpg, residential).

sample(s_3324_jpg).
holds(s_3324_jpg, building).
holds(s_3324_jpg, feature).
holds(s_3324_jpg, hotel).
holds(s_3324_jpg, door).
holds(s_3324_jpg, awning).
holds(s_3324_jpg, billboard).
holds(s_3324_jpg, porch).
holds(s_3324_jpg, sign).
holds(s_3324_jpg, tiledrooftop).
holds(s_3324_jpg, statue).
holds(s_3324_jpg, chimney).
holds(s_3324_jpg, machine).
holds(s_3324_jpg, commercial).

sample(s_11742_jpg).
holds(s_11742_jpg, building).
holds(s_11742_jpg, feature).
holds(s_11742_jpg, hotel).
holds(s_11742_jpg, door).
holds(s_11742_jpg, awning).
holds(s_11742_jpg, billboard).
holds(s_11742_jpg, porch).
holds(s_11742_jpg, sign).
holds(s_11742_jpg, tiledrooftop).
holds(s_11742_jpg, chimney).
holds(s_11742_jpg, pipe).
holds(s_11742_jpg, machine).
holds(s_11742_jpg, commercial).

sample(s_12626_jpg).
holds(s_12626_jpg, building).
holds(s_12626_jpg, feature).
holds(s_12626_jpg, suburban).
holds(s_12626_jpg, door).
holds(s_12626_jpg, window).
holds(s_12626_jpg, awning).
holds(s_12626_jpg, porch).
holds(s_12626_jpg, tiledrooftop).
holds(s_12626_jpg, vendingmachine).
holds(s_12626_jpg, statue).
holds(s_12626_jpg, residential).

sample(s_13093_jpg).
holds(s_13093_jpg, building).
holds(s_13093_jpg, feature).
holds(s_13093_jpg, constructionsite).
holds(s_13093_jpg, awning).
holds(s_13093_jpg, billboard).
holds(s_13093_jpg, porch).
holds(s_13093_jpg, tiledrooftop).
holds(s_13093_jpg, wallsign).
holds(s_13093_jpg, chimney).
holds(s_13093_jpg, machine).
holds(s_13093_jpg, industrial).

sample(s_1739_jpg).
holds(s_1739_jpg, building).
holds(s_1739_jpg, feature).
holds(s_1739_jpg, suburban).
holds(s_1739_jpg, door).
holds(s_1739_jpg, awning).
holds(s_1739_jpg, porch).
holds(s_1739_jpg, table).
holds(s_1739_jpg, tiledrooftop).
holds(s_1739_jpg, vendingmachine).
holds(s_1739_jpg, wallsign).
holds(s_1739_jpg, statue).
holds(s_1739_jpg, chimney).
holds(s_1739_jpg, pipe).
holds(s_1739_jpg, truck).
holds(s_1739_jpg, car).
holds(s_1739_jpg, residential).

sample(s_5068_jpg).
holds(s_5068_jpg, building).
holds(s_5068_jpg, feature).
holds(s_5068_jpg, constructionsite).
holds(s_5068_jpg, door).
holds(s_5068_jpg, awning).
holds(s_5068_jpg, porch).
holds(s_5068_jpg, tiledrooftop).
holds(s_5068_jpg, wallsign).
holds(s_5068_jpg, statue).
holds(s_5068_jpg, chimney).
holds(s_5068_jpg, machine).
holds(s_5068_jpg, commercial).

sample(s_13876_jpg).
holds(s_13876_jpg, building).
holds(s_13876_jpg, feature).
holds(s_13876_jpg, constructionsite).
holds(s_13876_jpg, awning).
holds(s_13876_jpg, billboard).
holds(s_13876_jpg, porch).
holds(s_13876_jpg, tiledrooftop).
holds(s_13876_jpg, wallsign).
holds(s_13876_jpg, chimney).
holds(s_13876_jpg, pipe).
holds(s_13876_jpg, machine).
holds(s_13876_jpg, industrial).

sample(s_14340_jpg).
holds(s_14340_jpg, building).
holds(s_14340_jpg, feature).
holds(s_14340_jpg, hotel).
holds(s_14340_jpg, door).
holds(s_14340_jpg, awning).
holds(s_14340_jpg, porch).
holds(s_14340_jpg, sign).
holds(s_14340_jpg, tiledrooftop).
holds(s_14340_jpg, statue).
holds(s_14340_jpg, pipe).
holds(s_14340_jpg, machine).
holds(s_14340_jpg, commercial).

sample(s_8175_jpg).
holds(s_8175_jpg, building).
holds(s_8175_jpg, feature).
holds(s_8175_jpg, hotel).
holds(s_8175_jpg, door).
holds(s_8175_jpg, awning).
holds(s_8175_jpg, porch).
holds(s_8175_jpg, tiledrooftop).
holds(s_8175_jpg, statue).
holds(s_8175_jpg, chimney).
holds(s_8175_jpg, pipe).
holds(s_8175_jpg, machine).
holds(s_8175_jpg, truck).
holds(s_8175_jpg, commercial).

sample(s_12779_jpg).
holds(s_12779_jpg, building).
holds(s_12779_jpg, feature).
holds(s_12779_jpg, suburban).
holds(s_12779_jpg, door).
holds(s_12779_jpg, window).
holds(s_12779_jpg, awning).
holds(s_12779_jpg, table).
holds(s_12779_jpg, tiledrooftop).
holds(s_12779_jpg, vendingmachine).
holds(s_12779_jpg, wallsign).
holds(s_12779_jpg, statue).
holds(s_12779_jpg, pipe).
holds(s_12779_jpg, car).
holds(s_12779_jpg, residential).

sample(s_8029_jpg).
holds(s_8029_jpg, building).
holds(s_8029_jpg, feature).
holds(s_8029_jpg, constructionsite).
holds(s_8029_jpg, awning).
holds(s_8029_jpg, billboard).
holds(s_8029_jpg, porch).
holds(s_8029_jpg, tiledrooftop).
holds(s_8029_jpg, chimney).
holds(s_8029_jpg, pipe).
holds(s_8029_jpg, machine).
holds(s_8029_jpg, industrial).

sample(s_13125_jpg).
holds(s_13125_jpg, building).
holds(s_13125_jpg, feature).
holds(s_13125_jpg, hotel).
holds(s_13125_jpg, door).
holds(s_13125_jpg, awning).
holds(s_13125_jpg, billboard).
holds(s_13125_jpg, porch).
holds(s_13125_jpg, sign).
holds(s_13125_jpg, tiledrooftop).
holds(s_13125_jpg, statue).
holds(s_13125_jpg, chimney).
holds(s_13125_jpg, machine).
holds(s_13125_jpg, commercial).

sample(s_8996_jpg).
holds(s_8996_jpg, building).
holds(s_8996_jpg, feature).
holds(s_8996_jpg, suburban).
holds(s_8996_jpg, door).
holds(s_8996_jpg, window).
holds(s_8996_jpg, awning).
holds(s_8996_jpg, table).
holds(s_8996_jpg, tiledrooftop).
holds(s_8996_jpg, vendingmachine).
holds(s_8996_jpg, wallsign).
holds(s_8996_jpg, statue).
holds(s_8996_jpg, pipe).
holds(s_8996_jpg, residential).

sample(s_8019_jpg).
holds(s_8019_jpg, building).
holds(s_8019_jpg, feature).
holds(s_8019_jpg, hotel).
holds(s_8019_jpg, door).
holds(s_8019_jpg, awning).
holds(s_8019_jpg, billboard).
holds(s_8019_jpg, porch).
holds(s_8019_jpg, sign).
holds(s_8019_jpg, tiledrooftop).
holds(s_8019_jpg, chimney).
holds(s_8019_jpg, pipe).
holds(s_8019_jpg, machine).
holds(s_8019_jpg, commercial).

sample(s_3898_jpg).
holds(s_3898_jpg, building).
holds(s_3898_jpg, feature).
holds(s_3898_jpg, constructionsite).
holds(s_3898_jpg, awning).
holds(s_3898_jpg, billboard).
holds(s_3898_jpg, porch).
holds(s_3898_jpg, tiledrooftop).
holds(s_3898_jpg, wallsign).
holds(s_3898_jpg, chimney).
holds(s_3898_jpg, machine).
holds(s_3898_jpg, industrial).

sample(s_13435_jpg).
holds(s_13435_jpg, building).
holds(s_13435_jpg, feature).
holds(s_13435_jpg, constructionsite).
holds(s_13435_jpg, door).
holds(s_13435_jpg, awning).
holds(s_13435_jpg, billboard).
holds(s_13435_jpg, porch).
holds(s_13435_jpg, tiledrooftop).
holds(s_13435_jpg, vendingmachine).
holds(s_13435_jpg, wallsign).
holds(s_13435_jpg, statue).
holds(s_13435_jpg, chimney).
holds(s_13435_jpg, pipe).
holds(s_13435_jpg, machine).
holds(s_13435_jpg, industrial).

sample(s_13378_jpg).
holds(s_13378_jpg, building).
holds(s_13378_jpg, feature).
holds(s_13378_jpg, constructionsite).
holds(s_13378_jpg, awning).
holds(s_13378_jpg, billboard).
holds(s_13378_jpg, porch).
holds(s_13378_jpg, tiledrooftop).
holds(s_13378_jpg, chimney).
holds(s_13378_jpg, pipe).
holds(s_13378_jpg, machine).
holds(s_13378_jpg, industrial).

sample(s_4256_jpg).
holds(s_4256_jpg, building).
holds(s_4256_jpg, feature).
holds(s_4256_jpg, suburban).
holds(s_4256_jpg, door).
holds(s_4256_jpg, window).
holds(s_4256_jpg, awning).
holds(s_4256_jpg, porch).
holds(s_4256_jpg, tiledrooftop).
holds(s_4256_jpg, vendingmachine).
holds(s_4256_jpg, statue).
holds(s_4256_jpg, residential).

sample(s_10324_jpg).
holds(s_10324_jpg, building).
holds(s_10324_jpg, feature).
holds(s_10324_jpg, constructionsite).
holds(s_10324_jpg, awning).
holds(s_10324_jpg, billboard).
holds(s_10324_jpg, porch).
holds(s_10324_jpg, tiledrooftop).
holds(s_10324_jpg, wallsign).
holds(s_10324_jpg, chimney).
holds(s_10324_jpg, pipe).
holds(s_10324_jpg, machine).
holds(s_10324_jpg, industrial).

sample(s_2973_jpg).
holds(s_2973_jpg, building).
holds(s_2973_jpg, feature).
holds(s_2973_jpg, hotel).
holds(s_2973_jpg, door).
holds(s_2973_jpg, awning).
holds(s_2973_jpg, porch).
holds(s_2973_jpg, sign).
holds(s_2973_jpg, tiledrooftop).
holds(s_2973_jpg, statue).
holds(s_2973_jpg, pipe).
holds(s_2973_jpg, machine).
holds(s_2973_jpg, commercial).

sample(s_9730_jpg).
holds(s_9730_jpg, building).
holds(s_9730_jpg, feature).
holds(s_9730_jpg, constructionsite).
holds(s_9730_jpg, door).
holds(s_9730_jpg, awning).
holds(s_9730_jpg, billboard).
holds(s_9730_jpg, porch).
holds(s_9730_jpg, tiledrooftop).
holds(s_9730_jpg, vendingmachine).
holds(s_9730_jpg, wallsign).
holds(s_9730_jpg, statue).
holds(s_9730_jpg, chimney).
holds(s_9730_jpg, pipe).
holds(s_9730_jpg, machine).
holds(s_9730_jpg, industrial).

sample(s_6096_jpg).
holds(s_6096_jpg, building).
holds(s_6096_jpg, feature).
holds(s_6096_jpg, hotel).
holds(s_6096_jpg, door).
holds(s_6096_jpg, awning).
holds(s_6096_jpg, billboard).
holds(s_6096_jpg, porch).
holds(s_6096_jpg, sign).
holds(s_6096_jpg, tiledrooftop).
holds(s_6096_jpg, pipe).
holds(s_6096_jpg, machine).
holds(s_6096_jpg, commercial).

sample(s_13148_jpg).
holds(s_13148_jpg, building).
holds(s_13148_jpg, feature).
holds(s_13148_jpg, suburban).
holds(s_13148_jpg, door).
holds(s_13148_jpg, window).
holds(s_13148_jpg, awning).
holds(s_13148_jpg, porch).
holds(s_13148_jpg, table).
holds(s_13148_jpg, tiledrooftop).
holds(s_13148_jpg, vendingmachine).
holds(s_13148_jpg, wallsign).
holds(s_13148_jpg, statue).
holds(s_13148_jpg, pipe).
holds(s_13148_jpg, car).
holds(s_13148_jpg, residential).

sample(s_14086_jpg).
holds(s_14086_jpg, building).
holds(s_14086_jpg, feature).
holds(s_14086_jpg, constructionsite).
holds(s_14086_jpg, awning).
holds(s_14086_jpg, billboard).
holds(s_14086_jpg, porch).
holds(s_14086_jpg, tiledrooftop).
holds(s_14086_jpg, wallsign).
holds(s_14086_jpg, chimney).
holds(s_14086_jpg, pipe).
holds(s_14086_jpg, machine).
holds(s_14086_jpg, industrial).

sample(s_9191_jpg).
holds(s_9191_jpg, building).
holds(s_9191_jpg, feature).
holds(s_9191_jpg, suburban).
holds(s_9191_jpg, door).
holds(s_9191_jpg, window).
holds(s_9191_jpg, awning).
holds(s_9191_jpg, table).
holds(s_9191_jpg, tiledrooftop).
holds(s_9191_jpg, vendingmachine).
holds(s_9191_jpg, wallsign).
holds(s_9191_jpg, statue).
holds(s_9191_jpg, pipe).
holds(s_9191_jpg, car).
holds(s_9191_jpg, residential).

sample(s_8322_jpg).
holds(s_8322_jpg, building).
holds(s_8322_jpg, feature).
holds(s_8322_jpg, hotel).
holds(s_8322_jpg, door).
holds(s_8322_jpg, awning).
holds(s_8322_jpg, billboard).
holds(s_8322_jpg, porch).
holds(s_8322_jpg, sign).
holds(s_8322_jpg, tiledrooftop).
holds(s_8322_jpg, pipe).
holds(s_8322_jpg, machine).
holds(s_8322_jpg, commercial).

sample(s_2252_jpg).
holds(s_2252_jpg, building).
holds(s_2252_jpg, feature).
holds(s_2252_jpg, suburban).
holds(s_2252_jpg, door).
holds(s_2252_jpg, awning).
holds(s_2252_jpg, porch).
holds(s_2252_jpg, tiledrooftop).
holds(s_2252_jpg, vendingmachine).
holds(s_2252_jpg, wallsign).
holds(s_2252_jpg, statue).
holds(s_2252_jpg, chimney).
holds(s_2252_jpg, pipe).
holds(s_2252_jpg, truck).
holds(s_2252_jpg, car).
holds(s_2252_jpg, residential).

sample(s_13771_jpg).
holds(s_13771_jpg, building).
holds(s_13771_jpg, feature).
holds(s_13771_jpg, constructionsite).
holds(s_13771_jpg, awning).
holds(s_13771_jpg, billboard).
holds(s_13771_jpg, porch).
holds(s_13771_jpg, tiledrooftop).
holds(s_13771_jpg, wallsign).
holds(s_13771_jpg, chimney).
holds(s_13771_jpg, pipe).
holds(s_13771_jpg, machine).
holds(s_13771_jpg, industrial).

sample(s_20_jpg).
holds(s_20_jpg, building).
holds(s_20_jpg, feature).
holds(s_20_jpg, suburban).
holds(s_20_jpg, door).
holds(s_20_jpg, window).
holds(s_20_jpg, awning).
holds(s_20_jpg, porch).
holds(s_20_jpg, tiledrooftop).
holds(s_20_jpg, vendingmachine).
holds(s_20_jpg, statue).
holds(s_20_jpg, residential).

sample(s_14108_jpg).
holds(s_14108_jpg, building).
holds(s_14108_jpg, feature).
holds(s_14108_jpg, suburban).
holds(s_14108_jpg, door).
holds(s_14108_jpg, window).
holds(s_14108_jpg, awning).
holds(s_14108_jpg, porch).
holds(s_14108_jpg, tiledrooftop).
holds(s_14108_jpg, vendingmachine).
holds(s_14108_jpg, statue).
holds(s_14108_jpg, residential).

sample(s_721_jpg).
holds(s_721_jpg, building).
holds(s_721_jpg, feature).
holds(s_721_jpg, constructionsite).
holds(s_721_jpg, awning).
holds(s_721_jpg, billboard).
holds(s_721_jpg, porch).
holds(s_721_jpg, tiledrooftop).
holds(s_721_jpg, wallsign).
holds(s_721_jpg, chimney).
holds(s_721_jpg, pipe).
holds(s_721_jpg, machine).
holds(s_721_jpg, industrial).

sample(s_6025_jpg).
holds(s_6025_jpg, building).
holds(s_6025_jpg, feature).
holds(s_6025_jpg, constructionsite).
holds(s_6025_jpg, awning).
holds(s_6025_jpg, billboard).
holds(s_6025_jpg, porch).
holds(s_6025_jpg, tiledrooftop).
holds(s_6025_jpg, wallsign).
holds(s_6025_jpg, chimney).
holds(s_6025_jpg, pipe).
holds(s_6025_jpg, machine).
holds(s_6025_jpg, industrial).

sample(s_9302_jpg).
holds(s_9302_jpg, building).
holds(s_9302_jpg, feature).
holds(s_9302_jpg, suburban).
holds(s_9302_jpg, door).
holds(s_9302_jpg, window).
holds(s_9302_jpg, awning).
holds(s_9302_jpg, porch).
holds(s_9302_jpg, tiledrooftop).
holds(s_9302_jpg, vendingmachine).
holds(s_9302_jpg, statue).
holds(s_9302_jpg, pipe).
holds(s_9302_jpg, residential).

sample(s_10455_jpg).
holds(s_10455_jpg, building).
holds(s_10455_jpg, feature).
holds(s_10455_jpg, hotel).
holds(s_10455_jpg, door).
holds(s_10455_jpg, awning).
holds(s_10455_jpg, billboard).
holds(s_10455_jpg, porch).
holds(s_10455_jpg, sign).
holds(s_10455_jpg, tiledrooftop).
holds(s_10455_jpg, pipe).
holds(s_10455_jpg, machine).
holds(s_10455_jpg, commercial).

sample(s_14180_jpg).
holds(s_14180_jpg, building).
holds(s_14180_jpg, feature).
holds(s_14180_jpg, suburban).
holds(s_14180_jpg, door).
holds(s_14180_jpg, window).
holds(s_14180_jpg, awning).
holds(s_14180_jpg, porch).
holds(s_14180_jpg, tiledrooftop).
holds(s_14180_jpg, vendingmachine).
holds(s_14180_jpg, wallsign).
holds(s_14180_jpg, statue).
holds(s_14180_jpg, residential).

sample(s_11987_jpg).
holds(s_11987_jpg, building).
holds(s_11987_jpg, feature).
holds(s_11987_jpg, suburban).
holds(s_11987_jpg, door).
holds(s_11987_jpg, window).
holds(s_11987_jpg, awning).
holds(s_11987_jpg, porch).
holds(s_11987_jpg, tiledrooftop).
holds(s_11987_jpg, vendingmachine).
holds(s_11987_jpg, wallsign).
holds(s_11987_jpg, statue).
holds(s_11987_jpg, pipe).
holds(s_11987_jpg, machine).
holds(s_11987_jpg, truck).
holds(s_11987_jpg, car).
holds(s_11987_jpg, residential).

sample(s_10458_jpg).
holds(s_10458_jpg, building).
holds(s_10458_jpg, feature).
holds(s_10458_jpg, hotel).
holds(s_10458_jpg, door).
holds(s_10458_jpg, awning).
holds(s_10458_jpg, porch).
holds(s_10458_jpg, sign).
holds(s_10458_jpg, tiledrooftop).
holds(s_10458_jpg, statue).
holds(s_10458_jpg, pipe).
holds(s_10458_jpg, machine).
holds(s_10458_jpg, commercial).

sample(s_1387_jpg).
holds(s_1387_jpg, building).
holds(s_1387_jpg, feature).
holds(s_1387_jpg, constructionsite).
holds(s_1387_jpg, awning).
holds(s_1387_jpg, billboard).
holds(s_1387_jpg, porch).
holds(s_1387_jpg, tiledrooftop).
holds(s_1387_jpg, wallsign).
holds(s_1387_jpg, chimney).
holds(s_1387_jpg, pipe).
holds(s_1387_jpg, machine).
holds(s_1387_jpg, industrial).

sample(s_7527_jpg).
holds(s_7527_jpg, building).
holds(s_7527_jpg, feature).
holds(s_7527_jpg, hotel).
holds(s_7527_jpg, door).
holds(s_7527_jpg, awning).
holds(s_7527_jpg, porch).
holds(s_7527_jpg, sign).
holds(s_7527_jpg, tiledrooftop).
holds(s_7527_jpg, statue).
holds(s_7527_jpg, chimney).
holds(s_7527_jpg, pipe).
holds(s_7527_jpg, machine).
holds(s_7527_jpg, commercial).

sample(s_9801_jpg).
holds(s_9801_jpg, building).
holds(s_9801_jpg, feature).
holds(s_9801_jpg, hotel).
holds(s_9801_jpg, door).
holds(s_9801_jpg, awning).
holds(s_9801_jpg, billboard).
holds(s_9801_jpg, porch).
holds(s_9801_jpg, sign).
holds(s_9801_jpg, tiledrooftop).
holds(s_9801_jpg, chimney).
holds(s_9801_jpg, machine).
holds(s_9801_jpg, commercial).

sample(s_11294_jpg).
holds(s_11294_jpg, building).
holds(s_11294_jpg, feature).
holds(s_11294_jpg, suburban).
holds(s_11294_jpg, door).
holds(s_11294_jpg, window).
holds(s_11294_jpg, awning).
holds(s_11294_jpg, porch).
holds(s_11294_jpg, tiledrooftop).
holds(s_11294_jpg, vendingmachine).
holds(s_11294_jpg, statue).
holds(s_11294_jpg, residential).

sample(s_7859_jpg).
holds(s_7859_jpg, building).
holds(s_7859_jpg, feature).
holds(s_7859_jpg, suburban).
holds(s_7859_jpg, door).
holds(s_7859_jpg, window).
holds(s_7859_jpg, awning).
holds(s_7859_jpg, porch).
holds(s_7859_jpg, table).
holds(s_7859_jpg, tiledrooftop).
holds(s_7859_jpg, vendingmachine).
holds(s_7859_jpg, wallsign).
holds(s_7859_jpg, statue).
holds(s_7859_jpg, pipe).
holds(s_7859_jpg, truck).
holds(s_7859_jpg, car).
holds(s_7859_jpg, residential).

sample(s_2210_jpg).
holds(s_2210_jpg, building).
holds(s_2210_jpg, feature).
holds(s_2210_jpg, suburban).
holds(s_2210_jpg, door).
holds(s_2210_jpg, window).
holds(s_2210_jpg, awning).
holds(s_2210_jpg, porch).
holds(s_2210_jpg, tiledrooftop).
holds(s_2210_jpg, vendingmachine).
holds(s_2210_jpg, wallsign).
holds(s_2210_jpg, statue).
holds(s_2210_jpg, pipe).
holds(s_2210_jpg, truck).
holds(s_2210_jpg, car).
holds(s_2210_jpg, residential).

sample(s_9329_jpg).
holds(s_9329_jpg, building).
holds(s_9329_jpg, feature).
holds(s_9329_jpg, suburban).
holds(s_9329_jpg, door).
holds(s_9329_jpg, awning).
holds(s_9329_jpg, porch).
holds(s_9329_jpg, tiledrooftop).
holds(s_9329_jpg, vendingmachine).
holds(s_9329_jpg, wallsign).
holds(s_9329_jpg, statue).
holds(s_9329_jpg, chimney).
holds(s_9329_jpg, pipe).
holds(s_9329_jpg, machine).
holds(s_9329_jpg, truck).
holds(s_9329_jpg, car).
holds(s_9329_jpg, residential).

sample(s_13636_jpg).
holds(s_13636_jpg, building).
holds(s_13636_jpg, feature).
holds(s_13636_jpg, constructionsite).
holds(s_13636_jpg, awning).
holds(s_13636_jpg, billboard).
holds(s_13636_jpg, porch).
holds(s_13636_jpg, tiledrooftop).
holds(s_13636_jpg, wallsign).
holds(s_13636_jpg, chimney).
holds(s_13636_jpg, pipe).
holds(s_13636_jpg, machine).
holds(s_13636_jpg, industrial).

sample(s_13749_jpg).
holds(s_13749_jpg, building).
holds(s_13749_jpg, feature).
holds(s_13749_jpg, hotel).
holds(s_13749_jpg, door).
holds(s_13749_jpg, awning).
holds(s_13749_jpg, billboard).
holds(s_13749_jpg, porch).
holds(s_13749_jpg, sign).
holds(s_13749_jpg, tiledrooftop).
holds(s_13749_jpg, pipe).
holds(s_13749_jpg, machine).
holds(s_13749_jpg, commercial).

sample(s_11134_jpg).
holds(s_11134_jpg, building).
holds(s_11134_jpg, feature).
holds(s_11134_jpg, constructionsite).
holds(s_11134_jpg, awning).
holds(s_11134_jpg, billboard).
holds(s_11134_jpg, porch).
holds(s_11134_jpg, tiledrooftop).
holds(s_11134_jpg, wallsign).
holds(s_11134_jpg, chimney).
holds(s_11134_jpg, machine).
holds(s_11134_jpg, industrial).

sample(s_2841_jpg).
holds(s_2841_jpg, building).
holds(s_2841_jpg, feature).
holds(s_2841_jpg, hotel).
holds(s_2841_jpg, door).
holds(s_2841_jpg, awning).
holds(s_2841_jpg, porch).
holds(s_2841_jpg, tiledrooftop).
holds(s_2841_jpg, statue).
holds(s_2841_jpg, chimney).
holds(s_2841_jpg, pipe).
holds(s_2841_jpg, machine).
holds(s_2841_jpg, commercial).

sample(s_490_jpg).
holds(s_490_jpg, building).
holds(s_490_jpg, feature).
holds(s_490_jpg, constructionsite).
holds(s_490_jpg, awning).
holds(s_490_jpg, billboard).
holds(s_490_jpg, porch).
holds(s_490_jpg, tiledrooftop).
holds(s_490_jpg, wallsign).
holds(s_490_jpg, chimney).
holds(s_490_jpg, pipe).
holds(s_490_jpg, machine).
holds(s_490_jpg, industrial).

sample(s_3947_jpg).
holds(s_3947_jpg, building).
holds(s_3947_jpg, feature).
holds(s_3947_jpg, suburban).
holds(s_3947_jpg, door).
holds(s_3947_jpg, window).
holds(s_3947_jpg, awning).
holds(s_3947_jpg, table).
holds(s_3947_jpg, tiledrooftop).
holds(s_3947_jpg, vendingmachine).
holds(s_3947_jpg, wallsign).
holds(s_3947_jpg, statue).
holds(s_3947_jpg, pipe).
holds(s_3947_jpg, truck).
holds(s_3947_jpg, car).
holds(s_3947_jpg, residential).

sample(s_2942_jpg).
holds(s_2942_jpg, building).
holds(s_2942_jpg, feature).
holds(s_2942_jpg, suburban).
holds(s_2942_jpg, door).
holds(s_2942_jpg, window).
holds(s_2942_jpg, awning).
holds(s_2942_jpg, porch).
holds(s_2942_jpg, table).
holds(s_2942_jpg, tiledrooftop).
holds(s_2942_jpg, vendingmachine).
holds(s_2942_jpg, wallsign).
holds(s_2942_jpg, statue).
holds(s_2942_jpg, pipe).
holds(s_2942_jpg, residential).

sample(s_9655_jpg).
holds(s_9655_jpg, building).
holds(s_9655_jpg, feature).
holds(s_9655_jpg, constructionsite).
holds(s_9655_jpg, door).
holds(s_9655_jpg, awning).
holds(s_9655_jpg, billboard).
holds(s_9655_jpg, porch).
holds(s_9655_jpg, tiledrooftop).
holds(s_9655_jpg, wallsign).
holds(s_9655_jpg, chimney).
holds(s_9655_jpg, pipe).
holds(s_9655_jpg, machine).
holds(s_9655_jpg, industrial).

sample(s_13726_jpg).
holds(s_13726_jpg, building).
holds(s_13726_jpg, feature).
holds(s_13726_jpg, constructionsite).
holds(s_13726_jpg, awning).
holds(s_13726_jpg, billboard).
holds(s_13726_jpg, porch).
holds(s_13726_jpg, tiledrooftop).
holds(s_13726_jpg, chimney).
holds(s_13726_jpg, pipe).
holds(s_13726_jpg, machine).
holds(s_13726_jpg, industrial).

sample(s_8479_jpg).
holds(s_8479_jpg, building).
holds(s_8479_jpg, feature).
holds(s_8479_jpg, constructionsite).
holds(s_8479_jpg, awning).
holds(s_8479_jpg, billboard).
holds(s_8479_jpg, porch).
holds(s_8479_jpg, tiledrooftop).
holds(s_8479_jpg, wallsign).
holds(s_8479_jpg, chimney).
holds(s_8479_jpg, pipe).
holds(s_8479_jpg, machine).
holds(s_8479_jpg, industrial).

sample(s_2265_jpg).
holds(s_2265_jpg, building).
holds(s_2265_jpg, feature).
holds(s_2265_jpg, hotel).
holds(s_2265_jpg, door).
holds(s_2265_jpg, awning).
holds(s_2265_jpg, billboard).
holds(s_2265_jpg, porch).
holds(s_2265_jpg, sign).
holds(s_2265_jpg, tiledrooftop).
holds(s_2265_jpg, statue).
holds(s_2265_jpg, chimney).
holds(s_2265_jpg, pipe).
holds(s_2265_jpg, machine).
holds(s_2265_jpg, commercial).

sample(s_9674_jpg).
holds(s_9674_jpg, building).
holds(s_9674_jpg, feature).
holds(s_9674_jpg, suburban).
holds(s_9674_jpg, door).
holds(s_9674_jpg, window).
holds(s_9674_jpg, awning).
holds(s_9674_jpg, porch).
holds(s_9674_jpg, table).
holds(s_9674_jpg, tiledrooftop).
holds(s_9674_jpg, vendingmachine).
holds(s_9674_jpg, wallsign).
holds(s_9674_jpg, statue).
holds(s_9674_jpg, pipe).
holds(s_9674_jpg, car).
holds(s_9674_jpg, residential).

sample(s_3162_jpg).
holds(s_3162_jpg, building).
holds(s_3162_jpg, feature).
holds(s_3162_jpg, hotel).
holds(s_3162_jpg, door).
holds(s_3162_jpg, awning).
holds(s_3162_jpg, billboard).
holds(s_3162_jpg, porch).
holds(s_3162_jpg, sign).
holds(s_3162_jpg, tiledrooftop).
holds(s_3162_jpg, chimney).
holds(s_3162_jpg, pipe).
holds(s_3162_jpg, machine).
holds(s_3162_jpg, truck).
holds(s_3162_jpg, commercial).

sample(s_2110_jpg).
holds(s_2110_jpg, building).
holds(s_2110_jpg, feature).
holds(s_2110_jpg, constructionsite).
holds(s_2110_jpg, door).
holds(s_2110_jpg, awning).
holds(s_2110_jpg, billboard).
holds(s_2110_jpg, porch).
holds(s_2110_jpg, tiledrooftop).
holds(s_2110_jpg, vendingmachine).
holds(s_2110_jpg, wallsign).
holds(s_2110_jpg, chimney).
holds(s_2110_jpg, pipe).
holds(s_2110_jpg, machine).
holds(s_2110_jpg, industrial).

sample(s_11469_jpg).
holds(s_11469_jpg, building).
holds(s_11469_jpg, feature).
holds(s_11469_jpg, hotel).
holds(s_11469_jpg, door).
holds(s_11469_jpg, awning).
holds(s_11469_jpg, porch).
holds(s_11469_jpg, sign).
holds(s_11469_jpg, tiledrooftop).
holds(s_11469_jpg, statue).
holds(s_11469_jpg, chimney).
holds(s_11469_jpg, machine).
holds(s_11469_jpg, commercial).

sample(s_9024_jpg).
holds(s_9024_jpg, building).
holds(s_9024_jpg, feature).
holds(s_9024_jpg, hotel).
holds(s_9024_jpg, door).
holds(s_9024_jpg, awning).
holds(s_9024_jpg, billboard).
holds(s_9024_jpg, porch).
holds(s_9024_jpg, sign).
holds(s_9024_jpg, tiledrooftop).
holds(s_9024_jpg, statue).
holds(s_9024_jpg, pipe).
holds(s_9024_jpg, machine).
holds(s_9024_jpg, commercial).

sample(s_8520_jpg).
holds(s_8520_jpg, building).
holds(s_8520_jpg, feature).
holds(s_8520_jpg, hotel).
holds(s_8520_jpg, door).
holds(s_8520_jpg, awning).
holds(s_8520_jpg, billboard).
holds(s_8520_jpg, porch).
holds(s_8520_jpg, sign).
holds(s_8520_jpg, tiledrooftop).
holds(s_8520_jpg, chimney).
holds(s_8520_jpg, pipe).
holds(s_8520_jpg, machine).
holds(s_8520_jpg, commercial).

sample(s_11329_jpg).
holds(s_11329_jpg, building).
holds(s_11329_jpg, feature).
holds(s_11329_jpg, constructionsite).
holds(s_11329_jpg, awning).
holds(s_11329_jpg, billboard).
holds(s_11329_jpg, porch).
holds(s_11329_jpg, tiledrooftop).
holds(s_11329_jpg, vendingmachine).
holds(s_11329_jpg, wallsign).
holds(s_11329_jpg, chimney).
holds(s_11329_jpg, pipe).
holds(s_11329_jpg, machine).
holds(s_11329_jpg, industrial).

sample(s_9150_jpg).
holds(s_9150_jpg, building).
holds(s_9150_jpg, feature).
holds(s_9150_jpg, hotel).
holds(s_9150_jpg, door).
holds(s_9150_jpg, awning).
holds(s_9150_jpg, billboard).
holds(s_9150_jpg, porch).
holds(s_9150_jpg, sign).
holds(s_9150_jpg, tiledrooftop).
holds(s_9150_jpg, statue).
holds(s_9150_jpg, pipe).
holds(s_9150_jpg, machine).
holds(s_9150_jpg, truck).
holds(s_9150_jpg, commercial).

sample(s_15519_jpg).
holds(s_15519_jpg, building).
holds(s_15519_jpg, feature).
holds(s_15519_jpg, hotel).
holds(s_15519_jpg, door).
holds(s_15519_jpg, awning).
holds(s_15519_jpg, porch).
holds(s_15519_jpg, tiledrooftop).
holds(s_15519_jpg, vendingmachine).
holds(s_15519_jpg, wallsign).
holds(s_15519_jpg, statue).
holds(s_15519_jpg, chimney).
holds(s_15519_jpg, pipe).
holds(s_15519_jpg, machine).
holds(s_15519_jpg, commercial).

sample(s_5456_jpg).
holds(s_5456_jpg, building).
holds(s_5456_jpg, feature).
holds(s_5456_jpg, suburban).
holds(s_5456_jpg, door).
holds(s_5456_jpg, awning).
holds(s_5456_jpg, porch).
holds(s_5456_jpg, table).
holds(s_5456_jpg, tiledrooftop).
holds(s_5456_jpg, vendingmachine).
holds(s_5456_jpg, wallsign).
holds(s_5456_jpg, statue).
holds(s_5456_jpg, chimney).
holds(s_5456_jpg, pipe).
holds(s_5456_jpg, truck).
holds(s_5456_jpg, car).
holds(s_5456_jpg, residential).

sample(s_15417_jpg).
holds(s_15417_jpg, building).
holds(s_15417_jpg, feature).
holds(s_15417_jpg, hotel).
holds(s_15417_jpg, door).
holds(s_15417_jpg, awning).
holds(s_15417_jpg, billboard).
holds(s_15417_jpg, porch).
holds(s_15417_jpg, sign).
holds(s_15417_jpg, tiledrooftop).
holds(s_15417_jpg, statue).
holds(s_15417_jpg, chimney).
holds(s_15417_jpg, machine).
holds(s_15417_jpg, commercial).

sample(s_6341_jpg).
holds(s_6341_jpg, building).
holds(s_6341_jpg, feature).
holds(s_6341_jpg, suburban).
holds(s_6341_jpg, door).
holds(s_6341_jpg, awning).
holds(s_6341_jpg, table).
holds(s_6341_jpg, tiledrooftop).
holds(s_6341_jpg, vendingmachine).
holds(s_6341_jpg, wallsign).
holds(s_6341_jpg, statue).
holds(s_6341_jpg, chimney).
holds(s_6341_jpg, pipe).
holds(s_6341_jpg, truck).
holds(s_6341_jpg, car).
holds(s_6341_jpg, residential).

sample(s_9146_jpg).
holds(s_9146_jpg, building).
holds(s_9146_jpg, feature).
holds(s_9146_jpg, suburban).
holds(s_9146_jpg, door).
holds(s_9146_jpg, window).
holds(s_9146_jpg, awning).
holds(s_9146_jpg, porch).
holds(s_9146_jpg, tiledrooftop).
holds(s_9146_jpg, vendingmachine).
holds(s_9146_jpg, wallsign).
holds(s_9146_jpg, statue).
holds(s_9146_jpg, residential).

sample(s_8763_jpg).
holds(s_8763_jpg, building).
holds(s_8763_jpg, feature).
holds(s_8763_jpg, hotel).
holds(s_8763_jpg, door).
holds(s_8763_jpg, awning).
holds(s_8763_jpg, billboard).
holds(s_8763_jpg, porch).
holds(s_8763_jpg, tiledrooftop).
holds(s_8763_jpg, statue).
holds(s_8763_jpg, chimney).
holds(s_8763_jpg, pipe).
holds(s_8763_jpg, machine).
holds(s_8763_jpg, truck).
holds(s_8763_jpg, commercial).

sample(s_15125_jpg).
holds(s_15125_jpg, building).
holds(s_15125_jpg, feature).
holds(s_15125_jpg, suburban).
holds(s_15125_jpg, door).
holds(s_15125_jpg, window).
holds(s_15125_jpg, awning).
holds(s_15125_jpg, porch).
holds(s_15125_jpg, tiledrooftop).
holds(s_15125_jpg, vendingmachine).
holds(s_15125_jpg, wallsign).
holds(s_15125_jpg, statue).
holds(s_15125_jpg, pipe).
holds(s_15125_jpg, residential).

sample(s_15571_jpg).
holds(s_15571_jpg, building).
holds(s_15571_jpg, feature).
holds(s_15571_jpg, constructionsite).
holds(s_15571_jpg, awning).
holds(s_15571_jpg, billboard).
holds(s_15571_jpg, porch).
holds(s_15571_jpg, sign).
holds(s_15571_jpg, tiledrooftop).
holds(s_15571_jpg, wallsign).
holds(s_15571_jpg, chimney).
holds(s_15571_jpg, pipe).
holds(s_15571_jpg, machine).
holds(s_15571_jpg, industrial).

sample(s_159_jpg).
holds(s_159_jpg, building).
holds(s_159_jpg, feature).
holds(s_159_jpg, hotel).
holds(s_159_jpg, door).
holds(s_159_jpg, awning).
holds(s_159_jpg, porch).
holds(s_159_jpg, sign).
holds(s_159_jpg, tiledrooftop).
holds(s_159_jpg, pipe).
holds(s_159_jpg, machine).
holds(s_159_jpg, commercial).

sample(s_10998_jpg).
holds(s_10998_jpg, building).
holds(s_10998_jpg, feature).
holds(s_10998_jpg, hotel).
holds(s_10998_jpg, door).
holds(s_10998_jpg, window).
holds(s_10998_jpg, awning).
holds(s_10998_jpg, porch).
holds(s_10998_jpg, tiledrooftop).
holds(s_10998_jpg, statue).
holds(s_10998_jpg, chimney).
holds(s_10998_jpg, machine).
holds(s_10998_jpg, commercial).

sample(s_592_jpg).
holds(s_592_jpg, building).
holds(s_592_jpg, feature).
holds(s_592_jpg, constructionsite).
holds(s_592_jpg, awning).
holds(s_592_jpg, billboard).
holds(s_592_jpg, porch).
holds(s_592_jpg, sign).
holds(s_592_jpg, tiledrooftop).
holds(s_592_jpg, wallsign).
holds(s_592_jpg, chimney).
holds(s_592_jpg, pipe).
holds(s_592_jpg, machine).
holds(s_592_jpg, industrial).

sample(s_12857_jpg).
holds(s_12857_jpg, building).
holds(s_12857_jpg, feature).
holds(s_12857_jpg, suburban).
holds(s_12857_jpg, door).
holds(s_12857_jpg, window).
holds(s_12857_jpg, awning).
holds(s_12857_jpg, table).
holds(s_12857_jpg, tiledrooftop).
holds(s_12857_jpg, vendingmachine).
holds(s_12857_jpg, wallsign).
holds(s_12857_jpg, statue).
holds(s_12857_jpg, pipe).
holds(s_12857_jpg, car).
holds(s_12857_jpg, residential).

sample(s_2166_jpg).
holds(s_2166_jpg, building).
holds(s_2166_jpg, feature).
holds(s_2166_jpg, hotel).
holds(s_2166_jpg, door).
holds(s_2166_jpg, awning).
holds(s_2166_jpg, billboard).
holds(s_2166_jpg, porch).
holds(s_2166_jpg, tiledrooftop).
holds(s_2166_jpg, statue).
holds(s_2166_jpg, chimney).
holds(s_2166_jpg, machine).
holds(s_2166_jpg, commercial).

sample(s_144_jpg).
holds(s_144_jpg, building).
holds(s_144_jpg, feature).
holds(s_144_jpg, hotel).
holds(s_144_jpg, door).
holds(s_144_jpg, awning).
holds(s_144_jpg, porch).
holds(s_144_jpg, tiledrooftop).
holds(s_144_jpg, vendingmachine).
holds(s_144_jpg, wallsign).
holds(s_144_jpg, statue).
holds(s_144_jpg, chimney).
holds(s_144_jpg, pipe).
holds(s_144_jpg, machine).
holds(s_144_jpg, commercial).

sample(s_6232_jpg).
holds(s_6232_jpg, building).
holds(s_6232_jpg, feature).
holds(s_6232_jpg, constructionsite).
holds(s_6232_jpg, awning).
holds(s_6232_jpg, billboard).
holds(s_6232_jpg, porch).
holds(s_6232_jpg, tiledrooftop).
holds(s_6232_jpg, chimney).
holds(s_6232_jpg, pipe).
holds(s_6232_jpg, machine).
holds(s_6232_jpg, industrial).

sample(s_6506_jpg).
holds(s_6506_jpg, building).
holds(s_6506_jpg, feature).
holds(s_6506_jpg, suburban).
holds(s_6506_jpg, door).
holds(s_6506_jpg, awning).
holds(s_6506_jpg, porch).
holds(s_6506_jpg, tiledrooftop).
holds(s_6506_jpg, vendingmachine).
holds(s_6506_jpg, wallsign).
holds(s_6506_jpg, statue).
holds(s_6506_jpg, chimney).
holds(s_6506_jpg, pipe).
holds(s_6506_jpg, machine).
holds(s_6506_jpg, truck).
holds(s_6506_jpg, car).
holds(s_6506_jpg, residential).

sample(s_2130_jpg).
holds(s_2130_jpg, building).
holds(s_2130_jpg, feature).
holds(s_2130_jpg, hotel).
holds(s_2130_jpg, door).
holds(s_2130_jpg, awning).
holds(s_2130_jpg, billboard).
holds(s_2130_jpg, porch).
holds(s_2130_jpg, sign).
holds(s_2130_jpg, tiledrooftop).
holds(s_2130_jpg, chimney).
holds(s_2130_jpg, pipe).
holds(s_2130_jpg, machine).
holds(s_2130_jpg, commercial).

sample(s_2862_jpg).
holds(s_2862_jpg, building).
holds(s_2862_jpg, feature).
holds(s_2862_jpg, hotel).
holds(s_2862_jpg, door).
holds(s_2862_jpg, awning).
holds(s_2862_jpg, porch).
holds(s_2862_jpg, tiledrooftop).
holds(s_2862_jpg, vendingmachine).
holds(s_2862_jpg, wallsign).
holds(s_2862_jpg, statue).
holds(s_2862_jpg, chimney).
holds(s_2862_jpg, pipe).
holds(s_2862_jpg, machine).
holds(s_2862_jpg, commercial).

sample(s_9986_jpg).
holds(s_9986_jpg, building).
holds(s_9986_jpg, feature).
holds(s_9986_jpg, suburban).
holds(s_9986_jpg, door).
holds(s_9986_jpg, window).
holds(s_9986_jpg, awning).
holds(s_9986_jpg, porch).
holds(s_9986_jpg, tiledrooftop).
holds(s_9986_jpg, vendingmachine).
holds(s_9986_jpg, wallsign).
holds(s_9986_jpg, statue).
holds(s_9986_jpg, pipe).
holds(s_9986_jpg, residential).

sample(s_14789_jpg).
holds(s_14789_jpg, building).
holds(s_14789_jpg, feature).
holds(s_14789_jpg, suburban).
holds(s_14789_jpg, door).
holds(s_14789_jpg, window).
holds(s_14789_jpg, awning).
holds(s_14789_jpg, porch).
holds(s_14789_jpg, tiledrooftop).
holds(s_14789_jpg, vendingmachine).
holds(s_14789_jpg, wallsign).
holds(s_14789_jpg, statue).
holds(s_14789_jpg, residential).

sample(s_4214_jpg).
holds(s_4214_jpg, building).
holds(s_4214_jpg, feature).
holds(s_4214_jpg, suburban).
holds(s_4214_jpg, door).
holds(s_4214_jpg, window).
holds(s_4214_jpg, awning).
holds(s_4214_jpg, porch).
holds(s_4214_jpg, tiledrooftop).
holds(s_4214_jpg, vendingmachine).
holds(s_4214_jpg, wallsign).
holds(s_4214_jpg, statue).
holds(s_4214_jpg, residential).

sample(s_11007_jpg).
holds(s_11007_jpg, building).
holds(s_11007_jpg, feature).
holds(s_11007_jpg, hotel).
holds(s_11007_jpg, door).
holds(s_11007_jpg, awning).
holds(s_11007_jpg, billboard).
holds(s_11007_jpg, porch).
holds(s_11007_jpg, sign).
holds(s_11007_jpg, tiledrooftop).
holds(s_11007_jpg, chimney).
holds(s_11007_jpg, pipe).
holds(s_11007_jpg, machine).
holds(s_11007_jpg, truck).
holds(s_11007_jpg, commercial).

sample(s_15085_jpg).
holds(s_15085_jpg, building).
holds(s_15085_jpg, feature).
holds(s_15085_jpg, constructionsite).
holds(s_15085_jpg, awning).
holds(s_15085_jpg, billboard).
holds(s_15085_jpg, porch).
holds(s_15085_jpg, tiledrooftop).
holds(s_15085_jpg, wallsign).
holds(s_15085_jpg, chimney).
holds(s_15085_jpg, pipe).
holds(s_15085_jpg, machine).
holds(s_15085_jpg, industrial).

sample(s_14983_jpg).
holds(s_14983_jpg, building).
holds(s_14983_jpg, feature).
holds(s_14983_jpg, constructionsite).
holds(s_14983_jpg, awning).
holds(s_14983_jpg, billboard).
holds(s_14983_jpg, porch).
holds(s_14983_jpg, tiledrooftop).
holds(s_14983_jpg, wallsign).
holds(s_14983_jpg, chimney).
holds(s_14983_jpg, pipe).
holds(s_14983_jpg, machine).
holds(s_14983_jpg, industrial).

sample(s_15941_jpg).
holds(s_15941_jpg, building).
holds(s_15941_jpg, feature).
holds(s_15941_jpg, suburban).
holds(s_15941_jpg, door).
holds(s_15941_jpg, window).
holds(s_15941_jpg, awning).
holds(s_15941_jpg, table).
holds(s_15941_jpg, tiledrooftop).
holds(s_15941_jpg, vendingmachine).
holds(s_15941_jpg, wallsign).
holds(s_15941_jpg, statue).
holds(s_15941_jpg, pipe).
holds(s_15941_jpg, residential).

sample(s_13976_jpg).
holds(s_13976_jpg, building).
holds(s_13976_jpg, feature).
holds(s_13976_jpg, suburban).
holds(s_13976_jpg, miscresidential).
holds(s_13976_jpg, door).
holds(s_13976_jpg, awning).
holds(s_13976_jpg, table).
holds(s_13976_jpg, vendingmachine).
holds(s_13976_jpg, wallsign).
holds(s_13976_jpg, statue).
holds(s_13976_jpg, pipe).
holds(s_13976_jpg, truck).
holds(s_13976_jpg, car).
holds(s_13976_jpg, residential).

sample(s_14192_jpg).
holds(s_14192_jpg, building).
holds(s_14192_jpg, feature).
holds(s_14192_jpg, suburban).
holds(s_14192_jpg, door).
holds(s_14192_jpg, window).
holds(s_14192_jpg, awning).
holds(s_14192_jpg, porch).
holds(s_14192_jpg, tiledrooftop).
holds(s_14192_jpg, vendingmachine).
holds(s_14192_jpg, wallsign).
holds(s_14192_jpg, statue).
holds(s_14192_jpg, pipe).
holds(s_14192_jpg, residential).

sample(s_12941_jpg).
holds(s_12941_jpg, building).
holds(s_12941_jpg, feature).
holds(s_12941_jpg, suburban).
holds(s_12941_jpg, door).
holds(s_12941_jpg, window).
holds(s_12941_jpg, awning).
holds(s_12941_jpg, porch).
holds(s_12941_jpg, table).
holds(s_12941_jpg, tiledrooftop).
holds(s_12941_jpg, vendingmachine).
holds(s_12941_jpg, wallsign).
holds(s_12941_jpg, statue).
holds(s_12941_jpg, pipe).
holds(s_12941_jpg, residential).

sample(s_11700_jpg).
holds(s_11700_jpg, building).
holds(s_11700_jpg, feature).
holds(s_11700_jpg, hotel).
holds(s_11700_jpg, door).
holds(s_11700_jpg, awning).
holds(s_11700_jpg, porch).
holds(s_11700_jpg, sign).
holds(s_11700_jpg, tiledrooftop).
holds(s_11700_jpg, statue).
holds(s_11700_jpg, chimney).
holds(s_11700_jpg, machine).
holds(s_11700_jpg, commercial).

sample(s_7201_jpg).
holds(s_7201_jpg, building).
holds(s_7201_jpg, feature).
holds(s_7201_jpg, constructionsite).
holds(s_7201_jpg, awning).
holds(s_7201_jpg, billboard).
holds(s_7201_jpg, porch).
holds(s_7201_jpg, tiledrooftop).
holds(s_7201_jpg, wallsign).
holds(s_7201_jpg, chimney).
holds(s_7201_jpg, pipe).
holds(s_7201_jpg, machine).
holds(s_7201_jpg, industrial).

sample(s_8779_jpg).
holds(s_8779_jpg, building).
holds(s_8779_jpg, feature).
holds(s_8779_jpg, constructionsite).
holds(s_8779_jpg, awning).
holds(s_8779_jpg, billboard).
holds(s_8779_jpg, porch).
holds(s_8779_jpg, tiledrooftop).
holds(s_8779_jpg, chimney).
holds(s_8779_jpg, machine).
holds(s_8779_jpg, industrial).

sample(s_14805_jpg).
holds(s_14805_jpg, building).
holds(s_14805_jpg, feature).
holds(s_14805_jpg, hotel).
holds(s_14805_jpg, door).
holds(s_14805_jpg, awning).
holds(s_14805_jpg, billboard).
holds(s_14805_jpg, porch).
holds(s_14805_jpg, sign).
holds(s_14805_jpg, tiledrooftop).
holds(s_14805_jpg, statue).
holds(s_14805_jpg, chimney).
holds(s_14805_jpg, pipe).
holds(s_14805_jpg, machine).
holds(s_14805_jpg, truck).
holds(s_14805_jpg, commercial).

sample(s_7421_jpg).
holds(s_7421_jpg, building).
holds(s_7421_jpg, feature).
holds(s_7421_jpg, suburban).
holds(s_7421_jpg, door).
holds(s_7421_jpg, window).
holds(s_7421_jpg, awning).
holds(s_7421_jpg, porch).
holds(s_7421_jpg, tiledrooftop).
holds(s_7421_jpg, vendingmachine).
holds(s_7421_jpg, statue).
holds(s_7421_jpg, residential).

sample(s_12611_jpg).
holds(s_12611_jpg, building).
holds(s_12611_jpg, feature).
holds(s_12611_jpg, suburban).
holds(s_12611_jpg, door).
holds(s_12611_jpg, awning).
holds(s_12611_jpg, table).
holds(s_12611_jpg, vendingmachine).
holds(s_12611_jpg, wallsign).
holds(s_12611_jpg, statue).
holds(s_12611_jpg, chimney).
holds(s_12611_jpg, pipe).
holds(s_12611_jpg, truck).
holds(s_12611_jpg, car).
holds(s_12611_jpg, residential).

sample(s_1377_jpg).
holds(s_1377_jpg, building).
holds(s_1377_jpg, feature).
holds(s_1377_jpg, hotel).
holds(s_1377_jpg, door).
holds(s_1377_jpg, window).
holds(s_1377_jpg, awning).
holds(s_1377_jpg, porch).
holds(s_1377_jpg, tiledrooftop).
holds(s_1377_jpg, statue).
holds(s_1377_jpg, chimney).
holds(s_1377_jpg, pipe).
holds(s_1377_jpg, machine).
holds(s_1377_jpg, truck).
holds(s_1377_jpg, commercial).

sample(s_7030_jpg).
holds(s_7030_jpg, building).
holds(s_7030_jpg, feature).
holds(s_7030_jpg, constructionsite).
holds(s_7030_jpg, awning).
holds(s_7030_jpg, billboard).
holds(s_7030_jpg, porch).
holds(s_7030_jpg, tiledrooftop).
holds(s_7030_jpg, wallsign).
holds(s_7030_jpg, chimney).
holds(s_7030_jpg, pipe).
holds(s_7030_jpg, machine).
holds(s_7030_jpg, industrial).

sample(s_8657_jpg).
holds(s_8657_jpg, building).
holds(s_8657_jpg, feature).
holds(s_8657_jpg, suburban).
holds(s_8657_jpg, door).
holds(s_8657_jpg, window).
holds(s_8657_jpg, awning).
holds(s_8657_jpg, porch).
holds(s_8657_jpg, tiledrooftop).
holds(s_8657_jpg, vendingmachine).
holds(s_8657_jpg, statue).
holds(s_8657_jpg, residential).

sample(s_4913_jpg).
holds(s_4913_jpg, building).
holds(s_4913_jpg, feature).
holds(s_4913_jpg, suburban).
holds(s_4913_jpg, door).
holds(s_4913_jpg, awning).
holds(s_4913_jpg, billboard).
holds(s_4913_jpg, porch).
holds(s_4913_jpg, tiledrooftop).
holds(s_4913_jpg, vendingmachine).
holds(s_4913_jpg, wallsign).
holds(s_4913_jpg, statue).
holds(s_4913_jpg, chimney).
holds(s_4913_jpg, pipe).
holds(s_4913_jpg, machine).
holds(s_4913_jpg, truck).
holds(s_4913_jpg, car).
holds(s_4913_jpg, residential).

sample(s_5532_jpg).
holds(s_5532_jpg, building).
holds(s_5532_jpg, feature).
holds(s_5532_jpg, hotel).
holds(s_5532_jpg, door).
holds(s_5532_jpg, awning).
holds(s_5532_jpg, porch).
holds(s_5532_jpg, sign).
holds(s_5532_jpg, tiledrooftop).
holds(s_5532_jpg, statue).
holds(s_5532_jpg, pipe).
holds(s_5532_jpg, machine).
holds(s_5532_jpg, commercial).

sample(s_16_jpg).
holds(s_16_jpg, building).
holds(s_16_jpg, feature).
holds(s_16_jpg, constructionsite).
holds(s_16_jpg, awning).
holds(s_16_jpg, billboard).
holds(s_16_jpg, porch).
holds(s_16_jpg, tiledrooftop).
holds(s_16_jpg, wallsign).
holds(s_16_jpg, chimney).
holds(s_16_jpg, pipe).
holds(s_16_jpg, machine).
holds(s_16_jpg, industrial).

sample(s_8411_jpg).
holds(s_8411_jpg, building).
holds(s_8411_jpg, feature).
holds(s_8411_jpg, suburban).
holds(s_8411_jpg, door).
holds(s_8411_jpg, awning).
holds(s_8411_jpg, table).
holds(s_8411_jpg, tiledrooftop).
holds(s_8411_jpg, vendingmachine).
holds(s_8411_jpg, wallsign).
holds(s_8411_jpg, statue).
holds(s_8411_jpg, chimney).
holds(s_8411_jpg, pipe).
holds(s_8411_jpg, truck).
holds(s_8411_jpg, car).
holds(s_8411_jpg, residential).

sample(s_8555_jpg).
holds(s_8555_jpg, building).
holds(s_8555_jpg, feature).
holds(s_8555_jpg, suburban).
holds(s_8555_jpg, door).
holds(s_8555_jpg, window).
holds(s_8555_jpg, awning).
holds(s_8555_jpg, porch).
holds(s_8555_jpg, table).
holds(s_8555_jpg, tiledrooftop).
holds(s_8555_jpg, vendingmachine).
holds(s_8555_jpg, wallsign).
holds(s_8555_jpg, statue).
holds(s_8555_jpg, pipe).
holds(s_8555_jpg, residential).

sample(s_381_jpg).
holds(s_381_jpg, building).
holds(s_381_jpg, feature).
holds(s_381_jpg, hotel).
holds(s_381_jpg, door).
holds(s_381_jpg, awning).
holds(s_381_jpg, billboard).
holds(s_381_jpg, porch).
holds(s_381_jpg, tiledrooftop).
holds(s_381_jpg, statue).
holds(s_381_jpg, chimney).
holds(s_381_jpg, machine).
holds(s_381_jpg, commercial).

sample(s_12373_jpg).
holds(s_12373_jpg, building).
holds(s_12373_jpg, feature).
holds(s_12373_jpg, constructionsite).
holds(s_12373_jpg, awning).
holds(s_12373_jpg, billboard).
holds(s_12373_jpg, porch).
holds(s_12373_jpg, tiledrooftop).
holds(s_12373_jpg, chimney).
holds(s_12373_jpg, machine).
holds(s_12373_jpg, industrial).

sample(s_6521_jpg).
holds(s_6521_jpg, building).
holds(s_6521_jpg, feature).
holds(s_6521_jpg, suburban).
holds(s_6521_jpg, door).
holds(s_6521_jpg, window).
holds(s_6521_jpg, awning).
holds(s_6521_jpg, porch).
holds(s_6521_jpg, tiledrooftop).
holds(s_6521_jpg, vendingmachine).
holds(s_6521_jpg, wallsign).
holds(s_6521_jpg, statue).
holds(s_6521_jpg, pipe).
holds(s_6521_jpg, residential).

sample(s_2138_jpg).
holds(s_2138_jpg, building).
holds(s_2138_jpg, feature).
holds(s_2138_jpg, suburban).
holds(s_2138_jpg, door).
holds(s_2138_jpg, window).
holds(s_2138_jpg, awning).
holds(s_2138_jpg, porch).
holds(s_2138_jpg, tiledrooftop).
holds(s_2138_jpg, vendingmachine).
holds(s_2138_jpg, wallsign).
holds(s_2138_jpg, statue).
holds(s_2138_jpg, residential).

sample(s_2392_jpg).
holds(s_2392_jpg, building).
holds(s_2392_jpg, feature).
holds(s_2392_jpg, constructionsite).
holds(s_2392_jpg, door).
holds(s_2392_jpg, awning).
holds(s_2392_jpg, billboard).
holds(s_2392_jpg, porch).
holds(s_2392_jpg, tiledrooftop).
holds(s_2392_jpg, vendingmachine).
holds(s_2392_jpg, wallsign).
holds(s_2392_jpg, statue).
holds(s_2392_jpg, chimney).
holds(s_2392_jpg, pipe).
holds(s_2392_jpg, machine).
holds(s_2392_jpg, industrial).

sample(s_3720_jpg).
holds(s_3720_jpg, building).
holds(s_3720_jpg, feature).
holds(s_3720_jpg, hotel).
holds(s_3720_jpg, door).
holds(s_3720_jpg, awning).
holds(s_3720_jpg, billboard).
holds(s_3720_jpg, porch).
holds(s_3720_jpg, sign).
holds(s_3720_jpg, tiledrooftop).
holds(s_3720_jpg, chimney).
holds(s_3720_jpg, pipe).
holds(s_3720_jpg, machine).
holds(s_3720_jpg, commercial).

sample(s_11641_jpg).
holds(s_11641_jpg, building).
holds(s_11641_jpg, feature).
holds(s_11641_jpg, constructionsite).
holds(s_11641_jpg, awning).
holds(s_11641_jpg, billboard).
holds(s_11641_jpg, porch).
holds(s_11641_jpg, tiledrooftop).
holds(s_11641_jpg, vendingmachine).
holds(s_11641_jpg, wallsign).
holds(s_11641_jpg, chimney).
holds(s_11641_jpg, pipe).
holds(s_11641_jpg, machine).
holds(s_11641_jpg, industrial).

sample(s_9838_jpg).
holds(s_9838_jpg, building).
holds(s_9838_jpg, feature).
holds(s_9838_jpg, constructionsite).
holds(s_9838_jpg, awning).
holds(s_9838_jpg, billboard).
holds(s_9838_jpg, porch).
holds(s_9838_jpg, tiledrooftop).
holds(s_9838_jpg, wallsign).
holds(s_9838_jpg, chimney).
holds(s_9838_jpg, pipe).
holds(s_9838_jpg, machine).
holds(s_9838_jpg, industrial).

sample(s_6632_jpg).
holds(s_6632_jpg, building).
holds(s_6632_jpg, feature).
holds(s_6632_jpg, suburban).
holds(s_6632_jpg, door).
holds(s_6632_jpg, awning).
holds(s_6632_jpg, porch).
holds(s_6632_jpg, table).
holds(s_6632_jpg, tiledrooftop).
holds(s_6632_jpg, vendingmachine).
holds(s_6632_jpg, wallsign).
holds(s_6632_jpg, statue).
holds(s_6632_jpg, chimney).
holds(s_6632_jpg, pipe).
holds(s_6632_jpg, truck).
holds(s_6632_jpg, car).
holds(s_6632_jpg, residential).

sample(s_11984_jpg).
holds(s_11984_jpg, building).
holds(s_11984_jpg, feature).
holds(s_11984_jpg, suburban).
holds(s_11984_jpg, door).
holds(s_11984_jpg, window).
holds(s_11984_jpg, awning).
holds(s_11984_jpg, porch).
holds(s_11984_jpg, table).
holds(s_11984_jpg, tiledrooftop).
holds(s_11984_jpg, vendingmachine).
holds(s_11984_jpg, wallsign).
holds(s_11984_jpg, statue).
holds(s_11984_jpg, pipe).
holds(s_11984_jpg, car).
holds(s_11984_jpg, residential).

sample(s_15608_jpg).
holds(s_15608_jpg, building).
holds(s_15608_jpg, feature).
holds(s_15608_jpg, suburban).
holds(s_15608_jpg, door).
holds(s_15608_jpg, window).
holds(s_15608_jpg, awning).
holds(s_15608_jpg, porch).
holds(s_15608_jpg, tiledrooftop).
holds(s_15608_jpg, vendingmachine).
holds(s_15608_jpg, statue).
holds(s_15608_jpg, residential).

sample(s_7422_jpg).
holds(s_7422_jpg, building).
holds(s_7422_jpg, feature).
holds(s_7422_jpg, constructionsite).
holds(s_7422_jpg, door).
holds(s_7422_jpg, awning).
holds(s_7422_jpg, billboard).
holds(s_7422_jpg, porch).
holds(s_7422_jpg, tiledrooftop).
holds(s_7422_jpg, vendingmachine).
holds(s_7422_jpg, wallsign).
holds(s_7422_jpg, statue).
holds(s_7422_jpg, chimney).
holds(s_7422_jpg, pipe).
holds(s_7422_jpg, machine).
holds(s_7422_jpg, industrial).

sample(s_6671_jpg).
holds(s_6671_jpg, building).
holds(s_6671_jpg, feature).
holds(s_6671_jpg, suburban).
holds(s_6671_jpg, door).
holds(s_6671_jpg, window).
holds(s_6671_jpg, awning).
holds(s_6671_jpg, porch).
holds(s_6671_jpg, tiledrooftop).
holds(s_6671_jpg, vendingmachine).
holds(s_6671_jpg, wallsign).
holds(s_6671_jpg, statue).
holds(s_6671_jpg, residential).

sample(s_7335_jpg).
holds(s_7335_jpg, building).
holds(s_7335_jpg, feature).
holds(s_7335_jpg, hotel).
holds(s_7335_jpg, door).
holds(s_7335_jpg, awning).
holds(s_7335_jpg, porch).
holds(s_7335_jpg, tiledrooftop).
holds(s_7335_jpg, statue).
holds(s_7335_jpg, chimney).
holds(s_7335_jpg, pipe).
holds(s_7335_jpg, machine).
holds(s_7335_jpg, commercial).

sample(s_4380_jpg).
holds(s_4380_jpg, building).
holds(s_4380_jpg, feature).
holds(s_4380_jpg, hotel).
holds(s_4380_jpg, door).
holds(s_4380_jpg, awning).
holds(s_4380_jpg, billboard).
holds(s_4380_jpg, porch).
holds(s_4380_jpg, sign).
holds(s_4380_jpg, tiledrooftop).
holds(s_4380_jpg, statue).
holds(s_4380_jpg, chimney).
holds(s_4380_jpg, machine).
holds(s_4380_jpg, commercial).

sample(s_10731_jpg).
holds(s_10731_jpg, building).
holds(s_10731_jpg, feature).
holds(s_10731_jpg, hotel).
holds(s_10731_jpg, door).
holds(s_10731_jpg, awning).
holds(s_10731_jpg, billboard).
holds(s_10731_jpg, porch).
holds(s_10731_jpg, sign).
holds(s_10731_jpg, tiledrooftop).
holds(s_10731_jpg, chimney).
holds(s_10731_jpg, pipe).
holds(s_10731_jpg, machine).
holds(s_10731_jpg, truck).
holds(s_10731_jpg, commercial).

sample(s_75_jpg).
holds(s_75_jpg, building).
holds(s_75_jpg, feature).
holds(s_75_jpg, hotel).
holds(s_75_jpg, door).
holds(s_75_jpg, awning).
holds(s_75_jpg, porch).
holds(s_75_jpg, sign).
holds(s_75_jpg, tiledrooftop).
holds(s_75_jpg, pipe).
holds(s_75_jpg, machine).
holds(s_75_jpg, commercial).

sample(s_15944_jpg).
holds(s_15944_jpg, building).
holds(s_15944_jpg, feature).
holds(s_15944_jpg, suburban).
holds(s_15944_jpg, door).
holds(s_15944_jpg, awning).
holds(s_15944_jpg, table).
holds(s_15944_jpg, vendingmachine).
holds(s_15944_jpg, wallsign).
holds(s_15944_jpg, statue).
holds(s_15944_jpg, chimney).
holds(s_15944_jpg, pipe).
holds(s_15944_jpg, truck).
holds(s_15944_jpg, car).
holds(s_15944_jpg, residential).

sample(s_13624_jpg).
holds(s_13624_jpg, building).
holds(s_13624_jpg, feature).
holds(s_13624_jpg, constructionsite).
holds(s_13624_jpg, door).
holds(s_13624_jpg, awning).
holds(s_13624_jpg, billboard).
holds(s_13624_jpg, porch).
holds(s_13624_jpg, tiledrooftop).
holds(s_13624_jpg, wallsign).
holds(s_13624_jpg, chimney).
holds(s_13624_jpg, pipe).
holds(s_13624_jpg, machine).
holds(s_13624_jpg, industrial).

sample(s_15178_jpg).
holds(s_15178_jpg, building).
holds(s_15178_jpg, feature).
holds(s_15178_jpg, constructionsite).
holds(s_15178_jpg, awning).
holds(s_15178_jpg, billboard).
holds(s_15178_jpg, porch).
holds(s_15178_jpg, tiledrooftop).
holds(s_15178_jpg, wallsign).
holds(s_15178_jpg, chimney).
holds(s_15178_jpg, pipe).
holds(s_15178_jpg, machine).
holds(s_15178_jpg, industrial).

sample(s_4238_jpg).
holds(s_4238_jpg, building).
holds(s_4238_jpg, feature).
holds(s_4238_jpg, suburban).
holds(s_4238_jpg, door).
holds(s_4238_jpg, window).
holds(s_4238_jpg, awning).
holds(s_4238_jpg, porch).
holds(s_4238_jpg, tiledrooftop).
holds(s_4238_jpg, vendingmachine).
holds(s_4238_jpg, statue).
holds(s_4238_jpg, pipe).
holds(s_4238_jpg, residential).

sample(s_717_jpg).
holds(s_717_jpg, building).
holds(s_717_jpg, feature).
holds(s_717_jpg, hotel).
holds(s_717_jpg, door).
holds(s_717_jpg, awning).
holds(s_717_jpg, billboard).
holds(s_717_jpg, porch).
holds(s_717_jpg, sign).
holds(s_717_jpg, tiledrooftop).
holds(s_717_jpg, chimney).
holds(s_717_jpg, pipe).
holds(s_717_jpg, machine).
holds(s_717_jpg, commercial).

sample(s_4611_jpg).
holds(s_4611_jpg, building).
holds(s_4611_jpg, feature).
holds(s_4611_jpg, hotel).
holds(s_4611_jpg, door).
holds(s_4611_jpg, awning).
holds(s_4611_jpg, billboard).
holds(s_4611_jpg, porch).
holds(s_4611_jpg, sign).
holds(s_4611_jpg, tiledrooftop).
holds(s_4611_jpg, pipe).
holds(s_4611_jpg, machine).
holds(s_4611_jpg, commercial).

sample(s_15007_jpg).
holds(s_15007_jpg, building).
holds(s_15007_jpg, feature).
holds(s_15007_jpg, constructionsite).
holds(s_15007_jpg, awning).
holds(s_15007_jpg, billboard).
holds(s_15007_jpg, porch).
holds(s_15007_jpg, tiledrooftop).
holds(s_15007_jpg, wallsign).
holds(s_15007_jpg, statue).
holds(s_15007_jpg, chimney).
holds(s_15007_jpg, pipe).
holds(s_15007_jpg, machine).
holds(s_15007_jpg, industrial).

sample(s_9639_jpg).
holds(s_9639_jpg, building).
holds(s_9639_jpg, feature).
holds(s_9639_jpg, hotel).
holds(s_9639_jpg, door).
holds(s_9639_jpg, awning).
holds(s_9639_jpg, billboard).
holds(s_9639_jpg, porch).
holds(s_9639_jpg, sign).
holds(s_9639_jpg, tiledrooftop).
holds(s_9639_jpg, statue).
holds(s_9639_jpg, chimney).
holds(s_9639_jpg, pipe).
holds(s_9639_jpg, machine).
holds(s_9639_jpg, commercial).

sample(s_12529_jpg).
holds(s_12529_jpg, building).
holds(s_12529_jpg, feature).
holds(s_12529_jpg, constructionsite).
holds(s_12529_jpg, awning).
holds(s_12529_jpg, billboard).
holds(s_12529_jpg, porch).
holds(s_12529_jpg, tiledrooftop).
holds(s_12529_jpg, wallsign).
holds(s_12529_jpg, chimney).
holds(s_12529_jpg, pipe).
holds(s_12529_jpg, machine).
holds(s_12529_jpg, industrial).

sample(s_13836_jpg).
holds(s_13836_jpg, building).
holds(s_13836_jpg, feature).
holds(s_13836_jpg, hotel).
holds(s_13836_jpg, door).
holds(s_13836_jpg, awning).
holds(s_13836_jpg, billboard).
holds(s_13836_jpg, porch).
holds(s_13836_jpg, tiledrooftop).
holds(s_13836_jpg, statue).
holds(s_13836_jpg, chimney).
holds(s_13836_jpg, machine).
holds(s_13836_jpg, commercial).

sample(s_6535_jpg).
holds(s_6535_jpg, building).
holds(s_6535_jpg, feature).
holds(s_6535_jpg, constructionsite).
holds(s_6535_jpg, awning).
holds(s_6535_jpg, billboard).
holds(s_6535_jpg, porch).
holds(s_6535_jpg, tiledrooftop).
holds(s_6535_jpg, wallsign).
holds(s_6535_jpg, chimney).
holds(s_6535_jpg, pipe).
holds(s_6535_jpg, machine).
holds(s_6535_jpg, industrial).

sample(s_1657_jpg).
holds(s_1657_jpg, building).
holds(s_1657_jpg, feature).
holds(s_1657_jpg, constructionsite).
holds(s_1657_jpg, awning).
holds(s_1657_jpg, billboard).
holds(s_1657_jpg, porch).
holds(s_1657_jpg, tiledrooftop).
holds(s_1657_jpg, vendingmachine).
holds(s_1657_jpg, wallsign).
holds(s_1657_jpg, chimney).
holds(s_1657_jpg, pipe).
holds(s_1657_jpg, machine).
holds(s_1657_jpg, industrial).

sample(s_6984_jpg).
holds(s_6984_jpg, building).
holds(s_6984_jpg, feature).
holds(s_6984_jpg, hotel).
holds(s_6984_jpg, door).
holds(s_6984_jpg, awning).
holds(s_6984_jpg, billboard).
holds(s_6984_jpg, porch).
holds(s_6984_jpg, tiledrooftop).
holds(s_6984_jpg, statue).
holds(s_6984_jpg, chimney).
holds(s_6984_jpg, machine).
holds(s_6984_jpg, commercial).

sample(s_10862_jpg).
holds(s_10862_jpg, building).
holds(s_10862_jpg, feature).
holds(s_10862_jpg, suburban).
holds(s_10862_jpg, door).
holds(s_10862_jpg, window).
holds(s_10862_jpg, awning).
holds(s_10862_jpg, table).
holds(s_10862_jpg, tiledrooftop).
holds(s_10862_jpg, vendingmachine).
holds(s_10862_jpg, wallsign).
holds(s_10862_jpg, statue).
holds(s_10862_jpg, pipe).
holds(s_10862_jpg, residential).

sample(s_10754_jpg).
holds(s_10754_jpg, building).
holds(s_10754_jpg, feature).
holds(s_10754_jpg, suburban).
holds(s_10754_jpg, door).
holds(s_10754_jpg, awning).
holds(s_10754_jpg, table).
holds(s_10754_jpg, tiledrooftop).
holds(s_10754_jpg, vendingmachine).
holds(s_10754_jpg, wallsign).
holds(s_10754_jpg, statue).
holds(s_10754_jpg, chimney).
holds(s_10754_jpg, pipe).
holds(s_10754_jpg, truck).
holds(s_10754_jpg, car).
holds(s_10754_jpg, residential).

sample(s_11690_jpg).
holds(s_11690_jpg, building).
holds(s_11690_jpg, feature).
holds(s_11690_jpg, suburban).
holds(s_11690_jpg, door).
holds(s_11690_jpg, awning).
holds(s_11690_jpg, billboard).
holds(s_11690_jpg, table).
holds(s_11690_jpg, vendingmachine).
holds(s_11690_jpg, wallsign).
holds(s_11690_jpg, statue).
holds(s_11690_jpg, chimney).
holds(s_11690_jpg, pipe).
holds(s_11690_jpg, truck).
holds(s_11690_jpg, car).
holds(s_11690_jpg, residential).

sample(s_4641_jpg).
holds(s_4641_jpg, building).
holds(s_4641_jpg, feature).
holds(s_4641_jpg, hotel).
holds(s_4641_jpg, door).
holds(s_4641_jpg, awning).
holds(s_4641_jpg, billboard).
holds(s_4641_jpg, porch).
holds(s_4641_jpg, tiledrooftop).
holds(s_4641_jpg, statue).
holds(s_4641_jpg, chimney).
holds(s_4641_jpg, machine).
holds(s_4641_jpg, commercial).

sample(s_10904_jpg).
holds(s_10904_jpg, building).
holds(s_10904_jpg, feature).
holds(s_10904_jpg, suburban).
holds(s_10904_jpg, door).
holds(s_10904_jpg, window).
holds(s_10904_jpg, awning).
holds(s_10904_jpg, porch).
holds(s_10904_jpg, tiledrooftop).
holds(s_10904_jpg, vendingmachine).
holds(s_10904_jpg, statue).
holds(s_10904_jpg, residential).

sample(s_5523_jpg).
holds(s_5523_jpg, building).
holds(s_5523_jpg, feature).
holds(s_5523_jpg, hotel).
holds(s_5523_jpg, door).
holds(s_5523_jpg, awning).
holds(s_5523_jpg, billboard).
holds(s_5523_jpg, porch).
holds(s_5523_jpg, sign).
holds(s_5523_jpg, tiledrooftop).
holds(s_5523_jpg, chimney).
holds(s_5523_jpg, pipe).
holds(s_5523_jpg, machine).
holds(s_5523_jpg, commercial).

sample(s_14933_jpg).
holds(s_14933_jpg, building).
holds(s_14933_jpg, feature).
holds(s_14933_jpg, suburban).
holds(s_14933_jpg, door).
holds(s_14933_jpg, window).
holds(s_14933_jpg, awning).
holds(s_14933_jpg, porch).
holds(s_14933_jpg, tiledrooftop).
holds(s_14933_jpg, vendingmachine).
holds(s_14933_jpg, statue).
holds(s_14933_jpg, residential).

sample(s_2882_jpg).
holds(s_2882_jpg, building).
holds(s_2882_jpg, feature).
holds(s_2882_jpg, suburban).
holds(s_2882_jpg, door).
holds(s_2882_jpg, window).
holds(s_2882_jpg, awning).
holds(s_2882_jpg, porch).
holds(s_2882_jpg, tiledrooftop).
holds(s_2882_jpg, vendingmachine).
holds(s_2882_jpg, wallsign).
holds(s_2882_jpg, statue).
holds(s_2882_jpg, residential).

sample(s_1934_jpg).
holds(s_1934_jpg, building).
holds(s_1934_jpg, feature).
holds(s_1934_jpg, suburban).
holds(s_1934_jpg, door).
holds(s_1934_jpg, window).
holds(s_1934_jpg, awning).
holds(s_1934_jpg, porch).
holds(s_1934_jpg, table).
holds(s_1934_jpg, tiledrooftop).
holds(s_1934_jpg, vendingmachine).
holds(s_1934_jpg, wallsign).
holds(s_1934_jpg, statue).
holds(s_1934_jpg, pipe).
holds(s_1934_jpg, residential).

sample(s_12495_jpg).
holds(s_12495_jpg, building).
holds(s_12495_jpg, feature).
holds(s_12495_jpg, hotel).
holds(s_12495_jpg, door).
holds(s_12495_jpg, awning).
holds(s_12495_jpg, billboard).
holds(s_12495_jpg, porch).
holds(s_12495_jpg, sign).
holds(s_12495_jpg, tiledrooftop).
holds(s_12495_jpg, statue).
holds(s_12495_jpg, chimney).
holds(s_12495_jpg, pipe).
holds(s_12495_jpg, machine).
holds(s_12495_jpg, truck).
holds(s_12495_jpg, commercial).

sample(s_13244_jpg).
holds(s_13244_jpg, building).
holds(s_13244_jpg, feature).
holds(s_13244_jpg, suburban).
holds(s_13244_jpg, door).
holds(s_13244_jpg, window).
holds(s_13244_jpg, awning).
holds(s_13244_jpg, porch).
holds(s_13244_jpg, tiledrooftop).
holds(s_13244_jpg, vendingmachine).
holds(s_13244_jpg, statue).
holds(s_13244_jpg, pipe).
holds(s_13244_jpg, machine).
holds(s_13244_jpg, residential).

sample(s_11891_jpg).
holds(s_11891_jpg, building).
holds(s_11891_jpg, feature).
holds(s_11891_jpg, suburban).
holds(s_11891_jpg, door).
holds(s_11891_jpg, window).
holds(s_11891_jpg, awning).
holds(s_11891_jpg, porch).
holds(s_11891_jpg, table).
holds(s_11891_jpg, tiledrooftop).
holds(s_11891_jpg, vendingmachine).
holds(s_11891_jpg, wallsign).
holds(s_11891_jpg, statue).
holds(s_11891_jpg, pipe).
holds(s_11891_jpg, car).
holds(s_11891_jpg, residential).

sample(s_12925_jpg).
holds(s_12925_jpg, building).
holds(s_12925_jpg, feature).
holds(s_12925_jpg, constructionsite).
holds(s_12925_jpg, awning).
holds(s_12925_jpg, billboard).
holds(s_12925_jpg, porch).
holds(s_12925_jpg, tiledrooftop).
holds(s_12925_jpg, chimney).
holds(s_12925_jpg, machine).
holds(s_12925_jpg, industrial).

sample(s_11309_jpg).
holds(s_11309_jpg, building).
holds(s_11309_jpg, feature).
holds(s_11309_jpg, suburban).
holds(s_11309_jpg, door).
holds(s_11309_jpg, window).
holds(s_11309_jpg, awning).
holds(s_11309_jpg, porch).
holds(s_11309_jpg, tiledrooftop).
holds(s_11309_jpg, vendingmachine).
holds(s_11309_jpg, statue).
holds(s_11309_jpg, residential).

sample(s_5837_jpg).
holds(s_5837_jpg, building).
holds(s_5837_jpg, feature).
holds(s_5837_jpg, suburban).
holds(s_5837_jpg, door).
holds(s_5837_jpg, window).
holds(s_5837_jpg, awning).
holds(s_5837_jpg, porch).
holds(s_5837_jpg, tiledrooftop).
holds(s_5837_jpg, vendingmachine).
holds(s_5837_jpg, statue).
holds(s_5837_jpg, residential).

sample(s_5780_jpg).
holds(s_5780_jpg, building).
holds(s_5780_jpg, feature).
holds(s_5780_jpg, suburban).
holds(s_5780_jpg, door).
holds(s_5780_jpg, window).
holds(s_5780_jpg, awning).
holds(s_5780_jpg, porch).
holds(s_5780_jpg, table).
holds(s_5780_jpg, tiledrooftop).
holds(s_5780_jpg, vendingmachine).
holds(s_5780_jpg, wallsign).
holds(s_5780_jpg, statue).
holds(s_5780_jpg, pipe).
holds(s_5780_jpg, car).
holds(s_5780_jpg, residential).

sample(s_1100_jpg).
holds(s_1100_jpg, building).
holds(s_1100_jpg, feature).
holds(s_1100_jpg, suburban).
holds(s_1100_jpg, door).
holds(s_1100_jpg, awning).
holds(s_1100_jpg, billboard).
holds(s_1100_jpg, porch).
holds(s_1100_jpg, tiledrooftop).
holds(s_1100_jpg, vendingmachine).
holds(s_1100_jpg, wallsign).
holds(s_1100_jpg, statue).
holds(s_1100_jpg, chimney).
holds(s_1100_jpg, pipe).
holds(s_1100_jpg, machine).
holds(s_1100_jpg, truck).
holds(s_1100_jpg, car).
holds(s_1100_jpg, residential).

sample(s_414_jpg).
holds(s_414_jpg, building).
holds(s_414_jpg, feature).
holds(s_414_jpg, hotel).
holds(s_414_jpg, door).
holds(s_414_jpg, awning).
holds(s_414_jpg, porch).
holds(s_414_jpg, sign).
holds(s_414_jpg, tiledrooftop).
holds(s_414_jpg, statue).
holds(s_414_jpg, chimney).
holds(s_414_jpg, machine).
holds(s_414_jpg, commercial).

sample(s_6316_jpg).
holds(s_6316_jpg, building).
holds(s_6316_jpg, feature).
holds(s_6316_jpg, constructionsite).
holds(s_6316_jpg, awning).
holds(s_6316_jpg, billboard).
holds(s_6316_jpg, porch).
holds(s_6316_jpg, tiledrooftop).
holds(s_6316_jpg, wallsign).
holds(s_6316_jpg, chimney).
holds(s_6316_jpg, pipe).
holds(s_6316_jpg, machine).
holds(s_6316_jpg, industrial).

sample(s_5770_jpg).
holds(s_5770_jpg, building).
holds(s_5770_jpg, feature).
holds(s_5770_jpg, constructionsite).
holds(s_5770_jpg, awning).
holds(s_5770_jpg, billboard).
holds(s_5770_jpg, porch).
holds(s_5770_jpg, vendingmachine).
holds(s_5770_jpg, wallsign).
holds(s_5770_jpg, chimney).
holds(s_5770_jpg, pipe).
holds(s_5770_jpg, machine).
holds(s_5770_jpg, industrial).

sample(s_7818_jpg).
holds(s_7818_jpg, building).
holds(s_7818_jpg, feature).
holds(s_7818_jpg, hotel).
holds(s_7818_jpg, door).
holds(s_7818_jpg, awning).
holds(s_7818_jpg, billboard).
holds(s_7818_jpg, porch).
holds(s_7818_jpg, tiledrooftop).
holds(s_7818_jpg, statue).
holds(s_7818_jpg, chimney).
holds(s_7818_jpg, machine).
holds(s_7818_jpg, commercial).

sample(s_5673_jpg).
holds(s_5673_jpg, building).
holds(s_5673_jpg, feature).
holds(s_5673_jpg, hotel).
holds(s_5673_jpg, door).
holds(s_5673_jpg, awning).
holds(s_5673_jpg, billboard).
holds(s_5673_jpg, porch).
holds(s_5673_jpg, sign).
holds(s_5673_jpg, tiledrooftop).
holds(s_5673_jpg, chimney).
holds(s_5673_jpg, pipe).
holds(s_5673_jpg, machine).
holds(s_5673_jpg, commercial).

sample(s_2283_jpg).
holds(s_2283_jpg, building).
holds(s_2283_jpg, feature).
holds(s_2283_jpg, hotel).
holds(s_2283_jpg, door).
holds(s_2283_jpg, awning).
holds(s_2283_jpg, porch).
holds(s_2283_jpg, sign).
holds(s_2283_jpg, tiledrooftop).
holds(s_2283_jpg, pipe).
holds(s_2283_jpg, machine).
holds(s_2283_jpg, commercial).

sample(s_2242_jpg).
holds(s_2242_jpg, building).
holds(s_2242_jpg, feature).
holds(s_2242_jpg, constructionsite).
holds(s_2242_jpg, door).
holds(s_2242_jpg, awning).
holds(s_2242_jpg, billboard).
holds(s_2242_jpg, porch).
holds(s_2242_jpg, tiledrooftop).
holds(s_2242_jpg, vendingmachine).
holds(s_2242_jpg, wallsign).
holds(s_2242_jpg, statue).
holds(s_2242_jpg, chimney).
holds(s_2242_jpg, pipe).
holds(s_2242_jpg, machine).
holds(s_2242_jpg, truck).
holds(s_2242_jpg, industrial).

sample(s_11648_jpg).
holds(s_11648_jpg, building).
holds(s_11648_jpg, feature).
holds(s_11648_jpg, suburban).
holds(s_11648_jpg, door).
holds(s_11648_jpg, window).
holds(s_11648_jpg, awning).
holds(s_11648_jpg, porch).
holds(s_11648_jpg, tiledrooftop).
holds(s_11648_jpg, vendingmachine).
holds(s_11648_jpg, statue).
holds(s_11648_jpg, residential).

sample(s_7940_jpg).
holds(s_7940_jpg, building).
holds(s_7940_jpg, feature).
holds(s_7940_jpg, suburban).
holds(s_7940_jpg, door).
holds(s_7940_jpg, window).
holds(s_7940_jpg, awning).
holds(s_7940_jpg, porch).
holds(s_7940_jpg, tiledrooftop).
holds(s_7940_jpg, vendingmachine).
holds(s_7940_jpg, statue).
holds(s_7940_jpg, residential).

sample(s_8441_jpg).
holds(s_8441_jpg, building).
holds(s_8441_jpg, feature).
holds(s_8441_jpg, suburban).
holds(s_8441_jpg, door).
holds(s_8441_jpg, window).
holds(s_8441_jpg, awning).
holds(s_8441_jpg, porch).
holds(s_8441_jpg, table).
holds(s_8441_jpg, tiledrooftop).
holds(s_8441_jpg, vendingmachine).
holds(s_8441_jpg, wallsign).
holds(s_8441_jpg, statue).
holds(s_8441_jpg, pipe).
holds(s_8441_jpg, truck).
holds(s_8441_jpg, car).
holds(s_8441_jpg, residential).

sample(s_6694_jpg).
holds(s_6694_jpg, building).
holds(s_6694_jpg, feature).
holds(s_6694_jpg, constructionsite).
holds(s_6694_jpg, door).
holds(s_6694_jpg, awning).
holds(s_6694_jpg, billboard).
holds(s_6694_jpg, porch).
holds(s_6694_jpg, tiledrooftop).
holds(s_6694_jpg, vendingmachine).
holds(s_6694_jpg, wallsign).
holds(s_6694_jpg, chimney).
holds(s_6694_jpg, pipe).
holds(s_6694_jpg, machine).
holds(s_6694_jpg, industrial).

sample(s_9420_jpg).
holds(s_9420_jpg, building).
holds(s_9420_jpg, feature).
holds(s_9420_jpg, hotel).
holds(s_9420_jpg, door).
holds(s_9420_jpg, awning).
holds(s_9420_jpg, billboard).
holds(s_9420_jpg, porch).
holds(s_9420_jpg, sign).
holds(s_9420_jpg, tiledrooftop).
holds(s_9420_jpg, pipe).
holds(s_9420_jpg, machine).
holds(s_9420_jpg, commercial).

sample(s_10646_jpg).
holds(s_10646_jpg, building).
holds(s_10646_jpg, feature).
holds(s_10646_jpg, suburban).
holds(s_10646_jpg, door).
holds(s_10646_jpg, window).
holds(s_10646_jpg, awning).
holds(s_10646_jpg, porch).
holds(s_10646_jpg, table).
holds(s_10646_jpg, tiledrooftop).
holds(s_10646_jpg, vendingmachine).
holds(s_10646_jpg, wallsign).
holds(s_10646_jpg, statue).
holds(s_10646_jpg, residential).

sample(s_5162_jpg).
holds(s_5162_jpg, building).
holds(s_5162_jpg, feature).
holds(s_5162_jpg, suburban).
holds(s_5162_jpg, door).
holds(s_5162_jpg, window).
holds(s_5162_jpg, awning).
holds(s_5162_jpg, porch).
holds(s_5162_jpg, table).
holds(s_5162_jpg, tiledrooftop).
holds(s_5162_jpg, vendingmachine).
holds(s_5162_jpg, wallsign).
holds(s_5162_jpg, statue).
holds(s_5162_jpg, pipe).
holds(s_5162_jpg, car).
holds(s_5162_jpg, residential).

sample(s_10137_jpg).
holds(s_10137_jpg, building).
holds(s_10137_jpg, feature).
holds(s_10137_jpg, hotel).
holds(s_10137_jpg, door).
holds(s_10137_jpg, awning).
holds(s_10137_jpg, billboard).
holds(s_10137_jpg, porch).
holds(s_10137_jpg, tiledrooftop).
holds(s_10137_jpg, statue).
holds(s_10137_jpg, chimney).
holds(s_10137_jpg, machine).
holds(s_10137_jpg, commercial).

sample(s_10274_jpg).
holds(s_10274_jpg, building).
holds(s_10274_jpg, feature).
holds(s_10274_jpg, suburban).
holds(s_10274_jpg, door).
holds(s_10274_jpg, awning).
holds(s_10274_jpg, porch).
holds(s_10274_jpg, tiledrooftop).
holds(s_10274_jpg, vendingmachine).
holds(s_10274_jpg, wallsign).
holds(s_10274_jpg, statue).
holds(s_10274_jpg, chimney).
holds(s_10274_jpg, pipe).
holds(s_10274_jpg, machine).
holds(s_10274_jpg, truck).
holds(s_10274_jpg, car).
holds(s_10274_jpg, residential).

sample(s_8775_jpg).
holds(s_8775_jpg, building).
holds(s_8775_jpg, feature).
holds(s_8775_jpg, hotel).
holds(s_8775_jpg, door).
holds(s_8775_jpg, awning).
holds(s_8775_jpg, billboard).
holds(s_8775_jpg, porch).
holds(s_8775_jpg, tiledrooftop).
holds(s_8775_jpg, statue).
holds(s_8775_jpg, chimney).
holds(s_8775_jpg, machine).
holds(s_8775_jpg, commercial).

sample(s_13647_jpg).
holds(s_13647_jpg, building).
holds(s_13647_jpg, feature).
holds(s_13647_jpg, hotel).
holds(s_13647_jpg, door).
holds(s_13647_jpg, awning).
holds(s_13647_jpg, billboard).
holds(s_13647_jpg, porch).
holds(s_13647_jpg, tiledrooftop).
holds(s_13647_jpg, statue).
holds(s_13647_jpg, chimney).
holds(s_13647_jpg, pipe).
holds(s_13647_jpg, machine).
holds(s_13647_jpg, commercial).

sample(s_11530_jpg).
holds(s_11530_jpg, building).
holds(s_11530_jpg, feature).
holds(s_11530_jpg, constructionsite).
holds(s_11530_jpg, awning).
holds(s_11530_jpg, billboard).
holds(s_11530_jpg, porch).
holds(s_11530_jpg, tiledrooftop).
holds(s_11530_jpg, chimney).
holds(s_11530_jpg, machine).
holds(s_11530_jpg, industrial).

sample(s_11255_jpg).
holds(s_11255_jpg, building).
holds(s_11255_jpg, feature).
holds(s_11255_jpg, suburban).
holds(s_11255_jpg, door).
holds(s_11255_jpg, awning).
holds(s_11255_jpg, porch).
holds(s_11255_jpg, tiledrooftop).
holds(s_11255_jpg, vendingmachine).
holds(s_11255_jpg, wallsign).
holds(s_11255_jpg, statue).
holds(s_11255_jpg, chimney).
holds(s_11255_jpg, pipe).
holds(s_11255_jpg, machine).
holds(s_11255_jpg, truck).
holds(s_11255_jpg, car).
holds(s_11255_jpg, residential).

sample(s_15186_jpg).
holds(s_15186_jpg, building).
holds(s_15186_jpg, feature).
holds(s_15186_jpg, hotel).
holds(s_15186_jpg, door).
holds(s_15186_jpg, awning).
holds(s_15186_jpg, billboard).
holds(s_15186_jpg, porch).
holds(s_15186_jpg, tiledrooftop).
holds(s_15186_jpg, statue).
holds(s_15186_jpg, chimney).
holds(s_15186_jpg, pipe).
holds(s_15186_jpg, machine).
holds(s_15186_jpg, truck).
holds(s_15186_jpg, commercial).

sample(s_11930_jpg).
holds(s_11930_jpg, building).
holds(s_11930_jpg, feature).
holds(s_11930_jpg, suburban).
holds(s_11930_jpg, door).
holds(s_11930_jpg, window).
holds(s_11930_jpg, awning).
holds(s_11930_jpg, table).
holds(s_11930_jpg, tiledrooftop).
holds(s_11930_jpg, vendingmachine).
holds(s_11930_jpg, wallsign).
holds(s_11930_jpg, statue).
holds(s_11930_jpg, pipe).
holds(s_11930_jpg, car).
holds(s_11930_jpg, residential).

sample(s_7561_jpg).
holds(s_7561_jpg, building).
holds(s_7561_jpg, feature).
holds(s_7561_jpg, constructionsite).
holds(s_7561_jpg, door).
holds(s_7561_jpg, awning).
holds(s_7561_jpg, billboard).
holds(s_7561_jpg, porch).
holds(s_7561_jpg, tiledrooftop).
holds(s_7561_jpg, vendingmachine).
holds(s_7561_jpg, wallsign).
holds(s_7561_jpg, chimney).
holds(s_7561_jpg, pipe).
holds(s_7561_jpg, machine).
holds(s_7561_jpg, industrial).

sample(s_12455_jpg).
holds(s_12455_jpg, building).
holds(s_12455_jpg, feature).
holds(s_12455_jpg, suburban).
holds(s_12455_jpg, door).
holds(s_12455_jpg, window).
holds(s_12455_jpg, awning).
holds(s_12455_jpg, porch).
holds(s_12455_jpg, tiledrooftop).
holds(s_12455_jpg, vendingmachine).
holds(s_12455_jpg, statue).
holds(s_12455_jpg, residential).

sample(s_7540_jpg).
holds(s_7540_jpg, building).
holds(s_7540_jpg, feature).
holds(s_7540_jpg, constructionsite).
holds(s_7540_jpg, awning).
holds(s_7540_jpg, billboard).
holds(s_7540_jpg, porch).
holds(s_7540_jpg, tiledrooftop).
holds(s_7540_jpg, wallsign).
holds(s_7540_jpg, chimney).
holds(s_7540_jpg, machine).
holds(s_7540_jpg, industrial).

sample(s_15288_jpg).
holds(s_15288_jpg, building).
holds(s_15288_jpg, feature).
holds(s_15288_jpg, hotel).
holds(s_15288_jpg, door).
holds(s_15288_jpg, awning).
holds(s_15288_jpg, billboard).
holds(s_15288_jpg, porch).
holds(s_15288_jpg, sign).
holds(s_15288_jpg, tiledrooftop).
holds(s_15288_jpg, pipe).
holds(s_15288_jpg, machine).
holds(s_15288_jpg, commercial).

sample(s_13315_jpg).
holds(s_13315_jpg, building).
holds(s_13315_jpg, feature).
holds(s_13315_jpg, constructionsite).
holds(s_13315_jpg, awning).
holds(s_13315_jpg, billboard).
holds(s_13315_jpg, porch).
holds(s_13315_jpg, tiledrooftop).
holds(s_13315_jpg, vendingmachine).
holds(s_13315_jpg, wallsign).
holds(s_13315_jpg, chimney).
holds(s_13315_jpg, pipe).
holds(s_13315_jpg, machine).
holds(s_13315_jpg, industrial).

sample(s_1489_jpg).
holds(s_1489_jpg, building).
holds(s_1489_jpg, feature).
holds(s_1489_jpg, constructionsite).
holds(s_1489_jpg, awning).
holds(s_1489_jpg, billboard).
holds(s_1489_jpg, porch).
holds(s_1489_jpg, tiledrooftop).
holds(s_1489_jpg, wallsign).
holds(s_1489_jpg, chimney).
holds(s_1489_jpg, pipe).
holds(s_1489_jpg, machine).
holds(s_1489_jpg, industrial).

sample(s_7111_jpg).
holds(s_7111_jpg, building).
holds(s_7111_jpg, feature).
holds(s_7111_jpg, constructionsite).
holds(s_7111_jpg, door).
holds(s_7111_jpg, awning).
holds(s_7111_jpg, billboard).
holds(s_7111_jpg, porch).
holds(s_7111_jpg, tiledrooftop).
holds(s_7111_jpg, vendingmachine).
holds(s_7111_jpg, wallsign).
holds(s_7111_jpg, chimney).
holds(s_7111_jpg, pipe).
holds(s_7111_jpg, machine).
holds(s_7111_jpg, industrial).

sample(s_8822_jpg).
holds(s_8822_jpg, building).
holds(s_8822_jpg, feature).
holds(s_8822_jpg, suburban).
holds(s_8822_jpg, door).
holds(s_8822_jpg, window).
holds(s_8822_jpg, awning).
holds(s_8822_jpg, porch).
holds(s_8822_jpg, tiledrooftop).
holds(s_8822_jpg, vendingmachine).
holds(s_8822_jpg, wallsign).
holds(s_8822_jpg, statue).
holds(s_8822_jpg, pipe).
holds(s_8822_jpg, machine).
holds(s_8822_jpg, residential).

sample(s_13888_jpg).
holds(s_13888_jpg, building).
holds(s_13888_jpg, feature).
holds(s_13888_jpg, constructionsite).
holds(s_13888_jpg, awning).
holds(s_13888_jpg, billboard).
holds(s_13888_jpg, porch).
holds(s_13888_jpg, tiledrooftop).
holds(s_13888_jpg, vendingmachine).
holds(s_13888_jpg, wallsign).
holds(s_13888_jpg, statue).
holds(s_13888_jpg, chimney).
holds(s_13888_jpg, pipe).
holds(s_13888_jpg, machine).
holds(s_13888_jpg, industrial).

sample(s_12518_jpg).
holds(s_12518_jpg, building).
holds(s_12518_jpg, feature).
holds(s_12518_jpg, suburban).
holds(s_12518_jpg, door).
holds(s_12518_jpg, window).
holds(s_12518_jpg, awning).
holds(s_12518_jpg, porch).
holds(s_12518_jpg, table).
holds(s_12518_jpg, tiledrooftop).
holds(s_12518_jpg, vendingmachine).
holds(s_12518_jpg, wallsign).
holds(s_12518_jpg, statue).
holds(s_12518_jpg, pipe).
holds(s_12518_jpg, car).
holds(s_12518_jpg, residential).

sample(s_1552_jpg).
holds(s_1552_jpg, building).
holds(s_1552_jpg, feature).
holds(s_1552_jpg, constructionsite).
holds(s_1552_jpg, awning).
holds(s_1552_jpg, billboard).
holds(s_1552_jpg, porch).
holds(s_1552_jpg, tiledrooftop).
holds(s_1552_jpg, wallsign).
holds(s_1552_jpg, chimney).
holds(s_1552_jpg, pipe).
holds(s_1552_jpg, machine).
holds(s_1552_jpg, industrial).

sample(s_13970_jpg).
holds(s_13970_jpg, building).
holds(s_13970_jpg, feature).
holds(s_13970_jpg, suburban).
holds(s_13970_jpg, door).
holds(s_13970_jpg, awning).
holds(s_13970_jpg, billboard).
holds(s_13970_jpg, porch).
holds(s_13970_jpg, tiledrooftop).
holds(s_13970_jpg, wallsign).
holds(s_13970_jpg, statue).
holds(s_13970_jpg, chimney).
holds(s_13970_jpg, pipe).
holds(s_13970_jpg, machine).
holds(s_13970_jpg, truck).
holds(s_13970_jpg, car).
holds(s_13970_jpg, residential).

sample(s_7963_jpg).
holds(s_7963_jpg, building).
holds(s_7963_jpg, feature).
holds(s_7963_jpg, constructionsite).
holds(s_7963_jpg, awning).
holds(s_7963_jpg, billboard).
holds(s_7963_jpg, porch).
holds(s_7963_jpg, tiledrooftop).
holds(s_7963_jpg, wallsign).
holds(s_7963_jpg, chimney).
holds(s_7963_jpg, pipe).
holds(s_7963_jpg, machine).
holds(s_7963_jpg, industrial).

sample(s_6993_jpg).
holds(s_6993_jpg, building).
holds(s_6993_jpg, feature).
holds(s_6993_jpg, hotel).
holds(s_6993_jpg, door).
holds(s_6993_jpg, awning).
holds(s_6993_jpg, billboard).
holds(s_6993_jpg, porch).
holds(s_6993_jpg, sign).
holds(s_6993_jpg, tiledrooftop).
holds(s_6993_jpg, chimney).
holds(s_6993_jpg, pipe).
holds(s_6993_jpg, machine).
holds(s_6993_jpg, commercial).

sample(s_12513_jpg).
holds(s_12513_jpg, building).
holds(s_12513_jpg, feature).
holds(s_12513_jpg, hotel).
holds(s_12513_jpg, door).
holds(s_12513_jpg, awning).
holds(s_12513_jpg, porch).
holds(s_12513_jpg, sign).
holds(s_12513_jpg, tiledrooftop).
holds(s_12513_jpg, chimney).
holds(s_12513_jpg, pipe).
holds(s_12513_jpg, machine).
holds(s_12513_jpg, commercial).

sample(s_5272_jpg).
holds(s_5272_jpg, building).
holds(s_5272_jpg, feature).
holds(s_5272_jpg, constructionsite).
holds(s_5272_jpg, awning).
holds(s_5272_jpg, billboard).
holds(s_5272_jpg, porch).
holds(s_5272_jpg, tiledrooftop).
holds(s_5272_jpg, wallsign).
holds(s_5272_jpg, chimney).
holds(s_5272_jpg, pipe).
holds(s_5272_jpg, machine).
holds(s_5272_jpg, industrial).

sample(s_8608_jpg).
holds(s_8608_jpg, building).
holds(s_8608_jpg, feature).
holds(s_8608_jpg, constructionsite).
holds(s_8608_jpg, awning).
holds(s_8608_jpg, billboard).
holds(s_8608_jpg, porch).
holds(s_8608_jpg, tiledrooftop).
holds(s_8608_jpg, wallsign).
holds(s_8608_jpg, chimney).
holds(s_8608_jpg, pipe).
holds(s_8608_jpg, machine).
holds(s_8608_jpg, industrial).

sample(s_7572_jpg).
holds(s_7572_jpg, building).
holds(s_7572_jpg, feature).
holds(s_7572_jpg, hotel).
holds(s_7572_jpg, door).
holds(s_7572_jpg, awning).
holds(s_7572_jpg, billboard).
holds(s_7572_jpg, porch).
holds(s_7572_jpg, sign).
holds(s_7572_jpg, tiledrooftop).
holds(s_7572_jpg, statue).
holds(s_7572_jpg, chimney).
holds(s_7572_jpg, pipe).
holds(s_7572_jpg, machine).
holds(s_7572_jpg, commercial).

sample(s_10534_jpg).
holds(s_10534_jpg, building).
holds(s_10534_jpg, feature).
holds(s_10534_jpg, constructionsite).
holds(s_10534_jpg, awning).
holds(s_10534_jpg, billboard).
holds(s_10534_jpg, porch).
holds(s_10534_jpg, tiledrooftop).
holds(s_10534_jpg, chimney).
holds(s_10534_jpg, machine).
holds(s_10534_jpg, industrial).

sample(s_14515_jpg).
holds(s_14515_jpg, building).
holds(s_14515_jpg, feature).
holds(s_14515_jpg, constructionsite).
holds(s_14515_jpg, awning).
holds(s_14515_jpg, billboard).
holds(s_14515_jpg, porch).
holds(s_14515_jpg, tiledrooftop).
holds(s_14515_jpg, chimney).
holds(s_14515_jpg, machine).
holds(s_14515_jpg, industrial).

sample(s_4164_jpg).
holds(s_4164_jpg, building).
holds(s_4164_jpg, feature).
holds(s_4164_jpg, hotel).
holds(s_4164_jpg, door).
holds(s_4164_jpg, awning).
holds(s_4164_jpg, billboard).
holds(s_4164_jpg, porch).
holds(s_4164_jpg, tiledrooftop).
holds(s_4164_jpg, statue).
holds(s_4164_jpg, chimney).
holds(s_4164_jpg, machine).
holds(s_4164_jpg, commercial).

sample(s_3205_jpg).
holds(s_3205_jpg, building).
holds(s_3205_jpg, feature).
holds(s_3205_jpg, constructionsite).
holds(s_3205_jpg, awning).
holds(s_3205_jpg, billboard).
holds(s_3205_jpg, porch).
holds(s_3205_jpg, tiledrooftop).
holds(s_3205_jpg, wallsign).
holds(s_3205_jpg, chimney).
holds(s_3205_jpg, machine).
holds(s_3205_jpg, industrial).

sample(s_11735_jpg).
holds(s_11735_jpg, building).
holds(s_11735_jpg, feature).
holds(s_11735_jpg, suburban).
holds(s_11735_jpg, door).
holds(s_11735_jpg, window).
holds(s_11735_jpg, awning).
holds(s_11735_jpg, porch).
holds(s_11735_jpg, table).
holds(s_11735_jpg, tiledrooftop).
holds(s_11735_jpg, vendingmachine).
holds(s_11735_jpg, wallsign).
holds(s_11735_jpg, statue).
holds(s_11735_jpg, pipe).
holds(s_11735_jpg, residential).

sample(s_1826_jpg).
holds(s_1826_jpg, building).
holds(s_1826_jpg, feature).
holds(s_1826_jpg, suburban).
holds(s_1826_jpg, door).
holds(s_1826_jpg, window).
holds(s_1826_jpg, awning).
holds(s_1826_jpg, porch).
holds(s_1826_jpg, table).
holds(s_1826_jpg, tiledrooftop).
holds(s_1826_jpg, vendingmachine).
holds(s_1826_jpg, wallsign).
holds(s_1826_jpg, statue).
holds(s_1826_jpg, pipe).
holds(s_1826_jpg, car).
holds(s_1826_jpg, residential).

sample(s_7224_jpg).
holds(s_7224_jpg, building).
holds(s_7224_jpg, feature).
holds(s_7224_jpg, hotel).
holds(s_7224_jpg, door).
holds(s_7224_jpg, awning).
holds(s_7224_jpg, billboard).
holds(s_7224_jpg, porch).
holds(s_7224_jpg, sign).
holds(s_7224_jpg, tiledrooftop).
holds(s_7224_jpg, pipe).
holds(s_7224_jpg, machine).
holds(s_7224_jpg, commercial).

sample(s_11711_jpg).
holds(s_11711_jpg, building).
holds(s_11711_jpg, feature).
holds(s_11711_jpg, suburban).
holds(s_11711_jpg, door).
holds(s_11711_jpg, window).
holds(s_11711_jpg, awning).
holds(s_11711_jpg, porch).
holds(s_11711_jpg, tiledrooftop).
holds(s_11711_jpg, vendingmachine).
holds(s_11711_jpg, statue).
holds(s_11711_jpg, residential).

sample(s_3812_jpg).
holds(s_3812_jpg, building).
holds(s_3812_jpg, feature).
holds(s_3812_jpg, suburban).
holds(s_3812_jpg, door).
holds(s_3812_jpg, window).
holds(s_3812_jpg, awning).
holds(s_3812_jpg, table).
holds(s_3812_jpg, tiledrooftop).
holds(s_3812_jpg, vendingmachine).
holds(s_3812_jpg, wallsign).
holds(s_3812_jpg, statue).
holds(s_3812_jpg, pipe).
holds(s_3812_jpg, residential).

sample(s_12357_jpg).
holds(s_12357_jpg, building).
holds(s_12357_jpg, feature).
holds(s_12357_jpg, hotel).
holds(s_12357_jpg, door).
holds(s_12357_jpg, awning).
holds(s_12357_jpg, billboard).
holds(s_12357_jpg, porch).
holds(s_12357_jpg, sign).
holds(s_12357_jpg, tiledrooftop).
holds(s_12357_jpg, statue).
holds(s_12357_jpg, chimney).
holds(s_12357_jpg, pipe).
holds(s_12357_jpg, machine).
holds(s_12357_jpg, truck).
holds(s_12357_jpg, commercial).

sample(s_8846_jpg).
holds(s_8846_jpg, building).
holds(s_8846_jpg, feature).
holds(s_8846_jpg, suburban).
holds(s_8846_jpg, door).
holds(s_8846_jpg, window).
holds(s_8846_jpg, awning).
holds(s_8846_jpg, porch).
holds(s_8846_jpg, tiledrooftop).
holds(s_8846_jpg, vendingmachine).
holds(s_8846_jpg, statue).
holds(s_8846_jpg, residential).

sample(s_3011_jpg).
holds(s_3011_jpg, building).
holds(s_3011_jpg, feature).
holds(s_3011_jpg, suburban).
holds(s_3011_jpg, door).
holds(s_3011_jpg, awning).
holds(s_3011_jpg, table).
holds(s_3011_jpg, vendingmachine).
holds(s_3011_jpg, wallsign).
holds(s_3011_jpg, statue).
holds(s_3011_jpg, chimney).
holds(s_3011_jpg, pipe).
holds(s_3011_jpg, truck).
holds(s_3011_jpg, car).
holds(s_3011_jpg, residential).

sample(s_9536_jpg).
holds(s_9536_jpg, building).
holds(s_9536_jpg, feature).
holds(s_9536_jpg, suburban).
holds(s_9536_jpg, door).
holds(s_9536_jpg, window).
holds(s_9536_jpg, awning).
holds(s_9536_jpg, porch).
holds(s_9536_jpg, tiledrooftop).
holds(s_9536_jpg, vendingmachine).
holds(s_9536_jpg, statue).
holds(s_9536_jpg, residential).

sample(s_7043_jpg).
holds(s_7043_jpg, building).
holds(s_7043_jpg, feature).
holds(s_7043_jpg, suburban).
holds(s_7043_jpg, door).
holds(s_7043_jpg, awning).
holds(s_7043_jpg, table).
holds(s_7043_jpg, vendingmachine).
holds(s_7043_jpg, wallsign).
holds(s_7043_jpg, statue).
holds(s_7043_jpg, chimney).
holds(s_7043_jpg, pipe).
holds(s_7043_jpg, truck).
holds(s_7043_jpg, car).
holds(s_7043_jpg, residential).

sample(s_7592_jpg).
holds(s_7592_jpg, building).
holds(s_7592_jpg, feature).
holds(s_7592_jpg, suburban).
holds(s_7592_jpg, door).
holds(s_7592_jpg, window).
holds(s_7592_jpg, awning).
holds(s_7592_jpg, porch).
holds(s_7592_jpg, tiledrooftop).
holds(s_7592_jpg, vendingmachine).
holds(s_7592_jpg, statue).
holds(s_7592_jpg, machine).
holds(s_7592_jpg, residential).

sample(s_15497_jpg).
holds(s_15497_jpg, building).
holds(s_15497_jpg, feature).
holds(s_15497_jpg, suburban).
holds(s_15497_jpg, door).
holds(s_15497_jpg, window).
holds(s_15497_jpg, awning).
holds(s_15497_jpg, porch).
holds(s_15497_jpg, table).
holds(s_15497_jpg, tiledrooftop).
holds(s_15497_jpg, vendingmachine).
holds(s_15497_jpg, wallsign).
holds(s_15497_jpg, statue).
holds(s_15497_jpg, pipe).
holds(s_15497_jpg, car).
holds(s_15497_jpg, residential).

sample(s_5691_jpg).
holds(s_5691_jpg, building).
holds(s_5691_jpg, feature).
holds(s_5691_jpg, hotel).
holds(s_5691_jpg, door).
holds(s_5691_jpg, awning).
holds(s_5691_jpg, billboard).
holds(s_5691_jpg, porch).
holds(s_5691_jpg, sign).
holds(s_5691_jpg, tiledrooftop).
holds(s_5691_jpg, chimney).
holds(s_5691_jpg, pipe).
holds(s_5691_jpg, machine).
holds(s_5691_jpg, commercial).

sample(s_9105_jpg).
holds(s_9105_jpg, building).
holds(s_9105_jpg, feature).
holds(s_9105_jpg, hotel).
holds(s_9105_jpg, door).
holds(s_9105_jpg, awning).
holds(s_9105_jpg, billboard).
holds(s_9105_jpg, porch).
holds(s_9105_jpg, sign).
holds(s_9105_jpg, tiledrooftop).
holds(s_9105_jpg, chimney).
holds(s_9105_jpg, pipe).
holds(s_9105_jpg, machine).
holds(s_9105_jpg, commercial).

sample(s_12240_jpg).
holds(s_12240_jpg, building).
holds(s_12240_jpg, feature).
holds(s_12240_jpg, hotel).
holds(s_12240_jpg, door).
holds(s_12240_jpg, awning).
holds(s_12240_jpg, billboard).
holds(s_12240_jpg, porch).
holds(s_12240_jpg, sign).
holds(s_12240_jpg, tiledrooftop).
holds(s_12240_jpg, pipe).
holds(s_12240_jpg, machine).
holds(s_12240_jpg, commercial).

sample(s_12268_jpg).
holds(s_12268_jpg, building).
holds(s_12268_jpg, feature).
holds(s_12268_jpg, constructionsite).
holds(s_12268_jpg, door).
holds(s_12268_jpg, awning).
holds(s_12268_jpg, billboard).
holds(s_12268_jpg, porch).
holds(s_12268_jpg, tiledrooftop).
holds(s_12268_jpg, vendingmachine).
holds(s_12268_jpg, wallsign).
holds(s_12268_jpg, statue).
holds(s_12268_jpg, chimney).
holds(s_12268_jpg, pipe).
holds(s_12268_jpg, machine).
holds(s_12268_jpg, industrial).

sample(s_13779_jpg).
holds(s_13779_jpg, building).
holds(s_13779_jpg, feature).
holds(s_13779_jpg, hotel).
holds(s_13779_jpg, door).
holds(s_13779_jpg, awning).
holds(s_13779_jpg, billboard).
holds(s_13779_jpg, porch).
holds(s_13779_jpg, sign).
holds(s_13779_jpg, tiledrooftop).
holds(s_13779_jpg, statue).
holds(s_13779_jpg, chimney).
holds(s_13779_jpg, machine).
holds(s_13779_jpg, commercial).

sample(s_13522_jpg).
holds(s_13522_jpg, building).
holds(s_13522_jpg, feature).
holds(s_13522_jpg, constructionsite).
holds(s_13522_jpg, awning).
holds(s_13522_jpg, billboard).
holds(s_13522_jpg, porch).
holds(s_13522_jpg, tiledrooftop).
holds(s_13522_jpg, wallsign).
holds(s_13522_jpg, chimney).
holds(s_13522_jpg, pipe).
holds(s_13522_jpg, machine).
holds(s_13522_jpg, industrial).

sample(s_1961_jpg).
holds(s_1961_jpg, building).
holds(s_1961_jpg, feature).
holds(s_1961_jpg, suburban).
holds(s_1961_jpg, door).
holds(s_1961_jpg, window).
holds(s_1961_jpg, awning).
holds(s_1961_jpg, porch).
holds(s_1961_jpg, tiledrooftop).
holds(s_1961_jpg, vendingmachine).
holds(s_1961_jpg, wallsign).
holds(s_1961_jpg, statue).
holds(s_1961_jpg, residential).

sample(s_4762_jpg).
holds(s_4762_jpg, building).
holds(s_4762_jpg, feature).
holds(s_4762_jpg, constructionsite).
holds(s_4762_jpg, awning).
holds(s_4762_jpg, billboard).
holds(s_4762_jpg, porch).
holds(s_4762_jpg, tiledrooftop).
holds(s_4762_jpg, chimney).
holds(s_4762_jpg, pipe).
holds(s_4762_jpg, machine).
holds(s_4762_jpg, industrial).

sample(s_1626_jpg).
holds(s_1626_jpg, building).
holds(s_1626_jpg, feature).
holds(s_1626_jpg, hotel).
holds(s_1626_jpg, door).
holds(s_1626_jpg, awning).
holds(s_1626_jpg, billboard).
holds(s_1626_jpg, porch).
holds(s_1626_jpg, tiledrooftop).
holds(s_1626_jpg, statue).
holds(s_1626_jpg, chimney).
holds(s_1626_jpg, pipe).
holds(s_1626_jpg, machine).
holds(s_1626_jpg, commercial).

sample(s_7844_jpg).
holds(s_7844_jpg, building).
holds(s_7844_jpg, feature).
holds(s_7844_jpg, suburban).
holds(s_7844_jpg, door).
holds(s_7844_jpg, window).
holds(s_7844_jpg, awning).
holds(s_7844_jpg, table).
holds(s_7844_jpg, tiledrooftop).
holds(s_7844_jpg, vendingmachine).
holds(s_7844_jpg, wallsign).
holds(s_7844_jpg, statue).
holds(s_7844_jpg, pipe).
holds(s_7844_jpg, residential).

sample(s_3483_jpg).
holds(s_3483_jpg, building).
holds(s_3483_jpg, feature).
holds(s_3483_jpg, hotel).
holds(s_3483_jpg, door).
holds(s_3483_jpg, awning).
holds(s_3483_jpg, billboard).
holds(s_3483_jpg, porch).
holds(s_3483_jpg, sign).
holds(s_3483_jpg, tiledrooftop).
holds(s_3483_jpg, pipe).
holds(s_3483_jpg, machine).
holds(s_3483_jpg, commercial).

sample(s_6842_jpg).
holds(s_6842_jpg, building).
holds(s_6842_jpg, feature).
holds(s_6842_jpg, suburban).
holds(s_6842_jpg, door).
holds(s_6842_jpg, window).
holds(s_6842_jpg, awning).
holds(s_6842_jpg, table).
holds(s_6842_jpg, tiledrooftop).
holds(s_6842_jpg, vendingmachine).
holds(s_6842_jpg, wallsign).
holds(s_6842_jpg, statue).
holds(s_6842_jpg, pipe).
holds(s_6842_jpg, residential).

sample(s_4082_jpg).
holds(s_4082_jpg, building).
holds(s_4082_jpg, feature).
holds(s_4082_jpg, suburban).
holds(s_4082_jpg, door).
holds(s_4082_jpg, window).
holds(s_4082_jpg, awning).
holds(s_4082_jpg, porch).
holds(s_4082_jpg, tiledrooftop).
holds(s_4082_jpg, vendingmachine).
holds(s_4082_jpg, wallsign).
holds(s_4082_jpg, statue).
holds(s_4082_jpg, pipe).
holds(s_4082_jpg, car).
holds(s_4082_jpg, residential).

sample(s_9398_jpg).
holds(s_9398_jpg, building).
holds(s_9398_jpg, feature).
holds(s_9398_jpg, suburban).
holds(s_9398_jpg, door).
holds(s_9398_jpg, window).
holds(s_9398_jpg, awning).
holds(s_9398_jpg, porch).
holds(s_9398_jpg, tiledrooftop).
holds(s_9398_jpg, vendingmachine).
holds(s_9398_jpg, wallsign).
holds(s_9398_jpg, statue).
holds(s_9398_jpg, residential).

sample(s_7503_jpg).
holds(s_7503_jpg, building).
holds(s_7503_jpg, feature).
holds(s_7503_jpg, hotel).
holds(s_7503_jpg, door).
holds(s_7503_jpg, awning).
holds(s_7503_jpg, billboard).
holds(s_7503_jpg, porch).
holds(s_7503_jpg, sign).
holds(s_7503_jpg, tiledrooftop).
holds(s_7503_jpg, pipe).
holds(s_7503_jpg, machine).
holds(s_7503_jpg, commercial).

sample(s_3656_jpg).
holds(s_3656_jpg, building).
holds(s_3656_jpg, feature).
holds(s_3656_jpg, suburban).
holds(s_3656_jpg, door).
holds(s_3656_jpg, window).
holds(s_3656_jpg, awning).
holds(s_3656_jpg, porch).
holds(s_3656_jpg, table).
holds(s_3656_jpg, tiledrooftop).
holds(s_3656_jpg, vendingmachine).
holds(s_3656_jpg, wallsign).
holds(s_3656_jpg, statue).
holds(s_3656_jpg, pipe).
holds(s_3656_jpg, car).
holds(s_3656_jpg, residential).

sample(s_13364_jpg).
holds(s_13364_jpg, building).
holds(s_13364_jpg, feature).
holds(s_13364_jpg, suburban).
holds(s_13364_jpg, door).
holds(s_13364_jpg, window).
holds(s_13364_jpg, awning).
holds(s_13364_jpg, porch).
holds(s_13364_jpg, tiledrooftop).
holds(s_13364_jpg, vendingmachine).
holds(s_13364_jpg, statue).
holds(s_13364_jpg, residential).

sample(s_13394_jpg).
holds(s_13394_jpg, building).
holds(s_13394_jpg, feature).
holds(s_13394_jpg, suburban).
holds(s_13394_jpg, door).
holds(s_13394_jpg, window).
holds(s_13394_jpg, awning).
holds(s_13394_jpg, porch).
holds(s_13394_jpg, table).
holds(s_13394_jpg, tiledrooftop).
holds(s_13394_jpg, vendingmachine).
holds(s_13394_jpg, wallsign).
holds(s_13394_jpg, statue).
holds(s_13394_jpg, pipe).
holds(s_13394_jpg, truck).
holds(s_13394_jpg, car).
holds(s_13394_jpg, residential).

sample(s_10239_jpg).
holds(s_10239_jpg, building).
holds(s_10239_jpg, feature).
holds(s_10239_jpg, door).
holds(s_10239_jpg, awning).
holds(s_10239_jpg, billboard).
holds(s_10239_jpg, porch).
holds(s_10239_jpg, tiledrooftop).
holds(s_10239_jpg, vendingmachine).
holds(s_10239_jpg, wallsign).
holds(s_10239_jpg, statue).
holds(s_10239_jpg, chimney).
holds(s_10239_jpg, pipe).
holds(s_10239_jpg, machine).
holds(s_10239_jpg, truck).
holds(s_10239_jpg, car).

sample(s_4273_jpg).
holds(s_4273_jpg, building).
holds(s_4273_jpg, feature).
holds(s_4273_jpg, constructionsite).
holds(s_4273_jpg, awning).
holds(s_4273_jpg, billboard).
holds(s_4273_jpg, porch).
holds(s_4273_jpg, tiledrooftop).
holds(s_4273_jpg, statue).
holds(s_4273_jpg, chimney).
holds(s_4273_jpg, machine).
holds(s_4273_jpg, industrial).

sample(s_15859_jpg).
holds(s_15859_jpg, building).
holds(s_15859_jpg, feature).
holds(s_15859_jpg, constructionsite).
holds(s_15859_jpg, awning).
holds(s_15859_jpg, billboard).
holds(s_15859_jpg, porch).
holds(s_15859_jpg, tiledrooftop).
holds(s_15859_jpg, chimney).
holds(s_15859_jpg, machine).
holds(s_15859_jpg, industrial).

sample(s_6598_jpg).
holds(s_6598_jpg, building).
holds(s_6598_jpg, feature).
holds(s_6598_jpg, constructionsite).
holds(s_6598_jpg, awning).
holds(s_6598_jpg, billboard).
holds(s_6598_jpg, porch).
holds(s_6598_jpg, tiledrooftop).
holds(s_6598_jpg, chimney).
holds(s_6598_jpg, machine).
holds(s_6598_jpg, industrial).

sample(s_14089_jpg).
holds(s_14089_jpg, building).
holds(s_14089_jpg, feature).
holds(s_14089_jpg, constructionsite).
holds(s_14089_jpg, awning).
holds(s_14089_jpg, billboard).
holds(s_14089_jpg, porch).
holds(s_14089_jpg, tiledrooftop).
holds(s_14089_jpg, wallsign).
holds(s_14089_jpg, chimney).
holds(s_14089_jpg, pipe).
holds(s_14089_jpg, machine).
holds(s_14089_jpg, industrial).

sample(s_14711_jpg).
holds(s_14711_jpg, building).
holds(s_14711_jpg, feature).
holds(s_14711_jpg, suburban).
holds(s_14711_jpg, door).
holds(s_14711_jpg, awning).
holds(s_14711_jpg, porch).
holds(s_14711_jpg, table).
holds(s_14711_jpg, tiledrooftop).
holds(s_14711_jpg, vendingmachine).
holds(s_14711_jpg, wallsign).
holds(s_14711_jpg, statue).
holds(s_14711_jpg, chimney).
holds(s_14711_jpg, pipe).
holds(s_14711_jpg, machine).
holds(s_14711_jpg, truck).
holds(s_14711_jpg, car).
holds(s_14711_jpg, residential).

sample(s_2649_jpg).
holds(s_2649_jpg, building).
holds(s_2649_jpg, feature).
holds(s_2649_jpg, hotel).
holds(s_2649_jpg, door).
holds(s_2649_jpg, awning).
holds(s_2649_jpg, billboard).
holds(s_2649_jpg, porch).
holds(s_2649_jpg, sign).
holds(s_2649_jpg, tiledrooftop).
holds(s_2649_jpg, statue).
holds(s_2649_jpg, chimney).
holds(s_2649_jpg, machine).
holds(s_2649_jpg, commercial).

sample(s_15375_jpg).
holds(s_15375_jpg, building).
holds(s_15375_jpg, feature).
holds(s_15375_jpg, hotel).
holds(s_15375_jpg, door).
holds(s_15375_jpg, awning).
holds(s_15375_jpg, porch).
holds(s_15375_jpg, sign).
holds(s_15375_jpg, tiledrooftop).
holds(s_15375_jpg, statue).
holds(s_15375_jpg, pipe).
holds(s_15375_jpg, machine).
holds(s_15375_jpg, commercial).

sample(s_2891_jpg).
holds(s_2891_jpg, building).
holds(s_2891_jpg, feature).
holds(s_2891_jpg, suburban).
holds(s_2891_jpg, door).
holds(s_2891_jpg, awning).
holds(s_2891_jpg, porch).
holds(s_2891_jpg, tiledrooftop).
holds(s_2891_jpg, vendingmachine).
holds(s_2891_jpg, wallsign).
holds(s_2891_jpg, statue).
holds(s_2891_jpg, chimney).
holds(s_2891_jpg, pipe).
holds(s_2891_jpg, truck).
holds(s_2891_jpg, car).
holds(s_2891_jpg, residential).

sample(s_14608_jpg).
holds(s_14608_jpg, building).
holds(s_14608_jpg, feature).
holds(s_14608_jpg, constructionsite).
holds(s_14608_jpg, awning).
holds(s_14608_jpg, billboard).
holds(s_14608_jpg, porch).
holds(s_14608_jpg, tiledrooftop).
holds(s_14608_jpg, wallsign).
holds(s_14608_jpg, chimney).
holds(s_14608_jpg, pipe).
holds(s_14608_jpg, machine).
holds(s_14608_jpg, industrial).

sample(s_7755_jpg).
holds(s_7755_jpg, building).
holds(s_7755_jpg, feature).
holds(s_7755_jpg, hotel).
holds(s_7755_jpg, door).
holds(s_7755_jpg, awning).
holds(s_7755_jpg, billboard).
holds(s_7755_jpg, porch).
holds(s_7755_jpg, tiledrooftop).
holds(s_7755_jpg, statue).
holds(s_7755_jpg, chimney).
holds(s_7755_jpg, machine).
holds(s_7755_jpg, commercial).

sample(s_4735_jpg).
holds(s_4735_jpg, building).
holds(s_4735_jpg, feature).
holds(s_4735_jpg, constructionsite).
holds(s_4735_jpg, awning).
holds(s_4735_jpg, billboard).
holds(s_4735_jpg, porch).
holds(s_4735_jpg, tiledrooftop).
holds(s_4735_jpg, statue).
holds(s_4735_jpg, chimney).
holds(s_4735_jpg, machine).
holds(s_4735_jpg, industrial).

sample(s_2790_jpg).
holds(s_2790_jpg, building).
holds(s_2790_jpg, feature).
holds(s_2790_jpg, hotel).
holds(s_2790_jpg, door).
holds(s_2790_jpg, awning).
holds(s_2790_jpg, porch).
holds(s_2790_jpg, sign).
holds(s_2790_jpg, tiledrooftop).
holds(s_2790_jpg, statue).
holds(s_2790_jpg, pipe).
holds(s_2790_jpg, machine).
holds(s_2790_jpg, commercial).

sample(s_5086_jpg).
holds(s_5086_jpg, building).
holds(s_5086_jpg, feature).
holds(s_5086_jpg, constructionsite).
holds(s_5086_jpg, awning).
holds(s_5086_jpg, billboard).
holds(s_5086_jpg, porch).
holds(s_5086_jpg, tiledrooftop).
holds(s_5086_jpg, wallsign).
holds(s_5086_jpg, chimney).
holds(s_5086_jpg, pipe).
holds(s_5086_jpg, machine).
holds(s_5086_jpg, industrial).

sample(s_1775_jpg).
holds(s_1775_jpg, building).
holds(s_1775_jpg, feature).
holds(s_1775_jpg, suburban).
holds(s_1775_jpg, door).
holds(s_1775_jpg, window).
holds(s_1775_jpg, awning).
holds(s_1775_jpg, porch).
holds(s_1775_jpg, tiledrooftop).
holds(s_1775_jpg, vendingmachine).
holds(s_1775_jpg, statue).
holds(s_1775_jpg, residential).

sample(s_4771_jpg).
holds(s_4771_jpg, building).
holds(s_4771_jpg, feature).
holds(s_4771_jpg, constructionsite).
holds(s_4771_jpg, awning).
holds(s_4771_jpg, billboard).
holds(s_4771_jpg, porch).
holds(s_4771_jpg, tiledrooftop).
holds(s_4771_jpg, wallsign).
holds(s_4771_jpg, chimney).
holds(s_4771_jpg, pipe).
holds(s_4771_jpg, machine).
holds(s_4771_jpg, industrial).

sample(s_13091_jpg).
holds(s_13091_jpg, building).
holds(s_13091_jpg, feature).
holds(s_13091_jpg, suburban).
holds(s_13091_jpg, door).
holds(s_13091_jpg, window).
holds(s_13091_jpg, awning).
holds(s_13091_jpg, porch).
holds(s_13091_jpg, tiledrooftop).
holds(s_13091_jpg, vendingmachine).
holds(s_13091_jpg, wallsign).
holds(s_13091_jpg, statue).
holds(s_13091_jpg, residential).

sample(s_11171_jpg).
holds(s_11171_jpg, building).
holds(s_11171_jpg, feature).
holds(s_11171_jpg, suburban).
holds(s_11171_jpg, door).
holds(s_11171_jpg, awning).
holds(s_11171_jpg, porch).
holds(s_11171_jpg, tiledrooftop).
holds(s_11171_jpg, vendingmachine).
holds(s_11171_jpg, wallsign).
holds(s_11171_jpg, statue).
holds(s_11171_jpg, pipe).
holds(s_11171_jpg, truck).
holds(s_11171_jpg, car).
holds(s_11171_jpg, residential).

sample(s_10278_jpg).
holds(s_10278_jpg, building).
holds(s_10278_jpg, feature).
holds(s_10278_jpg, hotel).
holds(s_10278_jpg, door).
holds(s_10278_jpg, awning).
holds(s_10278_jpg, billboard).
holds(s_10278_jpg, porch).
holds(s_10278_jpg, sign).
holds(s_10278_jpg, tiledrooftop).
holds(s_10278_jpg, statue).
holds(s_10278_jpg, chimney).
holds(s_10278_jpg, pipe).
holds(s_10278_jpg, machine).
holds(s_10278_jpg, truck).
holds(s_10278_jpg, commercial).

sample(s_8242_jpg).
holds(s_8242_jpg, building).
holds(s_8242_jpg, feature).
holds(s_8242_jpg, constructionsite).
holds(s_8242_jpg, door).
holds(s_8242_jpg, awning).
holds(s_8242_jpg, billboard).
holds(s_8242_jpg, porch).
holds(s_8242_jpg, tiledrooftop).
holds(s_8242_jpg, vendingmachine).
holds(s_8242_jpg, wallsign).
holds(s_8242_jpg, statue).
holds(s_8242_jpg, chimney).
holds(s_8242_jpg, pipe).
holds(s_8242_jpg, machine).
holds(s_8242_jpg, industrial).

sample(s_6965_jpg).
holds(s_6965_jpg, building).
holds(s_6965_jpg, feature).
holds(s_6965_jpg, suburban).
holds(s_6965_jpg, door).
holds(s_6965_jpg, awning).
holds(s_6965_jpg, billboard).
holds(s_6965_jpg, table).
holds(s_6965_jpg, vendingmachine).
holds(s_6965_jpg, wallsign).
holds(s_6965_jpg, statue).
holds(s_6965_jpg, chimney).
holds(s_6965_jpg, pipe).
holds(s_6965_jpg, truck).
holds(s_6965_jpg, car).
holds(s_6965_jpg, residential).

sample(s_14639_jpg).
holds(s_14639_jpg, building).
holds(s_14639_jpg, feature).
holds(s_14639_jpg, suburban).
holds(s_14639_jpg, door).
holds(s_14639_jpg, window).
holds(s_14639_jpg, awning).
holds(s_14639_jpg, porch).
holds(s_14639_jpg, tiledrooftop).
holds(s_14639_jpg, vendingmachine).
holds(s_14639_jpg, statue).
holds(s_14639_jpg, residential).

sample(s_2819_jpg).
holds(s_2819_jpg, building).
holds(s_2819_jpg, feature).
holds(s_2819_jpg, suburban).
holds(s_2819_jpg, door).
holds(s_2819_jpg, window).
holds(s_2819_jpg, awning).
holds(s_2819_jpg, porch).
holds(s_2819_jpg, tiledrooftop).
holds(s_2819_jpg, vendingmachine).
holds(s_2819_jpg, statue).
holds(s_2819_jpg, residential).

sample(s_13691_jpg).
holds(s_13691_jpg, building).
holds(s_13691_jpg, feature).
holds(s_13691_jpg, suburban).
holds(s_13691_jpg, door).
holds(s_13691_jpg, window).
holds(s_13691_jpg, awning).
holds(s_13691_jpg, porch).
holds(s_13691_jpg, tiledrooftop).
holds(s_13691_jpg, vendingmachine).
holds(s_13691_jpg, statue).
holds(s_13691_jpg, residential).

sample(s_13224_jpg).
holds(s_13224_jpg, building).
holds(s_13224_jpg, feature).
holds(s_13224_jpg, hotel).
holds(s_13224_jpg, door).
holds(s_13224_jpg, awning).
holds(s_13224_jpg, porch).
holds(s_13224_jpg, tiledrooftop).
holds(s_13224_jpg, statue).
holds(s_13224_jpg, chimney).
holds(s_13224_jpg, machine).
holds(s_13224_jpg, commercial).

sample(s_11282_jpg).
holds(s_11282_jpg, building).
holds(s_11282_jpg, feature).
holds(s_11282_jpg, suburban).
holds(s_11282_jpg, door).
holds(s_11282_jpg, window).
holds(s_11282_jpg, awning).
holds(s_11282_jpg, table).
holds(s_11282_jpg, tiledrooftop).
holds(s_11282_jpg, vendingmachine).
holds(s_11282_jpg, wallsign).
holds(s_11282_jpg, statue).
holds(s_11282_jpg, pipe).
holds(s_11282_jpg, residential).

sample(s_8243_jpg).
holds(s_8243_jpg, building).
holds(s_8243_jpg, feature).
holds(s_8243_jpg, suburban).
holds(s_8243_jpg, door).
holds(s_8243_jpg, window).
holds(s_8243_jpg, awning).
holds(s_8243_jpg, porch).
holds(s_8243_jpg, tiledrooftop).
holds(s_8243_jpg, vendingmachine).
holds(s_8243_jpg, statue).
holds(s_8243_jpg, residential).

sample(s_13204_jpg).
holds(s_13204_jpg, building).
holds(s_13204_jpg, feature).
holds(s_13204_jpg, constructionsite).
holds(s_13204_jpg, door).
holds(s_13204_jpg, awning).
holds(s_13204_jpg, billboard).
holds(s_13204_jpg, porch).
holds(s_13204_jpg, tiledrooftop).
holds(s_13204_jpg, wallsign).
holds(s_13204_jpg, statue).
holds(s_13204_jpg, chimney).
holds(s_13204_jpg, pipe).
holds(s_13204_jpg, machine).
holds(s_13204_jpg, industrial).

sample(s_8421_jpg).
holds(s_8421_jpg, building).
holds(s_8421_jpg, feature).
holds(s_8421_jpg, hotel).
holds(s_8421_jpg, door).
holds(s_8421_jpg, awning).
holds(s_8421_jpg, billboard).
holds(s_8421_jpg, porch).
holds(s_8421_jpg, sign).
holds(s_8421_jpg, tiledrooftop).
holds(s_8421_jpg, chimney).
holds(s_8421_jpg, pipe).
holds(s_8421_jpg, machine).
holds(s_8421_jpg, commercial).

sample(s_6537_jpg).
holds(s_6537_jpg, building).
holds(s_6537_jpg, feature).
holds(s_6537_jpg, hotel).
holds(s_6537_jpg, door).
holds(s_6537_jpg, awning).
holds(s_6537_jpg, billboard).
holds(s_6537_jpg, porch).
holds(s_6537_jpg, tiledrooftop).
holds(s_6537_jpg, statue).
holds(s_6537_jpg, chimney).
holds(s_6537_jpg, machine).
holds(s_6537_jpg, commercial).

sample(s_83_jpg).
holds(s_83_jpg, building).
holds(s_83_jpg, feature).
holds(s_83_jpg, suburban).
holds(s_83_jpg, door).
holds(s_83_jpg, window).
holds(s_83_jpg, awning).
holds(s_83_jpg, porch).
holds(s_83_jpg, tiledrooftop).
holds(s_83_jpg, vendingmachine).
holds(s_83_jpg, statue).
holds(s_83_jpg, residential).

sample(s_8650_jpg).
holds(s_8650_jpg, building).
holds(s_8650_jpg, feature).
holds(s_8650_jpg, constructionsite).
holds(s_8650_jpg, door).
holds(s_8650_jpg, awning).
holds(s_8650_jpg, billboard).
holds(s_8650_jpg, porch).
holds(s_8650_jpg, tiledrooftop).
holds(s_8650_jpg, vendingmachine).
holds(s_8650_jpg, wallsign).
holds(s_8650_jpg, statue).
holds(s_8650_jpg, chimney).
holds(s_8650_jpg, pipe).
holds(s_8650_jpg, machine).
holds(s_8650_jpg, industrial).

sample(s_6036_jpg).
holds(s_6036_jpg, building).
holds(s_6036_jpg, feature).
holds(s_6036_jpg, hotel).
holds(s_6036_jpg, door).
holds(s_6036_jpg, awning).
holds(s_6036_jpg, billboard).
holds(s_6036_jpg, porch).
holds(s_6036_jpg, sign).
holds(s_6036_jpg, tiledrooftop).
holds(s_6036_jpg, statue).
holds(s_6036_jpg, chimney).
holds(s_6036_jpg, machine).
holds(s_6036_jpg, commercial).

sample(s_13372_jpg).
holds(s_13372_jpg, building).
holds(s_13372_jpg, feature).
holds(s_13372_jpg, constructionsite).
holds(s_13372_jpg, door).
holds(s_13372_jpg, awning).
holds(s_13372_jpg, billboard).
holds(s_13372_jpg, porch).
holds(s_13372_jpg, tiledrooftop).
holds(s_13372_jpg, vendingmachine).
holds(s_13372_jpg, wallsign).
holds(s_13372_jpg, statue).
holds(s_13372_jpg, chimney).
holds(s_13372_jpg, pipe).
holds(s_13372_jpg, machine).
holds(s_13372_jpg, industrial).

sample(s_15803_jpg).
holds(s_15803_jpg, building).
holds(s_15803_jpg, feature).
holds(s_15803_jpg, suburban).
holds(s_15803_jpg, door).
holds(s_15803_jpg, window).
holds(s_15803_jpg, awning).
holds(s_15803_jpg, porch).
holds(s_15803_jpg, tiledrooftop).
holds(s_15803_jpg, vendingmachine).
holds(s_15803_jpg, statue).
holds(s_15803_jpg, pipe).
holds(s_15803_jpg, residential).

sample(s_14278_jpg).
holds(s_14278_jpg, building).
holds(s_14278_jpg, feature).
holds(s_14278_jpg, constructionsite).
holds(s_14278_jpg, door).
holds(s_14278_jpg, awning).
holds(s_14278_jpg, billboard).
holds(s_14278_jpg, porch).
holds(s_14278_jpg, sign).
holds(s_14278_jpg, tiledrooftop).
holds(s_14278_jpg, wallsign).
holds(s_14278_jpg, chimney).
holds(s_14278_jpg, pipe).
holds(s_14278_jpg, machine).
holds(s_14278_jpg, industrial).

sample(s_3689_jpg).
holds(s_3689_jpg, building).
holds(s_3689_jpg, feature).
holds(s_3689_jpg, suburban).
holds(s_3689_jpg, door).
holds(s_3689_jpg, window).
holds(s_3689_jpg, awning).
holds(s_3689_jpg, porch).
holds(s_3689_jpg, tiledrooftop).
holds(s_3689_jpg, vendingmachine).
holds(s_3689_jpg, statue).
holds(s_3689_jpg, residential).

sample(s_2302_jpg).
holds(s_2302_jpg, building).
holds(s_2302_jpg, feature).
holds(s_2302_jpg, constructionsite).
holds(s_2302_jpg, awning).
holds(s_2302_jpg, billboard).
holds(s_2302_jpg, porch).
holds(s_2302_jpg, tiledrooftop).
holds(s_2302_jpg, wallsign).
holds(s_2302_jpg, chimney).
holds(s_2302_jpg, pipe).
holds(s_2302_jpg, machine).
holds(s_2302_jpg, industrial).

sample(s_14904_jpg).
holds(s_14904_jpg, building).
holds(s_14904_jpg, feature).
holds(s_14904_jpg, hotel).
holds(s_14904_jpg, door).
holds(s_14904_jpg, awning).
holds(s_14904_jpg, billboard).
holds(s_14904_jpg, porch).
holds(s_14904_jpg, sign).
holds(s_14904_jpg, tiledrooftop).
holds(s_14904_jpg, chimney).
holds(s_14904_jpg, pipe).
holds(s_14904_jpg, machine).
holds(s_14904_jpg, commercial).

sample(s_2755_jpg).
holds(s_2755_jpg, building).
holds(s_2755_jpg, feature).
holds(s_2755_jpg, constructionsite).
holds(s_2755_jpg, awning).
holds(s_2755_jpg, billboard).
holds(s_2755_jpg, porch).
holds(s_2755_jpg, tiledrooftop).
holds(s_2755_jpg, chimney).
holds(s_2755_jpg, machine).
holds(s_2755_jpg, industrial).

sample(s_15318_jpg).
holds(s_15318_jpg, building).
holds(s_15318_jpg, feature).
holds(s_15318_jpg, hotel).
holds(s_15318_jpg, door).
holds(s_15318_jpg, window).
holds(s_15318_jpg, awning).
holds(s_15318_jpg, porch).
holds(s_15318_jpg, tiledrooftop).
holds(s_15318_jpg, vendingmachine).
holds(s_15318_jpg, statue).
holds(s_15318_jpg, chimney).
holds(s_15318_jpg, machine).
holds(s_15318_jpg, commercial).

sample(s_14129_jpg).
holds(s_14129_jpg, building).
holds(s_14129_jpg, feature).
holds(s_14129_jpg, suburban).
holds(s_14129_jpg, door).
holds(s_14129_jpg, window).
holds(s_14129_jpg, awning).
holds(s_14129_jpg, porch).
holds(s_14129_jpg, table).
holds(s_14129_jpg, tiledrooftop).
holds(s_14129_jpg, vendingmachine).
holds(s_14129_jpg, wallsign).
holds(s_14129_jpg, statue).
holds(s_14129_jpg, pipe).
holds(s_14129_jpg, car).
holds(s_14129_jpg, residential).

sample(s_1824_jpg).
holds(s_1824_jpg, building).
holds(s_1824_jpg, feature).
holds(s_1824_jpg, hotel).
holds(s_1824_jpg, door).
holds(s_1824_jpg, awning).
holds(s_1824_jpg, billboard).
holds(s_1824_jpg, porch).
holds(s_1824_jpg, sign).
holds(s_1824_jpg, tiledrooftop).
holds(s_1824_jpg, chimney).
holds(s_1824_jpg, pipe).
holds(s_1824_jpg, machine).
holds(s_1824_jpg, commercial).

sample(s_9439_jpg).
holds(s_9439_jpg, building).
holds(s_9439_jpg, feature).
holds(s_9439_jpg, constructionsite).
holds(s_9439_jpg, awning).
holds(s_9439_jpg, billboard).
holds(s_9439_jpg, porch).
holds(s_9439_jpg, tiledrooftop).
holds(s_9439_jpg, wallsign).
holds(s_9439_jpg, statue).
holds(s_9439_jpg, chimney).
holds(s_9439_jpg, machine).
holds(s_9439_jpg, industrial).

sample(s_1095_jpg).
holds(s_1095_jpg, building).
holds(s_1095_jpg, feature).
holds(s_1095_jpg, hotel).
holds(s_1095_jpg, door).
holds(s_1095_jpg, awning).
holds(s_1095_jpg, billboard).
holds(s_1095_jpg, porch).
holds(s_1095_jpg, sign).
holds(s_1095_jpg, tiledrooftop).
holds(s_1095_jpg, statue).
holds(s_1095_jpg, chimney).
holds(s_1095_jpg, pipe).
holds(s_1095_jpg, machine).
holds(s_1095_jpg, commercial).

sample(s_10741_jpg).
holds(s_10741_jpg, building).
holds(s_10741_jpg, feature).
holds(s_10741_jpg, constructionsite).
holds(s_10741_jpg, awning).
holds(s_10741_jpg, billboard).
holds(s_10741_jpg, porch).
holds(s_10741_jpg, tiledrooftop).
holds(s_10741_jpg, wallsign).
holds(s_10741_jpg, chimney).
holds(s_10741_jpg, pipe).
holds(s_10741_jpg, machine).
holds(s_10741_jpg, industrial).

sample(s_12034_jpg).
holds(s_12034_jpg, building).
holds(s_12034_jpg, feature).
holds(s_12034_jpg, constructionsite).
holds(s_12034_jpg, door).
holds(s_12034_jpg, awning).
holds(s_12034_jpg, billboard).
holds(s_12034_jpg, porch).
holds(s_12034_jpg, tiledrooftop).
holds(s_12034_jpg, vendingmachine).
holds(s_12034_jpg, wallsign).
holds(s_12034_jpg, statue).
holds(s_12034_jpg, chimney).
holds(s_12034_jpg, pipe).
holds(s_12034_jpg, machine).
holds(s_12034_jpg, industrial).

sample(s_11176_jpg).
holds(s_11176_jpg, building).
holds(s_11176_jpg, feature).
holds(s_11176_jpg, constructionsite).
holds(s_11176_jpg, awning).
holds(s_11176_jpg, billboard).
holds(s_11176_jpg, porch).
holds(s_11176_jpg, tiledrooftop).
holds(s_11176_jpg, wallsign).
holds(s_11176_jpg, chimney).
holds(s_11176_jpg, machine).
holds(s_11176_jpg, industrial).

sample(s_8201_jpg).
holds(s_8201_jpg, building).
holds(s_8201_jpg, feature).
holds(s_8201_jpg, suburban).
holds(s_8201_jpg, door).
holds(s_8201_jpg, window).
holds(s_8201_jpg, awning).
holds(s_8201_jpg, porch).
holds(s_8201_jpg, table).
holds(s_8201_jpg, tiledrooftop).
holds(s_8201_jpg, vendingmachine).
holds(s_8201_jpg, wallsign).
holds(s_8201_jpg, statue).
holds(s_8201_jpg, pipe).
holds(s_8201_jpg, truck).
holds(s_8201_jpg, car).
holds(s_8201_jpg, residential).

sample(s_2611_jpg).
holds(s_2611_jpg, building).
holds(s_2611_jpg, feature).
holds(s_2611_jpg, constructionsite).
holds(s_2611_jpg, awning).
holds(s_2611_jpg, billboard).
holds(s_2611_jpg, porch).
holds(s_2611_jpg, tiledrooftop).
holds(s_2611_jpg, wallsign).
holds(s_2611_jpg, chimney).
holds(s_2611_jpg, pipe).
holds(s_2611_jpg, machine).
holds(s_2611_jpg, industrial).

sample(s_6500_jpg).
holds(s_6500_jpg, building).
holds(s_6500_jpg, feature).
holds(s_6500_jpg, suburban).
holds(s_6500_jpg, door).
holds(s_6500_jpg, window).
holds(s_6500_jpg, awning).
holds(s_6500_jpg, table).
holds(s_6500_jpg, tiledrooftop).
holds(s_6500_jpg, vendingmachine).
holds(s_6500_jpg, wallsign).
holds(s_6500_jpg, statue).
holds(s_6500_jpg, pipe).
holds(s_6500_jpg, residential).

sample(s_5071_jpg).
holds(s_5071_jpg, building).
holds(s_5071_jpg, feature).
holds(s_5071_jpg, constructionsite).
holds(s_5071_jpg, awning).
holds(s_5071_jpg, billboard).
holds(s_5071_jpg, porch).
holds(s_5071_jpg, tiledrooftop).
holds(s_5071_jpg, chimney).
holds(s_5071_jpg, machine).
holds(s_5071_jpg, industrial).

sample(s_2545_jpg).
holds(s_2545_jpg, building).
holds(s_2545_jpg, feature).
holds(s_2545_jpg, constructionsite).
holds(s_2545_jpg, awning).
holds(s_2545_jpg, billboard).
holds(s_2545_jpg, porch).
holds(s_2545_jpg, tiledrooftop).
holds(s_2545_jpg, chimney).
holds(s_2545_jpg, machine).
holds(s_2545_jpg, industrial).

sample(s_12814_jpg).
holds(s_12814_jpg, building).
holds(s_12814_jpg, feature).
holds(s_12814_jpg, constructionsite).
holds(s_12814_jpg, awning).
holds(s_12814_jpg, billboard).
holds(s_12814_jpg, porch).
holds(s_12814_jpg, tiledrooftop).
holds(s_12814_jpg, statue).
holds(s_12814_jpg, chimney).
holds(s_12814_jpg, machine).
holds(s_12814_jpg, industrial).

sample(s_12271_jpg).
holds(s_12271_jpg, building).
holds(s_12271_jpg, feature).
holds(s_12271_jpg, constructionsite).
holds(s_12271_jpg, awning).
holds(s_12271_jpg, billboard).
holds(s_12271_jpg, porch).
holds(s_12271_jpg, tiledrooftop).
holds(s_12271_jpg, wallsign).
holds(s_12271_jpg, chimney).
holds(s_12271_jpg, pipe).
holds(s_12271_jpg, machine).
holds(s_12271_jpg, industrial).

sample(s_14318_jpg).
holds(s_14318_jpg, building).
holds(s_14318_jpg, feature).
holds(s_14318_jpg, suburban).
holds(s_14318_jpg, door).
holds(s_14318_jpg, window).
holds(s_14318_jpg, awning).
holds(s_14318_jpg, porch).
holds(s_14318_jpg, tiledrooftop).
holds(s_14318_jpg, vendingmachine).
holds(s_14318_jpg, wallsign).
holds(s_14318_jpg, statue).
holds(s_14318_jpg, pipe).
holds(s_14318_jpg, residential).

sample(s_6884_jpg).
holds(s_6884_jpg, building).
holds(s_6884_jpg, feature).
holds(s_6884_jpg, suburban).
holds(s_6884_jpg, door).
holds(s_6884_jpg, window).
holds(s_6884_jpg, awning).
holds(s_6884_jpg, porch).
holds(s_6884_jpg, tiledrooftop).
holds(s_6884_jpg, vendingmachine).
holds(s_6884_jpg, wallsign).
holds(s_6884_jpg, statue).
holds(s_6884_jpg, pipe).
holds(s_6884_jpg, residential).

sample(s_11360_jpg).
holds(s_11360_jpg, building).
holds(s_11360_jpg, feature).
holds(s_11360_jpg, suburban).
holds(s_11360_jpg, door).
holds(s_11360_jpg, window).
holds(s_11360_jpg, awning).
holds(s_11360_jpg, porch).
holds(s_11360_jpg, table).
holds(s_11360_jpg, tiledrooftop).
holds(s_11360_jpg, vendingmachine).
holds(s_11360_jpg, wallsign).
holds(s_11360_jpg, statue).
holds(s_11360_jpg, pipe).
holds(s_11360_jpg, residential).

sample(s_2067_jpg).
holds(s_2067_jpg, building).
holds(s_2067_jpg, feature).
holds(s_2067_jpg, hotel).
holds(s_2067_jpg, door).
holds(s_2067_jpg, awning).
holds(s_2067_jpg, billboard).
holds(s_2067_jpg, porch).
holds(s_2067_jpg, sign).
holds(s_2067_jpg, tiledrooftop).
holds(s_2067_jpg, statue).
holds(s_2067_jpg, chimney).
holds(s_2067_jpg, machine).
holds(s_2067_jpg, commercial).

sample(s_14685_jpg).
holds(s_14685_jpg, building).
holds(s_14685_jpg, feature).
holds(s_14685_jpg, hotel).
holds(s_14685_jpg, door).
holds(s_14685_jpg, awning).
holds(s_14685_jpg, porch).
holds(s_14685_jpg, sign).
holds(s_14685_jpg, tiledrooftop).
holds(s_14685_jpg, statue).
holds(s_14685_jpg, chimney).
holds(s_14685_jpg, pipe).
holds(s_14685_jpg, machine).
holds(s_14685_jpg, commercial).

sample(s_4066_jpg).
holds(s_4066_jpg, building).
holds(s_4066_jpg, feature).
holds(s_4066_jpg, constructionsite).
holds(s_4066_jpg, awning).
holds(s_4066_jpg, billboard).
holds(s_4066_jpg, porch).
holds(s_4066_jpg, tiledrooftop).
holds(s_4066_jpg, wallsign).
holds(s_4066_jpg, chimney).
holds(s_4066_jpg, pipe).
holds(s_4066_jpg, machine).
holds(s_4066_jpg, industrial).

sample(s_9675_jpg).
holds(s_9675_jpg, building).
holds(s_9675_jpg, feature).
holds(s_9675_jpg, hotel).
holds(s_9675_jpg, door).
holds(s_9675_jpg, awning).
holds(s_9675_jpg, billboard).
holds(s_9675_jpg, porch).
holds(s_9675_jpg, sign).
holds(s_9675_jpg, tiledrooftop).
holds(s_9675_jpg, wallsign).
holds(s_9675_jpg, statue).
holds(s_9675_jpg, chimney).
holds(s_9675_jpg, pipe).
holds(s_9675_jpg, machine).
holds(s_9675_jpg, truck).
holds(s_9675_jpg, car).
holds(s_9675_jpg, commercial).

sample(s_12345_jpg).
holds(s_12345_jpg, building).
holds(s_12345_jpg, feature).
holds(s_12345_jpg, hotel).
holds(s_12345_jpg, door).
holds(s_12345_jpg, awning).
holds(s_12345_jpg, billboard).
holds(s_12345_jpg, porch).
holds(s_12345_jpg, sign).
holds(s_12345_jpg, tiledrooftop).
holds(s_12345_jpg, pipe).
holds(s_12345_jpg, machine).
holds(s_12345_jpg, commercial).

sample(s_8999_jpg).
holds(s_8999_jpg, building).
holds(s_8999_jpg, feature).
holds(s_8999_jpg, suburban).
holds(s_8999_jpg, door).
holds(s_8999_jpg, window).
holds(s_8999_jpg, awning).
holds(s_8999_jpg, porch).
holds(s_8999_jpg, tiledrooftop).
holds(s_8999_jpg, vendingmachine).
holds(s_8999_jpg, wallsign).
holds(s_8999_jpg, statue).
holds(s_8999_jpg, residential).

sample(s_1632_jpg).
holds(s_1632_jpg, building).
holds(s_1632_jpg, feature).
holds(s_1632_jpg, suburban).
holds(s_1632_jpg, door).
holds(s_1632_jpg, awning).
holds(s_1632_jpg, billboard).
holds(s_1632_jpg, porch).
holds(s_1632_jpg, tiledrooftop).
holds(s_1632_jpg, vendingmachine).
holds(s_1632_jpg, wallsign).
holds(s_1632_jpg, statue).
holds(s_1632_jpg, chimney).
holds(s_1632_jpg, pipe).
holds(s_1632_jpg, machine).
holds(s_1632_jpg, truck).
holds(s_1632_jpg, car).
holds(s_1632_jpg, residential).

sample(s_7626_jpg).
holds(s_7626_jpg, building).
holds(s_7626_jpg, feature).
holds(s_7626_jpg, hotel).
holds(s_7626_jpg, door).
holds(s_7626_jpg, awning).
holds(s_7626_jpg, porch).
holds(s_7626_jpg, tiledrooftop).
holds(s_7626_jpg, statue).
holds(s_7626_jpg, chimney).
holds(s_7626_jpg, pipe).
holds(s_7626_jpg, machine).
holds(s_7626_jpg, commercial).

sample(s_1010_jpg).
holds(s_1010_jpg, building).
holds(s_1010_jpg, feature).
holds(s_1010_jpg, suburban).
holds(s_1010_jpg, door).
holds(s_1010_jpg, window).
holds(s_1010_jpg, awning).
holds(s_1010_jpg, porch).
holds(s_1010_jpg, tiledrooftop).
holds(s_1010_jpg, vendingmachine).
holds(s_1010_jpg, wallsign).
holds(s_1010_jpg, statue).
holds(s_1010_jpg, residential).

sample(s_8911_jpg).
holds(s_8911_jpg, building).
holds(s_8911_jpg, feature).
holds(s_8911_jpg, constructionsite).
holds(s_8911_jpg, awning).
holds(s_8911_jpg, billboard).
holds(s_8911_jpg, porch).
holds(s_8911_jpg, tiledrooftop).
holds(s_8911_jpg, wallsign).
holds(s_8911_jpg, chimney).
holds(s_8911_jpg, pipe).
holds(s_8911_jpg, machine).
holds(s_8911_jpg, industrial).

sample(s_8150_jpg).
holds(s_8150_jpg, building).
holds(s_8150_jpg, feature).
holds(s_8150_jpg, suburban).
holds(s_8150_jpg, door).
holds(s_8150_jpg, window).
holds(s_8150_jpg, awning).
holds(s_8150_jpg, porch).
holds(s_8150_jpg, tiledrooftop).
holds(s_8150_jpg, vendingmachine).
holds(s_8150_jpg, statue).
holds(s_8150_jpg, residential).

sample(s_1803_jpg).
holds(s_1803_jpg, building).
holds(s_1803_jpg, feature).
holds(s_1803_jpg, suburban).
holds(s_1803_jpg, door).
holds(s_1803_jpg, window).
holds(s_1803_jpg, awning).
holds(s_1803_jpg, porch).
holds(s_1803_jpg, tiledrooftop).
holds(s_1803_jpg, vendingmachine).
holds(s_1803_jpg, wallsign).
holds(s_1803_jpg, statue).
holds(s_1803_jpg, residential).

sample(s_10649_jpg).
holds(s_10649_jpg, building).
holds(s_10649_jpg, feature).
holds(s_10649_jpg, suburban).
holds(s_10649_jpg, door).
holds(s_10649_jpg, window).
holds(s_10649_jpg, awning).
holds(s_10649_jpg, porch).
holds(s_10649_jpg, table).
holds(s_10649_jpg, tiledrooftop).
holds(s_10649_jpg, vendingmachine).
holds(s_10649_jpg, wallsign).
holds(s_10649_jpg, statue).
holds(s_10649_jpg, pipe).
holds(s_10649_jpg, truck).
holds(s_10649_jpg, car).
holds(s_10649_jpg, residential).

sample(s_14254_jpg).
holds(s_14254_jpg, building).
holds(s_14254_jpg, feature).
holds(s_14254_jpg, constructionsite).
holds(s_14254_jpg, awning).
holds(s_14254_jpg, billboard).
holds(s_14254_jpg, porch).
holds(s_14254_jpg, tiledrooftop).
holds(s_14254_jpg, wallsign).
holds(s_14254_jpg, chimney).
holds(s_14254_jpg, pipe).
holds(s_14254_jpg, machine).
holds(s_14254_jpg, industrial).

sample(s_11761_jpg).
holds(s_11761_jpg, building).
holds(s_11761_jpg, feature).
holds(s_11761_jpg, constructionsite).
holds(s_11761_jpg, awning).
holds(s_11761_jpg, billboard).
holds(s_11761_jpg, porch).
holds(s_11761_jpg, tiledrooftop).
holds(s_11761_jpg, chimney).
holds(s_11761_jpg, pipe).
holds(s_11761_jpg, machine).
holds(s_11761_jpg, industrial).

sample(s_6695_jpg).
holds(s_6695_jpg, building).
holds(s_6695_jpg, feature).
holds(s_6695_jpg, suburban).
holds(s_6695_jpg, door).
holds(s_6695_jpg, window).
holds(s_6695_jpg, awning).
holds(s_6695_jpg, porch).
holds(s_6695_jpg, table).
holds(s_6695_jpg, tiledrooftop).
holds(s_6695_jpg, vendingmachine).
holds(s_6695_jpg, wallsign).
holds(s_6695_jpg, statue).
holds(s_6695_jpg, pipe).
holds(s_6695_jpg, residential).

sample(s_1266_jpg).
holds(s_1266_jpg, building).
holds(s_1266_jpg, feature).
holds(s_1266_jpg, hotel).
holds(s_1266_jpg, door).
holds(s_1266_jpg, awning).
holds(s_1266_jpg, billboard).
holds(s_1266_jpg, porch).
holds(s_1266_jpg, sign).
holds(s_1266_jpg, tiledrooftop).
holds(s_1266_jpg, chimney).
holds(s_1266_jpg, pipe).
holds(s_1266_jpg, machine).
holds(s_1266_jpg, commercial).

sample(s_2798_jpg).
holds(s_2798_jpg, building).
holds(s_2798_jpg, feature).
holds(s_2798_jpg, suburban).
holds(s_2798_jpg, door).
holds(s_2798_jpg, window).
holds(s_2798_jpg, awning).
holds(s_2798_jpg, porch).
holds(s_2798_jpg, tiledrooftop).
holds(s_2798_jpg, vendingmachine).
holds(s_2798_jpg, statue).
holds(s_2798_jpg, residential).

sample(s_7384_jpg).
holds(s_7384_jpg, building).
holds(s_7384_jpg, feature).
holds(s_7384_jpg, constructionsite).
holds(s_7384_jpg, awning).
holds(s_7384_jpg, billboard).
holds(s_7384_jpg, porch).
holds(s_7384_jpg, tiledrooftop).
holds(s_7384_jpg, chimney).
holds(s_7384_jpg, pipe).
holds(s_7384_jpg, machine).
holds(s_7384_jpg, industrial).

sample(s_2212_jpg).
holds(s_2212_jpg, building).
holds(s_2212_jpg, feature).
holds(s_2212_jpg, constructionsite).
holds(s_2212_jpg, door).
holds(s_2212_jpg, awning).
holds(s_2212_jpg, billboard).
holds(s_2212_jpg, porch).
holds(s_2212_jpg, tiledrooftop).
holds(s_2212_jpg, vendingmachine).
holds(s_2212_jpg, wallsign).
holds(s_2212_jpg, chimney).
holds(s_2212_jpg, pipe).
holds(s_2212_jpg, machine).
holds(s_2212_jpg, industrial).

sample(s_10099_jpg).
holds(s_10099_jpg, building).
holds(s_10099_jpg, feature).
holds(s_10099_jpg, constructionsite).
holds(s_10099_jpg, awning).
holds(s_10099_jpg, billboard).
holds(s_10099_jpg, porch).
holds(s_10099_jpg, tiledrooftop).
holds(s_10099_jpg, wallsign).
holds(s_10099_jpg, chimney).
holds(s_10099_jpg, pipe).
holds(s_10099_jpg, machine).
holds(s_10099_jpg, industrial).

sample(s_9327_jpg).
holds(s_9327_jpg, building).
holds(s_9327_jpg, feature).
holds(s_9327_jpg, hotel).
holds(s_9327_jpg, door).
holds(s_9327_jpg, awning).
holds(s_9327_jpg, porch).
holds(s_9327_jpg, sign).
holds(s_9327_jpg, tiledrooftop).
holds(s_9327_jpg, statue).
holds(s_9327_jpg, pipe).
holds(s_9327_jpg, machine).
holds(s_9327_jpg, commercial).

sample(s_6800_jpg).
holds(s_6800_jpg, building).
holds(s_6800_jpg, feature).
holds(s_6800_jpg, suburban).
holds(s_6800_jpg, door).
holds(s_6800_jpg, window).
holds(s_6800_jpg, awning).
holds(s_6800_jpg, porch).
holds(s_6800_jpg, table).
holds(s_6800_jpg, tiledrooftop).
holds(s_6800_jpg, vendingmachine).
holds(s_6800_jpg, wallsign).
holds(s_6800_jpg, statue).
holds(s_6800_jpg, pipe).
holds(s_6800_jpg, truck).
holds(s_6800_jpg, car).
holds(s_6800_jpg, residential).

sample(s_9022_jpg).
holds(s_9022_jpg, building).
holds(s_9022_jpg, feature).
holds(s_9022_jpg, constructionsite).
holds(s_9022_jpg, door).
holds(s_9022_jpg, awning).
holds(s_9022_jpg, billboard).
holds(s_9022_jpg, porch).
holds(s_9022_jpg, tiledrooftop).
holds(s_9022_jpg, vendingmachine).
holds(s_9022_jpg, wallsign).
holds(s_9022_jpg, statue).
holds(s_9022_jpg, chimney).
holds(s_9022_jpg, pipe).
holds(s_9022_jpg, machine).
holds(s_9022_jpg, industrial).

sample(s_10953_jpg).
holds(s_10953_jpg, building).
holds(s_10953_jpg, feature).
holds(s_10953_jpg, hotel).
holds(s_10953_jpg, door).
holds(s_10953_jpg, awning).
holds(s_10953_jpg, billboard).
holds(s_10953_jpg, porch).
holds(s_10953_jpg, sign).
holds(s_10953_jpg, tiledrooftop).
holds(s_10953_jpg, chimney).
holds(s_10953_jpg, pipe).
holds(s_10953_jpg, machine).
holds(s_10953_jpg, truck).
holds(s_10953_jpg, commercial).

sample(s_8777_jpg).
holds(s_8777_jpg, building).
holds(s_8777_jpg, feature).
holds(s_8777_jpg, suburban).
holds(s_8777_jpg, door).
holds(s_8777_jpg, window).
holds(s_8777_jpg, awning).
holds(s_8777_jpg, porch).
holds(s_8777_jpg, tiledrooftop).
holds(s_8777_jpg, vendingmachine).
holds(s_8777_jpg, wallsign).
holds(s_8777_jpg, statue).
holds(s_8777_jpg, residential).

sample(s_7477_jpg).
holds(s_7477_jpg, building).
holds(s_7477_jpg, feature).
holds(s_7477_jpg, constructionsite).
holds(s_7477_jpg, awning).
holds(s_7477_jpg, billboard).
holds(s_7477_jpg, porch).
holds(s_7477_jpg, tiledrooftop).
holds(s_7477_jpg, wallsign).
holds(s_7477_jpg, chimney).
holds(s_7477_jpg, pipe).
holds(s_7477_jpg, machine).
holds(s_7477_jpg, industrial).

sample(s_3799_jpg).
holds(s_3799_jpg, building).
holds(s_3799_jpg, feature).
holds(s_3799_jpg, constructionsite).
holds(s_3799_jpg, awning).
holds(s_3799_jpg, billboard).
holds(s_3799_jpg, porch).
holds(s_3799_jpg, tiledrooftop).
holds(s_3799_jpg, chimney).
holds(s_3799_jpg, machine).
holds(s_3799_jpg, industrial).

sample(s_12447_jpg).
holds(s_12447_jpg, building).
holds(s_12447_jpg, feature).
holds(s_12447_jpg, hotel).
holds(s_12447_jpg, door).
holds(s_12447_jpg, awning).
holds(s_12447_jpg, porch).
holds(s_12447_jpg, sign).
holds(s_12447_jpg, tiledrooftop).
holds(s_12447_jpg, pipe).
holds(s_12447_jpg, machine).
holds(s_12447_jpg, commercial).

sample(s_10733_jpg).
holds(s_10733_jpg, building).
holds(s_10733_jpg, feature).
holds(s_10733_jpg, suburban).
holds(s_10733_jpg, door).
holds(s_10733_jpg, window).
holds(s_10733_jpg, awning).
holds(s_10733_jpg, porch).
holds(s_10733_jpg, tiledrooftop).
holds(s_10733_jpg, vendingmachine).
holds(s_10733_jpg, wallsign).
holds(s_10733_jpg, statue).
holds(s_10733_jpg, residential).

sample(s_605_jpg).
holds(s_605_jpg, building).
holds(s_605_jpg, feature).
holds(s_605_jpg, suburban).
holds(s_605_jpg, door).
holds(s_605_jpg, window).
holds(s_605_jpg, awning).
holds(s_605_jpg, porch).
holds(s_605_jpg, tiledrooftop).
holds(s_605_jpg, vendingmachine).
holds(s_605_jpg, wallsign).
holds(s_605_jpg, statue).
holds(s_605_jpg, pipe).
holds(s_605_jpg, residential).

sample(s_6872_jpg).
holds(s_6872_jpg, building).
holds(s_6872_jpg, feature).
holds(s_6872_jpg, suburban).
holds(s_6872_jpg, door).
holds(s_6872_jpg, window).
holds(s_6872_jpg, awning).
holds(s_6872_jpg, porch).
holds(s_6872_jpg, tiledrooftop).
holds(s_6872_jpg, vendingmachine).
holds(s_6872_jpg, statue).
holds(s_6872_jpg, residential).

sample(s_15476_jpg).
holds(s_15476_jpg, building).
holds(s_15476_jpg, feature).
holds(s_15476_jpg, suburban).
holds(s_15476_jpg, door).
holds(s_15476_jpg, window).
holds(s_15476_jpg, awning).
holds(s_15476_jpg, porch).
holds(s_15476_jpg, table).
holds(s_15476_jpg, tiledrooftop).
holds(s_15476_jpg, vendingmachine).
holds(s_15476_jpg, wallsign).
holds(s_15476_jpg, statue).
holds(s_15476_jpg, pipe).
holds(s_15476_jpg, residential).

sample(s_8140_jpg).
holds(s_8140_jpg, building).
holds(s_8140_jpg, feature).
holds(s_8140_jpg, constructionsite).
holds(s_8140_jpg, awning).
holds(s_8140_jpg, billboard).
holds(s_8140_jpg, porch).
holds(s_8140_jpg, tiledrooftop).
holds(s_8140_jpg, wallsign).
holds(s_8140_jpg, chimney).
holds(s_8140_jpg, pipe).
holds(s_8140_jpg, machine).
holds(s_8140_jpg, industrial).

sample(s_13182_jpg).
holds(s_13182_jpg, building).
holds(s_13182_jpg, feature).
holds(s_13182_jpg, hotel).
holds(s_13182_jpg, door).
holds(s_13182_jpg, awning).
holds(s_13182_jpg, porch).
holds(s_13182_jpg, tiledrooftop).
holds(s_13182_jpg, statue).
holds(s_13182_jpg, chimney).
holds(s_13182_jpg, pipe).
holds(s_13182_jpg, machine).
holds(s_13182_jpg, commercial).

sample(s_10917_jpg).
holds(s_10917_jpg, building).
holds(s_10917_jpg, feature).
holds(s_10917_jpg, hotel).
holds(s_10917_jpg, door).
holds(s_10917_jpg, awning).
holds(s_10917_jpg, billboard).
holds(s_10917_jpg, porch).
holds(s_10917_jpg, sign).
holds(s_10917_jpg, tiledrooftop).
holds(s_10917_jpg, pipe).
holds(s_10917_jpg, machine).
holds(s_10917_jpg, commercial).

sample(s_8235_jpg).
holds(s_8235_jpg, building).
holds(s_8235_jpg, feature).
holds(s_8235_jpg, hotel).
holds(s_8235_jpg, door).
holds(s_8235_jpg, awning).
holds(s_8235_jpg, porch).
holds(s_8235_jpg, tiledrooftop).
holds(s_8235_jpg, statue).
holds(s_8235_jpg, chimney).
holds(s_8235_jpg, machine).
holds(s_8235_jpg, commercial).

sample(s_7653_jpg).
holds(s_7653_jpg, building).
holds(s_7653_jpg, feature).
holds(s_7653_jpg, hotel).
holds(s_7653_jpg, door).
holds(s_7653_jpg, awning).
holds(s_7653_jpg, billboard).
holds(s_7653_jpg, porch).
holds(s_7653_jpg, sign).
holds(s_7653_jpg, tiledrooftop).
holds(s_7653_jpg, statue).
holds(s_7653_jpg, chimney).
holds(s_7653_jpg, pipe).
holds(s_7653_jpg, machine).
holds(s_7653_jpg, truck).
holds(s_7653_jpg, commercial).

sample(s_5274_jpg).
holds(s_5274_jpg, building).
holds(s_5274_jpg, feature).
holds(s_5274_jpg, hotel).
holds(s_5274_jpg, door).
holds(s_5274_jpg, awning).
holds(s_5274_jpg, porch).
holds(s_5274_jpg, tiledrooftop).
holds(s_5274_jpg, vendingmachine).
holds(s_5274_jpg, statue).
holds(s_5274_jpg, chimney).
holds(s_5274_jpg, machine).
holds(s_5274_jpg, commercial).

sample(s_3515_jpg).
holds(s_3515_jpg, building).
holds(s_3515_jpg, feature).
holds(s_3515_jpg, suburban).
holds(s_3515_jpg, door).
holds(s_3515_jpg, window).
holds(s_3515_jpg, awning).
holds(s_3515_jpg, porch).
holds(s_3515_jpg, tiledrooftop).
holds(s_3515_jpg, vendingmachine).
holds(s_3515_jpg, wallsign).
holds(s_3515_jpg, statue).
holds(s_3515_jpg, pipe).
holds(s_3515_jpg, car).
holds(s_3515_jpg, residential).

sample(s_6712_jpg).
holds(s_6712_jpg, building).
holds(s_6712_jpg, feature).
holds(s_6712_jpg, constructionsite).
holds(s_6712_jpg, awning).
holds(s_6712_jpg, billboard).
holds(s_6712_jpg, porch).
holds(s_6712_jpg, sign).
holds(s_6712_jpg, tiledrooftop).
holds(s_6712_jpg, wallsign).
holds(s_6712_jpg, chimney).
holds(s_6712_jpg, pipe).
holds(s_6712_jpg, machine).
holds(s_6712_jpg, industrial).

sample(s_14495_jpg).
holds(s_14495_jpg, building).
holds(s_14495_jpg, feature).
holds(s_14495_jpg, suburban).
holds(s_14495_jpg, door).
holds(s_14495_jpg, window).
holds(s_14495_jpg, awning).
holds(s_14495_jpg, table).
holds(s_14495_jpg, tiledrooftop).
holds(s_14495_jpg, vendingmachine).
holds(s_14495_jpg, wallsign).
holds(s_14495_jpg, statue).
holds(s_14495_jpg, pipe).
holds(s_14495_jpg, car).
holds(s_14495_jpg, residential).

sample(s_15947_jpg).
holds(s_15947_jpg, building).
holds(s_15947_jpg, feature).
holds(s_15947_jpg, suburban).
holds(s_15947_jpg, door).
holds(s_15947_jpg, window).
holds(s_15947_jpg, awning).
holds(s_15947_jpg, table).
holds(s_15947_jpg, tiledrooftop).
holds(s_15947_jpg, vendingmachine).
holds(s_15947_jpg, wallsign).
holds(s_15947_jpg, statue).
holds(s_15947_jpg, pipe).
holds(s_15947_jpg, residential).

sample(s_12241_jpg).
holds(s_12241_jpg, building).
holds(s_12241_jpg, feature).
holds(s_12241_jpg, constructionsite).
holds(s_12241_jpg, door).
holds(s_12241_jpg, awning).
holds(s_12241_jpg, billboard).
holds(s_12241_jpg, porch).
holds(s_12241_jpg, tiledrooftop).
holds(s_12241_jpg, vendingmachine).
holds(s_12241_jpg, wallsign).
holds(s_12241_jpg, statue).
holds(s_12241_jpg, chimney).
holds(s_12241_jpg, pipe).
holds(s_12241_jpg, machine).
holds(s_12241_jpg, industrial).

sample(s_2635_jpg).
holds(s_2635_jpg, building).
holds(s_2635_jpg, feature).
holds(s_2635_jpg, constructionsite).
holds(s_2635_jpg, awning).
holds(s_2635_jpg, billboard).
holds(s_2635_jpg, porch).
holds(s_2635_jpg, tiledrooftop).
holds(s_2635_jpg, wallsign).
holds(s_2635_jpg, chimney).
holds(s_2635_jpg, pipe).
holds(s_2635_jpg, machine).
holds(s_2635_jpg, industrial).

sample(s_9598_jpg).
holds(s_9598_jpg, building).
holds(s_9598_jpg, feature).
holds(s_9598_jpg, constructionsite).
holds(s_9598_jpg, awning).
holds(s_9598_jpg, billboard).
holds(s_9598_jpg, porch).
holds(s_9598_jpg, tiledrooftop).
holds(s_9598_jpg, vendingmachine).
holds(s_9598_jpg, wallsign).
holds(s_9598_jpg, chimney).
holds(s_9598_jpg, pipe).
holds(s_9598_jpg, machine).
holds(s_9598_jpg, industrial).

sample(s_13848_jpg).
holds(s_13848_jpg, building).
holds(s_13848_jpg, feature).
holds(s_13848_jpg, hotel).
holds(s_13848_jpg, door).
holds(s_13848_jpg, awning).
holds(s_13848_jpg, billboard).
holds(s_13848_jpg, porch).
holds(s_13848_jpg, sign).
holds(s_13848_jpg, tiledrooftop).
holds(s_13848_jpg, pipe).
holds(s_13848_jpg, machine).
holds(s_13848_jpg, commercial).

sample(s_15356_jpg).
holds(s_15356_jpg, building).
holds(s_15356_jpg, feature).
holds(s_15356_jpg, suburban).
holds(s_15356_jpg, door).
holds(s_15356_jpg, window).
holds(s_15356_jpg, awning).
holds(s_15356_jpg, porch).
holds(s_15356_jpg, tiledrooftop).
holds(s_15356_jpg, vendingmachine).
holds(s_15356_jpg, wallsign).
holds(s_15356_jpg, statue).
holds(s_15356_jpg, pipe).
holds(s_15356_jpg, truck).
holds(s_15356_jpg, car).
holds(s_15356_jpg, residential).

sample(s_12461_jpg).
holds(s_12461_jpg, building).
holds(s_12461_jpg, feature).
holds(s_12461_jpg, suburban).
holds(s_12461_jpg, door).
holds(s_12461_jpg, window).
holds(s_12461_jpg, awning).
holds(s_12461_jpg, table).
holds(s_12461_jpg, tiledrooftop).
holds(s_12461_jpg, vendingmachine).
holds(s_12461_jpg, wallsign).
holds(s_12461_jpg, statue).
holds(s_12461_jpg, pipe).
holds(s_12461_jpg, residential).

sample(s_14905_jpg).
holds(s_14905_jpg, building).
holds(s_14905_jpg, feature).
holds(s_14905_jpg, constructionsite).
holds(s_14905_jpg, awning).
holds(s_14905_jpg, billboard).
holds(s_14905_jpg, porch).
holds(s_14905_jpg, tiledrooftop).
holds(s_14905_jpg, chimney).
holds(s_14905_jpg, machine).
holds(s_14905_jpg, industrial).

sample(s_9695_jpg).
holds(s_9695_jpg, building).
holds(s_9695_jpg, feature).
holds(s_9695_jpg, suburban).
holds(s_9695_jpg, door).
holds(s_9695_jpg, window).
holds(s_9695_jpg, awning).
holds(s_9695_jpg, porch).
holds(s_9695_jpg, tiledrooftop).
holds(s_9695_jpg, vendingmachine).
holds(s_9695_jpg, statue).
holds(s_9695_jpg, residential).

sample(s_1436_jpg).
holds(s_1436_jpg, building).
holds(s_1436_jpg, feature).
holds(s_1436_jpg, suburban).
holds(s_1436_jpg, door).
holds(s_1436_jpg, window).
holds(s_1436_jpg, awning).
holds(s_1436_jpg, porch).
holds(s_1436_jpg, table).
holds(s_1436_jpg, tiledrooftop).
holds(s_1436_jpg, vendingmachine).
holds(s_1436_jpg, wallsign).
holds(s_1436_jpg, statue).
holds(s_1436_jpg, pipe).
holds(s_1436_jpg, residential).

sample(s_13615_jpg).
holds(s_13615_jpg, building).
holds(s_13615_jpg, feature).
holds(s_13615_jpg, constructionsite).
holds(s_13615_jpg, awning).
holds(s_13615_jpg, billboard).
holds(s_13615_jpg, porch).
holds(s_13615_jpg, tiledrooftop).
holds(s_13615_jpg, wallsign).
holds(s_13615_jpg, statue).
holds(s_13615_jpg, chimney).
holds(s_13615_jpg, pipe).
holds(s_13615_jpg, machine).
holds(s_13615_jpg, industrial).

sample(s_9711_jpg).
holds(s_9711_jpg, building).
holds(s_9711_jpg, feature).
holds(s_9711_jpg, hotel).
holds(s_9711_jpg, door).
holds(s_9711_jpg, awning).
holds(s_9711_jpg, porch).
holds(s_9711_jpg, sign).
holds(s_9711_jpg, tiledrooftop).
holds(s_9711_jpg, statue).
holds(s_9711_jpg, pipe).
holds(s_9711_jpg, machine).
holds(s_9711_jpg, commercial).

sample(s_14629_jpg).
holds(s_14629_jpg, building).
holds(s_14629_jpg, feature).
holds(s_14629_jpg, constructionsite).
holds(s_14629_jpg, awning).
holds(s_14629_jpg, billboard).
holds(s_14629_jpg, porch).
holds(s_14629_jpg, tiledrooftop).
holds(s_14629_jpg, vendingmachine).
holds(s_14629_jpg, wallsign).
holds(s_14629_jpg, chimney).
holds(s_14629_jpg, pipe).
holds(s_14629_jpg, machine).
holds(s_14629_jpg, industrial).

sample(s_6794_jpg).
holds(s_6794_jpg, building).
holds(s_6794_jpg, feature).
holds(s_6794_jpg, suburban).
holds(s_6794_jpg, door).
holds(s_6794_jpg, window).
holds(s_6794_jpg, awning).
holds(s_6794_jpg, porch).
holds(s_6794_jpg, table).
holds(s_6794_jpg, tiledrooftop).
holds(s_6794_jpg, vendingmachine).
holds(s_6794_jpg, wallsign).
holds(s_6794_jpg, statue).
holds(s_6794_jpg, pipe).
holds(s_6794_jpg, car).
holds(s_6794_jpg, residential).

sample(s_11656_jpg).
holds(s_11656_jpg, building).
holds(s_11656_jpg, feature).
holds(s_11656_jpg, constructionsite).
holds(s_11656_jpg, awning).
holds(s_11656_jpg, billboard).
holds(s_11656_jpg, porch).
holds(s_11656_jpg, tiledrooftop).
holds(s_11656_jpg, wallsign).
holds(s_11656_jpg, chimney).
holds(s_11656_jpg, pipe).
holds(s_11656_jpg, machine).
holds(s_11656_jpg, industrial).

sample(s_6476_jpg).
holds(s_6476_jpg, building).
holds(s_6476_jpg, feature).
holds(s_6476_jpg, suburban).
holds(s_6476_jpg, door).
holds(s_6476_jpg, window).
holds(s_6476_jpg, awning).
holds(s_6476_jpg, table).
holds(s_6476_jpg, tiledrooftop).
holds(s_6476_jpg, vendingmachine).
holds(s_6476_jpg, wallsign).
holds(s_6476_jpg, statue).
holds(s_6476_jpg, pipe).
holds(s_6476_jpg, car).
holds(s_6476_jpg, residential).

sample(s_7748_jpg).
holds(s_7748_jpg, building).
holds(s_7748_jpg, feature).
holds(s_7748_jpg, suburban).
holds(s_7748_jpg, door).
holds(s_7748_jpg, awning).
holds(s_7748_jpg, porch).
holds(s_7748_jpg, tiledrooftop).
holds(s_7748_jpg, vendingmachine).
holds(s_7748_jpg, wallsign).
holds(s_7748_jpg, statue).
holds(s_7748_jpg, chimney).
holds(s_7748_jpg, pipe).
holds(s_7748_jpg, machine).
holds(s_7748_jpg, truck).
holds(s_7748_jpg, residential).

sample(s_4788_jpg).
holds(s_4788_jpg, building).
holds(s_4788_jpg, feature).
holds(s_4788_jpg, hotel).
holds(s_4788_jpg, door).
holds(s_4788_jpg, awning).
holds(s_4788_jpg, billboard).
holds(s_4788_jpg, porch).
holds(s_4788_jpg, tiledrooftop).
holds(s_4788_jpg, statue).
holds(s_4788_jpg, chimney).
holds(s_4788_jpg, pipe).
holds(s_4788_jpg, machine).
holds(s_4788_jpg, commercial).

sample(s_12371_jpg).
holds(s_12371_jpg, building).
holds(s_12371_jpg, feature).
holds(s_12371_jpg, suburban).
holds(s_12371_jpg, door).
holds(s_12371_jpg, window).
holds(s_12371_jpg, awning).
holds(s_12371_jpg, porch).
holds(s_12371_jpg, table).
holds(s_12371_jpg, tiledrooftop).
holds(s_12371_jpg, vendingmachine).
holds(s_12371_jpg, wallsign).
holds(s_12371_jpg, statue).
holds(s_12371_jpg, pipe).
holds(s_12371_jpg, car).
holds(s_12371_jpg, residential).

sample(s_11988_jpg).
holds(s_11988_jpg, building).
holds(s_11988_jpg, feature).
holds(s_11988_jpg, hotel).
holds(s_11988_jpg, door).
holds(s_11988_jpg, awning).
holds(s_11988_jpg, billboard).
holds(s_11988_jpg, porch).
holds(s_11988_jpg, sign).
holds(s_11988_jpg, tiledrooftop).
holds(s_11988_jpg, chimney).
holds(s_11988_jpg, pipe).
holds(s_11988_jpg, machine).
holds(s_11988_jpg, truck).
holds(s_11988_jpg, commercial).

sample(s_13163_jpg).
holds(s_13163_jpg, building).
holds(s_13163_jpg, feature).
holds(s_13163_jpg, suburban).
holds(s_13163_jpg, door).
holds(s_13163_jpg, window).
holds(s_13163_jpg, awning).
holds(s_13163_jpg, table).
holds(s_13163_jpg, tiledrooftop).
holds(s_13163_jpg, vendingmachine).
holds(s_13163_jpg, wallsign).
holds(s_13163_jpg, statue).
holds(s_13163_jpg, pipe).
holds(s_13163_jpg, residential).

sample(s_9531_jpg).
holds(s_9531_jpg, building).
holds(s_9531_jpg, feature).
holds(s_9531_jpg, hotel).
holds(s_9531_jpg, door).
holds(s_9531_jpg, awning).
holds(s_9531_jpg, billboard).
holds(s_9531_jpg, porch).
holds(s_9531_jpg, sign).
holds(s_9531_jpg, tiledrooftop).
holds(s_9531_jpg, statue).
holds(s_9531_jpg, chimney).
holds(s_9531_jpg, pipe).
holds(s_9531_jpg, machine).
holds(s_9531_jpg, commercial).

sample(s_3074_jpg).
holds(s_3074_jpg, building).
holds(s_3074_jpg, feature).
holds(s_3074_jpg, suburban).
holds(s_3074_jpg, door).
holds(s_3074_jpg, window).
holds(s_3074_jpg, awning).
holds(s_3074_jpg, porch).
holds(s_3074_jpg, tiledrooftop).
holds(s_3074_jpg, vendingmachine).
holds(s_3074_jpg, statue).
holds(s_3074_jpg, residential).

sample(s_10146_jpg).
holds(s_10146_jpg, building).
holds(s_10146_jpg, feature).
holds(s_10146_jpg, hotel).
holds(s_10146_jpg, door).
holds(s_10146_jpg, awning).
holds(s_10146_jpg, billboard).
holds(s_10146_jpg, porch).
holds(s_10146_jpg, sign).
holds(s_10146_jpg, tiledrooftop).
holds(s_10146_jpg, chimney).
holds(s_10146_jpg, pipe).
holds(s_10146_jpg, machine).
holds(s_10146_jpg, commercial).

sample(s_2329_jpg).
holds(s_2329_jpg, building).
holds(s_2329_jpg, feature).
holds(s_2329_jpg, constructionsite).
holds(s_2329_jpg, door).
holds(s_2329_jpg, awning).
holds(s_2329_jpg, billboard).
holds(s_2329_jpg, porch).
holds(s_2329_jpg, tiledrooftop).
holds(s_2329_jpg, vendingmachine).
holds(s_2329_jpg, wallsign).
holds(s_2329_jpg, statue).
holds(s_2329_jpg, chimney).
holds(s_2329_jpg, pipe).
holds(s_2329_jpg, machine).
holds(s_2329_jpg, industrial).

sample(s_6393_jpg).
holds(s_6393_jpg, building).
holds(s_6393_jpg, feature).
holds(s_6393_jpg, hotel).
holds(s_6393_jpg, door).
holds(s_6393_jpg, awning).
holds(s_6393_jpg, billboard).
holds(s_6393_jpg, porch).
holds(s_6393_jpg, sign).
holds(s_6393_jpg, tiledrooftop).
holds(s_6393_jpg, statue).
holds(s_6393_jpg, chimney).
holds(s_6393_jpg, pipe).
holds(s_6393_jpg, machine).
holds(s_6393_jpg, commercial).

sample(s_5208_jpg).
holds(s_5208_jpg, building).
holds(s_5208_jpg, feature).
holds(s_5208_jpg, hotel).
holds(s_5208_jpg, door).
holds(s_5208_jpg, awning).
holds(s_5208_jpg, billboard).
holds(s_5208_jpg, porch).
holds(s_5208_jpg, sign).
holds(s_5208_jpg, tiledrooftop).
holds(s_5208_jpg, pipe).
holds(s_5208_jpg, machine).
holds(s_5208_jpg, commercial).

sample(s_9367_jpg).
holds(s_9367_jpg, building).
holds(s_9367_jpg, feature).
holds(s_9367_jpg, constructionsite).
holds(s_9367_jpg, door).
holds(s_9367_jpg, awning).
holds(s_9367_jpg, porch).
holds(s_9367_jpg, tiledrooftop).
holds(s_9367_jpg, vendingmachine).
holds(s_9367_jpg, wallsign).
holds(s_9367_jpg, chimney).
holds(s_9367_jpg, pipe).
holds(s_9367_jpg, machine).
holds(s_9367_jpg, industrial).

sample(s_6125_jpg).
holds(s_6125_jpg, building).
holds(s_6125_jpg, feature).
holds(s_6125_jpg, suburban).
holds(s_6125_jpg, door).
holds(s_6125_jpg, window).
holds(s_6125_jpg, awning).
holds(s_6125_jpg, table).
holds(s_6125_jpg, tiledrooftop).
holds(s_6125_jpg, vendingmachine).
holds(s_6125_jpg, wallsign).
holds(s_6125_jpg, statue).
holds(s_6125_jpg, pipe).
holds(s_6125_jpg, residential).

sample(s_1861_jpg).
holds(s_1861_jpg, building).
holds(s_1861_jpg, feature).
holds(s_1861_jpg, constructionsite).
holds(s_1861_jpg, awning).
holds(s_1861_jpg, billboard).
holds(s_1861_jpg, porch).
holds(s_1861_jpg, tiledrooftop).
holds(s_1861_jpg, wallsign).
holds(s_1861_jpg, chimney).
holds(s_1861_jpg, pipe).
holds(s_1861_jpg, machine).
holds(s_1861_jpg, industrial).

sample(s_2401_jpg).
holds(s_2401_jpg, building).
holds(s_2401_jpg, feature).
holds(s_2401_jpg, constructionsite).
holds(s_2401_jpg, door).
holds(s_2401_jpg, awning).
holds(s_2401_jpg, billboard).
holds(s_2401_jpg, porch).
holds(s_2401_jpg, tiledrooftop).
holds(s_2401_jpg, vendingmachine).
holds(s_2401_jpg, wallsign).
holds(s_2401_jpg, chimney).
holds(s_2401_jpg, pipe).
holds(s_2401_jpg, machine).
holds(s_2401_jpg, industrial).

sample(s_3608_jpg).
holds(s_3608_jpg, building).
holds(s_3608_jpg, feature).
holds(s_3608_jpg, suburban).
holds(s_3608_jpg, door).
holds(s_3608_jpg, window).
holds(s_3608_jpg, awning).
holds(s_3608_jpg, porch).
holds(s_3608_jpg, table).
holds(s_3608_jpg, tiledrooftop).
holds(s_3608_jpg, vendingmachine).
holds(s_3608_jpg, wallsign).
holds(s_3608_jpg, statue).
holds(s_3608_jpg, pipe).
holds(s_3608_jpg, truck).
holds(s_3608_jpg, car).
holds(s_3608_jpg, residential).

sample(s_1907_jpg).
holds(s_1907_jpg, building).
holds(s_1907_jpg, feature).
holds(s_1907_jpg, hotel).
holds(s_1907_jpg, suburban).
holds(s_1907_jpg, door).
holds(s_1907_jpg, window).
holds(s_1907_jpg, awning).
holds(s_1907_jpg, porch).
holds(s_1907_jpg, tiledrooftop).
holds(s_1907_jpg, statue).
holds(s_1907_jpg, pipe).
holds(s_1907_jpg, machine).
holds(s_1907_jpg, truck).
holds(s_1907_jpg, car).
holds(s_1907_jpg, residential).

sample(s_9464_jpg).
holds(s_9464_jpg, building).
holds(s_9464_jpg, feature).
holds(s_9464_jpg, suburban).
holds(s_9464_jpg, door).
holds(s_9464_jpg, awning).
holds(s_9464_jpg, porch).
holds(s_9464_jpg, table).
holds(s_9464_jpg, vendingmachine).
holds(s_9464_jpg, wallsign).
holds(s_9464_jpg, statue).
holds(s_9464_jpg, chimney).
holds(s_9464_jpg, pipe).
holds(s_9464_jpg, truck).
holds(s_9464_jpg, car).
holds(s_9464_jpg, residential).

sample(s_7203_jpg).
holds(s_7203_jpg, building).
holds(s_7203_jpg, feature).
holds(s_7203_jpg, hotel).
holds(s_7203_jpg, door).
holds(s_7203_jpg, awning).
holds(s_7203_jpg, billboard).
holds(s_7203_jpg, porch).
holds(s_7203_jpg, tiledrooftop).
holds(s_7203_jpg, statue).
holds(s_7203_jpg, chimney).
holds(s_7203_jpg, machine).
holds(s_7203_jpg, commercial).

sample(s_1943_jpg).
holds(s_1943_jpg, building).
holds(s_1943_jpg, feature).
holds(s_1943_jpg, suburban).
holds(s_1943_jpg, door).
holds(s_1943_jpg, window).
holds(s_1943_jpg, awning).
holds(s_1943_jpg, porch).
holds(s_1943_jpg, tiledrooftop).
holds(s_1943_jpg, vendingmachine).
holds(s_1943_jpg, wallsign).
holds(s_1943_jpg, statue).
holds(s_1943_jpg, residential).

sample(s_3597_jpg).
holds(s_3597_jpg, building).
holds(s_3597_jpg, feature).
holds(s_3597_jpg, hotel).
holds(s_3597_jpg, door).
holds(s_3597_jpg, awning).
holds(s_3597_jpg, billboard).
holds(s_3597_jpg, porch).
holds(s_3597_jpg, sign).
holds(s_3597_jpg, tiledrooftop).
holds(s_3597_jpg, chimney).
holds(s_3597_jpg, pipe).
holds(s_3597_jpg, machine).
holds(s_3597_jpg, truck).
holds(s_3597_jpg, commercial).

sample(s_1676_jpg).
holds(s_1676_jpg, building).
holds(s_1676_jpg, feature).
holds(s_1676_jpg, suburban).
holds(s_1676_jpg, door).
holds(s_1676_jpg, window).
holds(s_1676_jpg, awning).
holds(s_1676_jpg, porch).
holds(s_1676_jpg, table).
holds(s_1676_jpg, tiledrooftop).
holds(s_1676_jpg, vendingmachine).
holds(s_1676_jpg, wallsign).
holds(s_1676_jpg, statue).
holds(s_1676_jpg, pipe).
holds(s_1676_jpg, residential).

sample(s_12753_jpg).
holds(s_12753_jpg, building).
holds(s_12753_jpg, feature).
holds(s_12753_jpg, hotel).
holds(s_12753_jpg, door).
holds(s_12753_jpg, awning).
holds(s_12753_jpg, billboard).
holds(s_12753_jpg, porch).
holds(s_12753_jpg, sign).
holds(s_12753_jpg, tiledrooftop).
holds(s_12753_jpg, chimney).
holds(s_12753_jpg, pipe).
holds(s_12753_jpg, machine).
holds(s_12753_jpg, commercial).

sample(s_7413_jpg).
holds(s_7413_jpg, building).
holds(s_7413_jpg, feature).
holds(s_7413_jpg, hotel).
holds(s_7413_jpg, door).
holds(s_7413_jpg, awning).
holds(s_7413_jpg, billboard).
holds(s_7413_jpg, porch).
holds(s_7413_jpg, sign).
holds(s_7413_jpg, tiledrooftop).
holds(s_7413_jpg, chimney).
holds(s_7413_jpg, pipe).
holds(s_7413_jpg, machine).
holds(s_7413_jpg, commercial).

sample(s_8196_jpg).
holds(s_8196_jpg, building).
holds(s_8196_jpg, feature).
holds(s_8196_jpg, hotel).
holds(s_8196_jpg, door).
holds(s_8196_jpg, awning).
holds(s_8196_jpg, billboard).
holds(s_8196_jpg, porch).
holds(s_8196_jpg, sign).
holds(s_8196_jpg, tiledrooftop).
holds(s_8196_jpg, statue).
holds(s_8196_jpg, chimney).
holds(s_8196_jpg, pipe).
holds(s_8196_jpg, machine).
holds(s_8196_jpg, commercial).

sample(s_2286_jpg).
holds(s_2286_jpg, building).
holds(s_2286_jpg, feature).
holds(s_2286_jpg, hotel).
holds(s_2286_jpg, door).
holds(s_2286_jpg, awning).
holds(s_2286_jpg, billboard).
holds(s_2286_jpg, porch).
holds(s_2286_jpg, sign).
holds(s_2286_jpg, tiledrooftop).
holds(s_2286_jpg, statue).
holds(s_2286_jpg, chimney).
holds(s_2286_jpg, machine).
holds(s_2286_jpg, commercial).

sample(s_10031_jpg).
holds(s_10031_jpg, building).
holds(s_10031_jpg, feature).
holds(s_10031_jpg, suburban).
holds(s_10031_jpg, door).
holds(s_10031_jpg, window).
holds(s_10031_jpg, awning).
holds(s_10031_jpg, porch).
holds(s_10031_jpg, tiledrooftop).
holds(s_10031_jpg, vendingmachine).
holds(s_10031_jpg, wallsign).
holds(s_10031_jpg, statue).
holds(s_10031_jpg, pipe).
holds(s_10031_jpg, residential).

sample(s_10514_jpg).
holds(s_10514_jpg, building).
holds(s_10514_jpg, feature).
holds(s_10514_jpg, suburban).
holds(s_10514_jpg, door).
holds(s_10514_jpg, window).
holds(s_10514_jpg, awning).
holds(s_10514_jpg, porch).
holds(s_10514_jpg, tiledrooftop).
holds(s_10514_jpg, vendingmachine).
holds(s_10514_jpg, statue).
holds(s_10514_jpg, residential).

sample(s_11074_jpg).
holds(s_11074_jpg, building).
holds(s_11074_jpg, feature).
holds(s_11074_jpg, constructionsite).
holds(s_11074_jpg, awning).
holds(s_11074_jpg, billboard).
holds(s_11074_jpg, porch).
holds(s_11074_jpg, tiledrooftop).
holds(s_11074_jpg, chimney).
holds(s_11074_jpg, pipe).
holds(s_11074_jpg, machine).
holds(s_11074_jpg, industrial).

sample(s_14553_jpg).
holds(s_14553_jpg, building).
holds(s_14553_jpg, feature).
holds(s_14553_jpg, hotel).
holds(s_14553_jpg, door).
holds(s_14553_jpg, awning).
holds(s_14553_jpg, billboard).
holds(s_14553_jpg, porch).
holds(s_14553_jpg, sign).
holds(s_14553_jpg, tiledrooftop).
holds(s_14553_jpg, statue).
holds(s_14553_jpg, chimney).
holds(s_14553_jpg, pipe).
holds(s_14553_jpg, machine).
holds(s_14553_jpg, commercial).

sample(s_4206_jpg).
holds(s_4206_jpg, building).
holds(s_4206_jpg, feature).
holds(s_4206_jpg, hotel).
holds(s_4206_jpg, door).
holds(s_4206_jpg, awning).
holds(s_4206_jpg, billboard).
holds(s_4206_jpg, porch).
holds(s_4206_jpg, sign).
holds(s_4206_jpg, tiledrooftop).
holds(s_4206_jpg, chimney).
holds(s_4206_jpg, pipe).
holds(s_4206_jpg, machine).
holds(s_4206_jpg, commercial).

sample(s_5112_jpg).
holds(s_5112_jpg, building).
holds(s_5112_jpg, feature).
holds(s_5112_jpg, hotel).
holds(s_5112_jpg, door).
holds(s_5112_jpg, awning).
holds(s_5112_jpg, porch).
holds(s_5112_jpg, tiledrooftop).
holds(s_5112_jpg, statue).
holds(s_5112_jpg, chimney).
holds(s_5112_jpg, pipe).
holds(s_5112_jpg, machine).
holds(s_5112_jpg, truck).
holds(s_5112_jpg, car).
holds(s_5112_jpg, commercial).

sample(s_12733_jpg).
holds(s_12733_jpg, building).
holds(s_12733_jpg, feature).
holds(s_12733_jpg, constructionsite).
holds(s_12733_jpg, awning).
holds(s_12733_jpg, billboard).
holds(s_12733_jpg, porch).
holds(s_12733_jpg, tiledrooftop).
holds(s_12733_jpg, wallsign).
holds(s_12733_jpg, chimney).
holds(s_12733_jpg, pipe).
holds(s_12733_jpg, machine).
holds(s_12733_jpg, industrial).

sample(s_11466_jpg).
holds(s_11466_jpg, building).
holds(s_11466_jpg, feature).
holds(s_11466_jpg, hotel).
holds(s_11466_jpg, door).
holds(s_11466_jpg, awning).
holds(s_11466_jpg, billboard).
holds(s_11466_jpg, porch).
holds(s_11466_jpg, sign).
holds(s_11466_jpg, tiledrooftop).
holds(s_11466_jpg, chimney).
holds(s_11466_jpg, pipe).
holds(s_11466_jpg, machine).
holds(s_11466_jpg, truck).
holds(s_11466_jpg, commercial).

sample(s_13371_jpg).
holds(s_13371_jpg, building).
holds(s_13371_jpg, feature).
holds(s_13371_jpg, hotel).
holds(s_13371_jpg, door).
holds(s_13371_jpg, awning).
holds(s_13371_jpg, porch).
holds(s_13371_jpg, tiledrooftop).
holds(s_13371_jpg, statue).
holds(s_13371_jpg, chimney).
holds(s_13371_jpg, machine).
holds(s_13371_jpg, commercial).

sample(s_3473_jpg).
holds(s_3473_jpg, building).
holds(s_3473_jpg, feature).
holds(s_3473_jpg, suburban).
holds(s_3473_jpg, door).
holds(s_3473_jpg, window).
holds(s_3473_jpg, awning).
holds(s_3473_jpg, porch).
holds(s_3473_jpg, tiledrooftop).
holds(s_3473_jpg, vendingmachine).
holds(s_3473_jpg, wallsign).
holds(s_3473_jpg, statue).
holds(s_3473_jpg, pipe).
holds(s_3473_jpg, residential).

sample(s_3954_jpg).
holds(s_3954_jpg, building).
holds(s_3954_jpg, feature).
holds(s_3954_jpg, hotel).
holds(s_3954_jpg, door).
holds(s_3954_jpg, awning).
holds(s_3954_jpg, billboard).
holds(s_3954_jpg, porch).
holds(s_3954_jpg, tiledrooftop).
holds(s_3954_jpg, statue).
holds(s_3954_jpg, chimney).
holds(s_3954_jpg, machine).
holds(s_3954_jpg, commercial).

sample(s_12938_jpg).
holds(s_12938_jpg, building).
holds(s_12938_jpg, feature).
holds(s_12938_jpg, suburban).
holds(s_12938_jpg, door).
holds(s_12938_jpg, window).
holds(s_12938_jpg, awning).
holds(s_12938_jpg, porch).
holds(s_12938_jpg, tiledrooftop).
holds(s_12938_jpg, vendingmachine).
holds(s_12938_jpg, wallsign).
holds(s_12938_jpg, statue).
holds(s_12938_jpg, pipe).
holds(s_12938_jpg, car).
holds(s_12938_jpg, residential).

sample(s_1710_jpg).
holds(s_1710_jpg, building).
holds(s_1710_jpg, feature).
holds(s_1710_jpg, hotel).
holds(s_1710_jpg, door).
holds(s_1710_jpg, awning).
holds(s_1710_jpg, billboard).
holds(s_1710_jpg, porch).
holds(s_1710_jpg, sign).
holds(s_1710_jpg, tiledrooftop).
holds(s_1710_jpg, statue).
holds(s_1710_jpg, chimney).
holds(s_1710_jpg, pipe).
holds(s_1710_jpg, machine).
holds(s_1710_jpg, commercial).

sample(s_2665_jpg).
holds(s_2665_jpg, building).
holds(s_2665_jpg, feature).
holds(s_2665_jpg, constructionsite).
holds(s_2665_jpg, door).
holds(s_2665_jpg, awning).
holds(s_2665_jpg, billboard).
holds(s_2665_jpg, porch).
holds(s_2665_jpg, tiledrooftop).
holds(s_2665_jpg, vendingmachine).
holds(s_2665_jpg, wallsign).
holds(s_2665_jpg, statue).
holds(s_2665_jpg, chimney).
holds(s_2665_jpg, pipe).
holds(s_2665_jpg, machine).
holds(s_2665_jpg, industrial).

sample(s_11481_jpg).
holds(s_11481_jpg, building).
holds(s_11481_jpg, feature).
holds(s_11481_jpg, constructionsite).
holds(s_11481_jpg, door).
holds(s_11481_jpg, awning).
holds(s_11481_jpg, billboard).
holds(s_11481_jpg, porch).
holds(s_11481_jpg, tiledrooftop).
holds(s_11481_jpg, vendingmachine).
holds(s_11481_jpg, wallsign).
holds(s_11481_jpg, statue).
holds(s_11481_jpg, chimney).
holds(s_11481_jpg, pipe).
holds(s_11481_jpg, machine).
holds(s_11481_jpg, industrial).

sample(s_14771_jpg).
holds(s_14771_jpg, building).
holds(s_14771_jpg, feature).
holds(s_14771_jpg, suburban).
holds(s_14771_jpg, door).
holds(s_14771_jpg, window).
holds(s_14771_jpg, awning).
holds(s_14771_jpg, porch).
holds(s_14771_jpg, tiledrooftop).
holds(s_14771_jpg, vendingmachine).
holds(s_14771_jpg, statue).
holds(s_14771_jpg, residential).

sample(s_15376_jpg).
holds(s_15376_jpg, building).
holds(s_15376_jpg, feature).
holds(s_15376_jpg, constructionsite).
holds(s_15376_jpg, door).
holds(s_15376_jpg, awning).
holds(s_15376_jpg, billboard).
holds(s_15376_jpg, porch).
holds(s_15376_jpg, tiledrooftop).
holds(s_15376_jpg, wallsign).
holds(s_15376_jpg, chimney).
holds(s_15376_jpg, pipe).
holds(s_15376_jpg, machine).
holds(s_15376_jpg, industrial).

sample(s_640_jpg).
holds(s_640_jpg, building).
holds(s_640_jpg, feature).
holds(s_640_jpg, constructionsite).
holds(s_640_jpg, awning).
holds(s_640_jpg, billboard).
holds(s_640_jpg, porch).
holds(s_640_jpg, tiledrooftop).
holds(s_640_jpg, vendingmachine).
holds(s_640_jpg, wallsign).
holds(s_640_jpg, chimney).
holds(s_640_jpg, pipe).
holds(s_640_jpg, machine).
holds(s_640_jpg, industrial).

sample(s_5045_jpg).
holds(s_5045_jpg, building).
holds(s_5045_jpg, feature).
holds(s_5045_jpg, suburban).
holds(s_5045_jpg, door).
holds(s_5045_jpg, window).
holds(s_5045_jpg, awning).
holds(s_5045_jpg, table).
holds(s_5045_jpg, tiledrooftop).
holds(s_5045_jpg, vendingmachine).
holds(s_5045_jpg, wallsign).
holds(s_5045_jpg, statue).
holds(s_5045_jpg, pipe).
holds(s_5045_jpg, residential).

sample(s_11048_jpg).
holds(s_11048_jpg, building).
holds(s_11048_jpg, feature).
holds(s_11048_jpg, suburban).
holds(s_11048_jpg, door).
holds(s_11048_jpg, awning).
holds(s_11048_jpg, table).
holds(s_11048_jpg, vendingmachine).
holds(s_11048_jpg, wallsign).
holds(s_11048_jpg, statue).
holds(s_11048_jpg, chimney).
holds(s_11048_jpg, pipe).
holds(s_11048_jpg, truck).
holds(s_11048_jpg, car).
holds(s_11048_jpg, residential).

sample(s_7637_jpg).
holds(s_7637_jpg, building).
holds(s_7637_jpg, feature).
holds(s_7637_jpg, suburban).
holds(s_7637_jpg, door).
holds(s_7637_jpg, window).
holds(s_7637_jpg, awning).
holds(s_7637_jpg, porch).
holds(s_7637_jpg, table).
holds(s_7637_jpg, tiledrooftop).
holds(s_7637_jpg, vendingmachine).
holds(s_7637_jpg, wallsign).
holds(s_7637_jpg, statue).
holds(s_7637_jpg, pipe).
holds(s_7637_jpg, residential).

sample(s_9080_jpg).
holds(s_9080_jpg, building).
holds(s_9080_jpg, feature).
holds(s_9080_jpg, suburban).
holds(s_9080_jpg, door).
holds(s_9080_jpg, window).
holds(s_9080_jpg, awning).
holds(s_9080_jpg, porch).
holds(s_9080_jpg, tiledrooftop).
holds(s_9080_jpg, vendingmachine).
holds(s_9080_jpg, wallsign).
holds(s_9080_jpg, statue).
holds(s_9080_jpg, residential).

sample(s_12098_jpg).
holds(s_12098_jpg, building).
holds(s_12098_jpg, feature).
holds(s_12098_jpg, suburban).
holds(s_12098_jpg, door).
holds(s_12098_jpg, window).
holds(s_12098_jpg, awning).
holds(s_12098_jpg, porch).
holds(s_12098_jpg, tiledrooftop).
holds(s_12098_jpg, vendingmachine).
holds(s_12098_jpg, wallsign).
holds(s_12098_jpg, statue).
holds(s_12098_jpg, pipe).
holds(s_12098_jpg, residential).

sample(s_6194_jpg).
holds(s_6194_jpg, building).
holds(s_6194_jpg, feature).
holds(s_6194_jpg, suburban).
holds(s_6194_jpg, door).
holds(s_6194_jpg, window).
holds(s_6194_jpg, awning).
holds(s_6194_jpg, table).
holds(s_6194_jpg, tiledrooftop).
holds(s_6194_jpg, vendingmachine).
holds(s_6194_jpg, wallsign).
holds(s_6194_jpg, statue).
holds(s_6194_jpg, pipe).
holds(s_6194_jpg, car).
holds(s_6194_jpg, residential).

sample(s_14234_jpg).
holds(s_14234_jpg, building).
holds(s_14234_jpg, feature).
holds(s_14234_jpg, suburban).
holds(s_14234_jpg, door).
holds(s_14234_jpg, window).
holds(s_14234_jpg, awning).
holds(s_14234_jpg, porch).
holds(s_14234_jpg, table).
holds(s_14234_jpg, tiledrooftop).
holds(s_14234_jpg, vendingmachine).
holds(s_14234_jpg, wallsign).
holds(s_14234_jpg, statue).
holds(s_14234_jpg, pipe).
holds(s_14234_jpg, residential).

sample(s_12039_jpg).
holds(s_12039_jpg, building).
holds(s_12039_jpg, feature).
holds(s_12039_jpg, door).
holds(s_12039_jpg, awning).
holds(s_12039_jpg, porch).
holds(s_12039_jpg, tiledrooftop).
holds(s_12039_jpg, vendingmachine).
holds(s_12039_jpg, wallsign).
holds(s_12039_jpg, statue).
holds(s_12039_jpg, chimney).
holds(s_12039_jpg, pipe).
holds(s_12039_jpg, machine).
holds(s_12039_jpg, truck).
holds(s_12039_jpg, commercial).

sample(s_9812_jpg).
holds(s_9812_jpg, building).
holds(s_9812_jpg, feature).
holds(s_9812_jpg, suburban).
holds(s_9812_jpg, door).
holds(s_9812_jpg, awning).
holds(s_9812_jpg, porch).
holds(s_9812_jpg, table).
holds(s_9812_jpg, tiledrooftop).
holds(s_9812_jpg, vendingmachine).
holds(s_9812_jpg, wallsign).
holds(s_9812_jpg, statue).
holds(s_9812_jpg, chimney).
holds(s_9812_jpg, pipe).
holds(s_9812_jpg, machine).
holds(s_9812_jpg, truck).
holds(s_9812_jpg, car).
holds(s_9812_jpg, residential).

sample(s_7406_jpg).
holds(s_7406_jpg, building).
holds(s_7406_jpg, feature).
holds(s_7406_jpg, suburban).
holds(s_7406_jpg, door).
holds(s_7406_jpg, awning).
holds(s_7406_jpg, table).
holds(s_7406_jpg, vendingmachine).
holds(s_7406_jpg, wallsign).
holds(s_7406_jpg, statue).
holds(s_7406_jpg, chimney).
holds(s_7406_jpg, pipe).
holds(s_7406_jpg, truck).
holds(s_7406_jpg, car).
holds(s_7406_jpg, residential).

sample(s_14526_jpg).
holds(s_14526_jpg, building).
holds(s_14526_jpg, feature).
holds(s_14526_jpg, hotel).
holds(s_14526_jpg, door).
holds(s_14526_jpg, awning).
holds(s_14526_jpg, billboard).
holds(s_14526_jpg, porch).
holds(s_14526_jpg, sign).
holds(s_14526_jpg, tiledrooftop).
holds(s_14526_jpg, chimney).
holds(s_14526_jpg, pipe).
holds(s_14526_jpg, machine).
holds(s_14526_jpg, commercial).

sample(s_12351_jpg).
holds(s_12351_jpg, building).
holds(s_12351_jpg, feature).
holds(s_12351_jpg, hotel).
holds(s_12351_jpg, door).
holds(s_12351_jpg, window).
holds(s_12351_jpg, awning).
holds(s_12351_jpg, porch).
holds(s_12351_jpg, tiledrooftop).
holds(s_12351_jpg, vendingmachine).
holds(s_12351_jpg, statue).
holds(s_12351_jpg, machine).
holds(s_12351_jpg, commercial).

sample(s_6321_jpg).
holds(s_6321_jpg, building).
holds(s_6321_jpg, feature).
holds(s_6321_jpg, hotel).
holds(s_6321_jpg, door).
holds(s_6321_jpg, awning).
holds(s_6321_jpg, porch).
holds(s_6321_jpg, tiledrooftop).
holds(s_6321_jpg, vendingmachine).
holds(s_6321_jpg, statue).
holds(s_6321_jpg, chimney).
holds(s_6321_jpg, pipe).
holds(s_6321_jpg, machine).
holds(s_6321_jpg, commercial).

sample(s_656_jpg).
holds(s_656_jpg, building).
holds(s_656_jpg, feature).
holds(s_656_jpg, suburban).
holds(s_656_jpg, door).
holds(s_656_jpg, window).
holds(s_656_jpg, awning).
holds(s_656_jpg, porch).
holds(s_656_jpg, tiledrooftop).
holds(s_656_jpg, vendingmachine).
holds(s_656_jpg, wallsign).
holds(s_656_jpg, statue).
holds(s_656_jpg, pipe).
holds(s_656_jpg, residential).

sample(s_801_jpg).
holds(s_801_jpg, building).
holds(s_801_jpg, feature).
holds(s_801_jpg, hotel).
holds(s_801_jpg, door).
holds(s_801_jpg, awning).
holds(s_801_jpg, porch).
holds(s_801_jpg, sign).
holds(s_801_jpg, tiledrooftop).
holds(s_801_jpg, statue).
holds(s_801_jpg, pipe).
holds(s_801_jpg, machine).
holds(s_801_jpg, commercial).

sample(s_3294_jpg).
holds(s_3294_jpg, building).
holds(s_3294_jpg, feature).
holds(s_3294_jpg, hotel).
holds(s_3294_jpg, door).
holds(s_3294_jpg, awning).
holds(s_3294_jpg, billboard).
holds(s_3294_jpg, porch).
holds(s_3294_jpg, sign).
holds(s_3294_jpg, tiledrooftop).
holds(s_3294_jpg, statue).
holds(s_3294_jpg, chimney).
holds(s_3294_jpg, pipe).
holds(s_3294_jpg, machine).
holds(s_3294_jpg, commercial).

sample(s_8111_jpg).
holds(s_8111_jpg, building).
holds(s_8111_jpg, feature).
holds(s_8111_jpg, suburban).
holds(s_8111_jpg, door).
holds(s_8111_jpg, window).
holds(s_8111_jpg, awning).
holds(s_8111_jpg, porch).
holds(s_8111_jpg, tiledrooftop).
holds(s_8111_jpg, vendingmachine).
holds(s_8111_jpg, wallsign).
holds(s_8111_jpg, statue).
holds(s_8111_jpg, pipe).
holds(s_8111_jpg, car).
holds(s_8111_jpg, residential).

sample(s_2760_jpg).
holds(s_2760_jpg, building).
holds(s_2760_jpg, feature).
holds(s_2760_jpg, hotel).
holds(s_2760_jpg, door).
holds(s_2760_jpg, awning).
holds(s_2760_jpg, billboard).
holds(s_2760_jpg, porch).
holds(s_2760_jpg, sign).
holds(s_2760_jpg, tiledrooftop).
holds(s_2760_jpg, chimney).
holds(s_2760_jpg, pipe).
holds(s_2760_jpg, machine).
holds(s_2760_jpg, truck).
holds(s_2760_jpg, commercial).

sample(s_183_jpg).
holds(s_183_jpg, building).
holds(s_183_jpg, feature).
holds(s_183_jpg, hotel).
holds(s_183_jpg, door).
holds(s_183_jpg, awning).
holds(s_183_jpg, billboard).
holds(s_183_jpg, porch).
holds(s_183_jpg, sign).
holds(s_183_jpg, tiledrooftop).
holds(s_183_jpg, chimney).
holds(s_183_jpg, pipe).
holds(s_183_jpg, machine).
holds(s_183_jpg, commercial).

sample(s_12029_jpg).
holds(s_12029_jpg, building).
holds(s_12029_jpg, feature).
holds(s_12029_jpg, suburban).
holds(s_12029_jpg, door).
holds(s_12029_jpg, window).
holds(s_12029_jpg, awning).
holds(s_12029_jpg, table).
holds(s_12029_jpg, tiledrooftop).
holds(s_12029_jpg, vendingmachine).
holds(s_12029_jpg, wallsign).
holds(s_12029_jpg, statue).
holds(s_12029_jpg, pipe).
holds(s_12029_jpg, car).
holds(s_12029_jpg, residential).

sample(s_11230_jpg).
holds(s_11230_jpg, building).
holds(s_11230_jpg, feature).
holds(s_11230_jpg, constructionsite).
holds(s_11230_jpg, awning).
holds(s_11230_jpg, billboard).
holds(s_11230_jpg, porch).
holds(s_11230_jpg, tiledrooftop).
holds(s_11230_jpg, wallsign).
holds(s_11230_jpg, chimney).
holds(s_11230_jpg, pipe).
holds(s_11230_jpg, machine).
holds(s_11230_jpg, industrial).

sample(s_41_jpg).
holds(s_41_jpg, building).
holds(s_41_jpg, feature).
holds(s_41_jpg, suburban).
holds(s_41_jpg, door).
holds(s_41_jpg, awning).
holds(s_41_jpg, porch).
holds(s_41_jpg, tiledrooftop).
holds(s_41_jpg, vendingmachine).
holds(s_41_jpg, wallsign).
holds(s_41_jpg, statue).
holds(s_41_jpg, chimney).
holds(s_41_jpg, pipe).
holds(s_41_jpg, machine).
holds(s_41_jpg, truck).
holds(s_41_jpg, car).
holds(s_41_jpg, residential).

sample(s_2258_jpg).
holds(s_2258_jpg, building).
holds(s_2258_jpg, feature).
holds(s_2258_jpg, suburban).
holds(s_2258_jpg, door).
holds(s_2258_jpg, window).
holds(s_2258_jpg, awning).
holds(s_2258_jpg, porch).
holds(s_2258_jpg, tiledrooftop).
holds(s_2258_jpg, vendingmachine).
holds(s_2258_jpg, statue).
holds(s_2258_jpg, residential).

sample(s_3007_jpg).
holds(s_3007_jpg, building).
holds(s_3007_jpg, feature).
holds(s_3007_jpg, constructionsite).
holds(s_3007_jpg, door).
holds(s_3007_jpg, awning).
holds(s_3007_jpg, billboard).
holds(s_3007_jpg, porch).
holds(s_3007_jpg, tiledrooftop).
holds(s_3007_jpg, vendingmachine).
holds(s_3007_jpg, wallsign).
holds(s_3007_jpg, statue).
holds(s_3007_jpg, chimney).
holds(s_3007_jpg, pipe).
holds(s_3007_jpg, machine).
holds(s_3007_jpg, industrial).

sample(s_1065_jpg).
holds(s_1065_jpg, building).
holds(s_1065_jpg, feature).
holds(s_1065_jpg, hotel).
holds(s_1065_jpg, door).
holds(s_1065_jpg, awning).
holds(s_1065_jpg, porch).
holds(s_1065_jpg, tiledrooftop).
holds(s_1065_jpg, statue).
holds(s_1065_jpg, chimney).
holds(s_1065_jpg, machine).
holds(s_1065_jpg, commercial).

sample(s_2734_jpg).
holds(s_2734_jpg, building).
holds(s_2734_jpg, feature).
holds(s_2734_jpg, constructionsite).
holds(s_2734_jpg, awning).
holds(s_2734_jpg, billboard).
holds(s_2734_jpg, porch).
holds(s_2734_jpg, tiledrooftop).
holds(s_2734_jpg, wallsign).
holds(s_2734_jpg, chimney).
holds(s_2734_jpg, pipe).
holds(s_2734_jpg, machine).
holds(s_2734_jpg, industrial).

sample(s_3875_jpg).
holds(s_3875_jpg, building).
holds(s_3875_jpg, feature).
holds(s_3875_jpg, suburban).
holds(s_3875_jpg, door).
holds(s_3875_jpg, window).
holds(s_3875_jpg, awning).
holds(s_3875_jpg, porch).
holds(s_3875_jpg, tiledrooftop).
holds(s_3875_jpg, vendingmachine).
holds(s_3875_jpg, statue).
holds(s_3875_jpg, residential).

sample(s_13236_jpg).
holds(s_13236_jpg, building).
holds(s_13236_jpg, feature).
holds(s_13236_jpg, hotel).
holds(s_13236_jpg, door).
holds(s_13236_jpg, awning).
holds(s_13236_jpg, porch).
holds(s_13236_jpg, tiledrooftop).
holds(s_13236_jpg, statue).
holds(s_13236_jpg, chimney).
holds(s_13236_jpg, machine).
holds(s_13236_jpg, commercial).

sample(s_10431_jpg).
holds(s_10431_jpg, building).
holds(s_10431_jpg, feature).
holds(s_10431_jpg, constructionsite).
holds(s_10431_jpg, awning).
holds(s_10431_jpg, billboard).
holds(s_10431_jpg, porch).
holds(s_10431_jpg, tiledrooftop).
holds(s_10431_jpg, vendingmachine).
holds(s_10431_jpg, wallsign).
holds(s_10431_jpg, chimney).
holds(s_10431_jpg, pipe).
holds(s_10431_jpg, machine).
holds(s_10431_jpg, industrial).

sample(s_4168_jpg).
holds(s_4168_jpg, building).
holds(s_4168_jpg, feature).
holds(s_4168_jpg, constructionsite).
holds(s_4168_jpg, door).
holds(s_4168_jpg, awning).
holds(s_4168_jpg, billboard).
holds(s_4168_jpg, porch).
holds(s_4168_jpg, vendingmachine).
holds(s_4168_jpg, wallsign).
holds(s_4168_jpg, chimney).
holds(s_4168_jpg, pipe).
holds(s_4168_jpg, machine).
holds(s_4168_jpg, truck).
holds(s_4168_jpg, industrial).

sample(s_11421_jpg).
holds(s_11421_jpg, building).
holds(s_11421_jpg, feature).
holds(s_11421_jpg, hotel).
holds(s_11421_jpg, door).
holds(s_11421_jpg, awning).
holds(s_11421_jpg, porch).
holds(s_11421_jpg, tiledrooftop).
holds(s_11421_jpg, vendingmachine).
holds(s_11421_jpg, wallsign).
holds(s_11421_jpg, statue).
holds(s_11421_jpg, chimney).
holds(s_11421_jpg, pipe).
holds(s_11421_jpg, machine).
holds(s_11421_jpg, commercial).

sample(s_8335_jpg).
holds(s_8335_jpg, building).
holds(s_8335_jpg, feature).
holds(s_8335_jpg, constructionsite).
holds(s_8335_jpg, awning).
holds(s_8335_jpg, billboard).
holds(s_8335_jpg, porch).
holds(s_8335_jpg, tiledrooftop).
holds(s_8335_jpg, wallsign).
holds(s_8335_jpg, chimney).
holds(s_8335_jpg, pipe).
holds(s_8335_jpg, machine).
holds(s_8335_jpg, industrial).

sample(s_317_jpg).
holds(s_317_jpg, building).
holds(s_317_jpg, feature).
holds(s_317_jpg, suburban).
holds(s_317_jpg, door).
holds(s_317_jpg, window).
holds(s_317_jpg, awning).
holds(s_317_jpg, porch).
holds(s_317_jpg, table).
holds(s_317_jpg, tiledrooftop).
holds(s_317_jpg, vendingmachine).
holds(s_317_jpg, wallsign).
holds(s_317_jpg, statue).
holds(s_317_jpg, pipe).
holds(s_317_jpg, car).
holds(s_317_jpg, residential).

sample(s_12708_jpg).
holds(s_12708_jpg, building).
holds(s_12708_jpg, feature).
holds(s_12708_jpg, hotel).
holds(s_12708_jpg, door).
holds(s_12708_jpg, awning).
holds(s_12708_jpg, billboard).
holds(s_12708_jpg, porch).
holds(s_12708_jpg, tiledrooftop).
holds(s_12708_jpg, vendingmachine).
holds(s_12708_jpg, wallsign).
holds(s_12708_jpg, statue).
holds(s_12708_jpg, chimney).
holds(s_12708_jpg, pipe).
holds(s_12708_jpg, machine).
holds(s_12708_jpg, truck).
holds(s_12708_jpg, commercial).

sample(s_68_jpg).
holds(s_68_jpg, building).
holds(s_68_jpg, feature).
holds(s_68_jpg, suburban).
holds(s_68_jpg, door).
holds(s_68_jpg, window).
holds(s_68_jpg, awning).
holds(s_68_jpg, porch).
holds(s_68_jpg, table).
holds(s_68_jpg, tiledrooftop).
holds(s_68_jpg, vendingmachine).
holds(s_68_jpg, wallsign).
holds(s_68_jpg, statue).
holds(s_68_jpg, pipe).
holds(s_68_jpg, car).
holds(s_68_jpg, residential).

sample(s_11153_jpg).
holds(s_11153_jpg, building).
holds(s_11153_jpg, feature).
holds(s_11153_jpg, suburban).
holds(s_11153_jpg, door).
holds(s_11153_jpg, window).
holds(s_11153_jpg, awning).
holds(s_11153_jpg, porch).
holds(s_11153_jpg, tiledrooftop).
holds(s_11153_jpg, vendingmachine).
holds(s_11153_jpg, wallsign).
holds(s_11153_jpg, statue).
holds(s_11153_jpg, pipe).
holds(s_11153_jpg, residential).

sample(s_4841_jpg).
holds(s_4841_jpg, building).
holds(s_4841_jpg, feature).
holds(s_4841_jpg, suburban).
holds(s_4841_jpg, door).
holds(s_4841_jpg, window).
holds(s_4841_jpg, awning).
holds(s_4841_jpg, porch).
holds(s_4841_jpg, tiledrooftop).
holds(s_4841_jpg, vendingmachine).
holds(s_4841_jpg, statue).
holds(s_4841_jpg, residential).

sample(s_4427_jpg).
holds(s_4427_jpg, building).
holds(s_4427_jpg, feature).
holds(s_4427_jpg, suburban).
holds(s_4427_jpg, door).
holds(s_4427_jpg, window).
holds(s_4427_jpg, awning).
holds(s_4427_jpg, porch).
holds(s_4427_jpg, tiledrooftop).
holds(s_4427_jpg, vendingmachine).
holds(s_4427_jpg, wallsign).
holds(s_4427_jpg, statue).
holds(s_4427_jpg, residential).

sample(s_4038_jpg).
holds(s_4038_jpg, building).
holds(s_4038_jpg, feature).
holds(s_4038_jpg, hotel).
holds(s_4038_jpg, door).
holds(s_4038_jpg, window).
holds(s_4038_jpg, awning).
holds(s_4038_jpg, porch).
holds(s_4038_jpg, tiledrooftop).
holds(s_4038_jpg, vendingmachine).
holds(s_4038_jpg, statue).
holds(s_4038_jpg, machine).
holds(s_4038_jpg, commercial).

sample(s_6332_jpg).
holds(s_6332_jpg, building).
holds(s_6332_jpg, feature).
holds(s_6332_jpg, suburban).
holds(s_6332_jpg, door).
holds(s_6332_jpg, window).
holds(s_6332_jpg, awning).
holds(s_6332_jpg, porch).
holds(s_6332_jpg, tiledrooftop).
holds(s_6332_jpg, vendingmachine).
holds(s_6332_jpg, statue).
holds(s_6332_jpg, residential).

sample(s_2624_jpg).
holds(s_2624_jpg, building).
holds(s_2624_jpg, feature).
holds(s_2624_jpg, suburban).
holds(s_2624_jpg, door).
holds(s_2624_jpg, window).
holds(s_2624_jpg, awning).
holds(s_2624_jpg, porch).
holds(s_2624_jpg, tiledrooftop).
holds(s_2624_jpg, vendingmachine).
holds(s_2624_jpg, statue).
holds(s_2624_jpg, residential).

sample(s_12568_jpg).
holds(s_12568_jpg, building).
holds(s_12568_jpg, feature).
holds(s_12568_jpg, constructionsite).
holds(s_12568_jpg, awning).
holds(s_12568_jpg, billboard).
holds(s_12568_jpg, porch).
holds(s_12568_jpg, tiledrooftop).
holds(s_12568_jpg, wallsign).
holds(s_12568_jpg, chimney).
holds(s_12568_jpg, machine).
holds(s_12568_jpg, industrial).

sample(s_13498_jpg).
holds(s_13498_jpg, building).
holds(s_13498_jpg, feature).
holds(s_13498_jpg, constructionsite).
holds(s_13498_jpg, awning).
holds(s_13498_jpg, billboard).
holds(s_13498_jpg, porch).
holds(s_13498_jpg, tiledrooftop).
holds(s_13498_jpg, wallsign).
holds(s_13498_jpg, chimney).
holds(s_13498_jpg, pipe).
holds(s_13498_jpg, machine).
holds(s_13498_jpg, industrial).

sample(s_2402_jpg).
holds(s_2402_jpg, building).
holds(s_2402_jpg, feature).
holds(s_2402_jpg, suburban).
holds(s_2402_jpg, door).
holds(s_2402_jpg, window).
holds(s_2402_jpg, awning).
holds(s_2402_jpg, porch).
holds(s_2402_jpg, tiledrooftop).
holds(s_2402_jpg, vendingmachine).
holds(s_2402_jpg, statue).
holds(s_2402_jpg, residential).

sample(s_8796_jpg).
holds(s_8796_jpg, building).
holds(s_8796_jpg, feature).
holds(s_8796_jpg, hotel).
holds(s_8796_jpg, door).
holds(s_8796_jpg, awning).
holds(s_8796_jpg, billboard).
holds(s_8796_jpg, porch).
holds(s_8796_jpg, sign).
holds(s_8796_jpg, tiledrooftop).
holds(s_8796_jpg, pipe).
holds(s_8796_jpg, machine).
holds(s_8796_jpg, commercial).

sample(s_2506_jpg).
holds(s_2506_jpg, building).
holds(s_2506_jpg, feature).
holds(s_2506_jpg, constructionsite).
holds(s_2506_jpg, awning).
holds(s_2506_jpg, billboard).
holds(s_2506_jpg, porch).
holds(s_2506_jpg, tiledrooftop).
holds(s_2506_jpg, wallsign).
holds(s_2506_jpg, chimney).
holds(s_2506_jpg, pipe).
holds(s_2506_jpg, machine).
holds(s_2506_jpg, industrial).

sample(s_13506_jpg).
holds(s_13506_jpg, building).
holds(s_13506_jpg, feature).
holds(s_13506_jpg, hotel).
holds(s_13506_jpg, door).
holds(s_13506_jpg, awning).
holds(s_13506_jpg, billboard).
holds(s_13506_jpg, porch).
holds(s_13506_jpg, sign).
holds(s_13506_jpg, tiledrooftop).
holds(s_13506_jpg, statue).
holds(s_13506_jpg, chimney).
holds(s_13506_jpg, machine).
holds(s_13506_jpg, commercial).

sample(s_120_jpg).
holds(s_120_jpg, building).
holds(s_120_jpg, feature).
holds(s_120_jpg, hotel).
holds(s_120_jpg, door).
holds(s_120_jpg, window).
holds(s_120_jpg, awning).
holds(s_120_jpg, porch).
holds(s_120_jpg, tiledrooftop).
holds(s_120_jpg, vendingmachine).
holds(s_120_jpg, statue).
holds(s_120_jpg, chimney).
holds(s_120_jpg, machine).
holds(s_120_jpg, commercial).

sample(s_1464_jpg).
holds(s_1464_jpg, building).
holds(s_1464_jpg, feature).
holds(s_1464_jpg, hotel).
holds(s_1464_jpg, door).
holds(s_1464_jpg, awning).
holds(s_1464_jpg, billboard).
holds(s_1464_jpg, porch).
holds(s_1464_jpg, sign).
holds(s_1464_jpg, tiledrooftop).
holds(s_1464_jpg, pipe).
holds(s_1464_jpg, machine).
holds(s_1464_jpg, commercial).

sample(s_12324_jpg).
holds(s_12324_jpg, building).
holds(s_12324_jpg, feature).
holds(s_12324_jpg, hotel).
holds(s_12324_jpg, door).
holds(s_12324_jpg, awning).
holds(s_12324_jpg, billboard).
holds(s_12324_jpg, porch).
holds(s_12324_jpg, sign).
holds(s_12324_jpg, tiledrooftop).
holds(s_12324_jpg, pipe).
holds(s_12324_jpg, machine).
holds(s_12324_jpg, commercial).

sample(s_10119_jpg).
holds(s_10119_jpg, building).
holds(s_10119_jpg, feature).
holds(s_10119_jpg, hotel).
holds(s_10119_jpg, door).
holds(s_10119_jpg, window).
holds(s_10119_jpg, awning).
holds(s_10119_jpg, porch).
holds(s_10119_jpg, tiledrooftop).
holds(s_10119_jpg, vendingmachine).
holds(s_10119_jpg, statue).
holds(s_10119_jpg, chimney).
holds(s_10119_jpg, machine).
holds(s_10119_jpg, commercial).

sample(s_10681_jpg).
holds(s_10681_jpg, building).
holds(s_10681_jpg, feature).
holds(s_10681_jpg, constructionsite).
holds(s_10681_jpg, awning).
holds(s_10681_jpg, billboard).
holds(s_10681_jpg, porch).
holds(s_10681_jpg, tiledrooftop).
holds(s_10681_jpg, wallsign).
holds(s_10681_jpg, chimney).
holds(s_10681_jpg, pipe).
holds(s_10681_jpg, machine).
holds(s_10681_jpg, industrial).

sample(s_1272_jpg).
holds(s_1272_jpg, building).
holds(s_1272_jpg, feature).
holds(s_1272_jpg, hotel).
holds(s_1272_jpg, awning).
holds(s_1272_jpg, porch).
holds(s_1272_jpg, tiledrooftop).
holds(s_1272_jpg, statue).
holds(s_1272_jpg, chimney).
holds(s_1272_jpg, machine).
holds(s_1272_jpg, commercial).

sample(s_8823_jpg).
holds(s_8823_jpg, building).
holds(s_8823_jpg, feature).
holds(s_8823_jpg, hotel).
holds(s_8823_jpg, door).
holds(s_8823_jpg, awning).
holds(s_8823_jpg, billboard).
holds(s_8823_jpg, porch).
holds(s_8823_jpg, sign).
holds(s_8823_jpg, tiledrooftop).
holds(s_8823_jpg, pipe).
holds(s_8823_jpg, machine).
holds(s_8823_jpg, commercial).

sample(s_2352_jpg).
holds(s_2352_jpg, building).
holds(s_2352_jpg, feature).
holds(s_2352_jpg, hotel).
holds(s_2352_jpg, door).
holds(s_2352_jpg, awning).
holds(s_2352_jpg, billboard).
holds(s_2352_jpg, porch).
holds(s_2352_jpg, sign).
holds(s_2352_jpg, tiledrooftop).
holds(s_2352_jpg, chimney).
holds(s_2352_jpg, pipe).
holds(s_2352_jpg, machine).
holds(s_2352_jpg, commercial).

sample(s_9650_jpg).
holds(s_9650_jpg, building).
holds(s_9650_jpg, feature).
holds(s_9650_jpg, suburban).
holds(s_9650_jpg, door).
holds(s_9650_jpg, window).
holds(s_9650_jpg, awning).
holds(s_9650_jpg, porch).
holds(s_9650_jpg, tiledrooftop).
holds(s_9650_jpg, vendingmachine).
holds(s_9650_jpg, wallsign).
holds(s_9650_jpg, statue).
holds(s_9650_jpg, residential).

sample(s_10319_jpg).
holds(s_10319_jpg, building).
holds(s_10319_jpg, feature).
holds(s_10319_jpg, suburban).
holds(s_10319_jpg, door).
holds(s_10319_jpg, window).
holds(s_10319_jpg, awning).
holds(s_10319_jpg, porch).
holds(s_10319_jpg, tiledrooftop).
holds(s_10319_jpg, vendingmachine).
holds(s_10319_jpg, statue).
holds(s_10319_jpg, pipe).
holds(s_10319_jpg, residential).

sample(s_10027_jpg).
holds(s_10027_jpg, building).
holds(s_10027_jpg, feature).
holds(s_10027_jpg, constructionsite).
holds(s_10027_jpg, door).
holds(s_10027_jpg, awning).
holds(s_10027_jpg, billboard).
holds(s_10027_jpg, porch).
holds(s_10027_jpg, tiledrooftop).
holds(s_10027_jpg, wallsign).
holds(s_10027_jpg, chimney).
holds(s_10027_jpg, pipe).
holds(s_10027_jpg, machine).
holds(s_10027_jpg, industrial).

sample(s_10446_jpg).
holds(s_10446_jpg, building).
holds(s_10446_jpg, feature).
holds(s_10446_jpg, hotel).
holds(s_10446_jpg, door).
holds(s_10446_jpg, awning).
holds(s_10446_jpg, billboard).
holds(s_10446_jpg, porch).
holds(s_10446_jpg, sign).
holds(s_10446_jpg, tiledrooftop).
holds(s_10446_jpg, statue).
holds(s_10446_jpg, chimney).
holds(s_10446_jpg, pipe).
holds(s_10446_jpg, machine).
holds(s_10446_jpg, truck).
holds(s_10446_jpg, commercial).

sample(s_1808_jpg).
holds(s_1808_jpg, building).
holds(s_1808_jpg, feature).
holds(s_1808_jpg, suburban).
holds(s_1808_jpg, door).
holds(s_1808_jpg, window).
holds(s_1808_jpg, awning).
holds(s_1808_jpg, porch).
holds(s_1808_jpg, tiledrooftop).
holds(s_1808_jpg, vendingmachine).
holds(s_1808_jpg, wallsign).
holds(s_1808_jpg, statue).
holds(s_1808_jpg, pipe).
holds(s_1808_jpg, car).
holds(s_1808_jpg, residential).

sample(s_6128_jpg).
holds(s_6128_jpg, building).
holds(s_6128_jpg, feature).
holds(s_6128_jpg, suburban).
holds(s_6128_jpg, door).
holds(s_6128_jpg, window).
holds(s_6128_jpg, awning).
holds(s_6128_jpg, table).
holds(s_6128_jpg, tiledrooftop).
holds(s_6128_jpg, vendingmachine).
holds(s_6128_jpg, wallsign).
holds(s_6128_jpg, statue).
holds(s_6128_jpg, pipe).
holds(s_6128_jpg, residential).

sample(s_9089_jpg).
holds(s_9089_jpg, building).
holds(s_9089_jpg, feature).
holds(s_9089_jpg, suburban).
holds(s_9089_jpg, door).
holds(s_9089_jpg, awning).
holds(s_9089_jpg, porch).
holds(s_9089_jpg, tiledrooftop).
holds(s_9089_jpg, vendingmachine).
holds(s_9089_jpg, wallsign).
holds(s_9089_jpg, statue).
holds(s_9089_jpg, chimney).
holds(s_9089_jpg, pipe).
holds(s_9089_jpg, machine).
holds(s_9089_jpg, truck).
holds(s_9089_jpg, car).
holds(s_9089_jpg, residential).

sample(s_2335_jpg).
holds(s_2335_jpg, building).
holds(s_2335_jpg, feature).
holds(s_2335_jpg, constructionsite).
holds(s_2335_jpg, awning).
holds(s_2335_jpg, billboard).
holds(s_2335_jpg, porch).
holds(s_2335_jpg, tiledrooftop).
holds(s_2335_jpg, wallsign).
holds(s_2335_jpg, chimney).
holds(s_2335_jpg, pipe).
holds(s_2335_jpg, machine).
holds(s_2335_jpg, industrial).

sample(s_14588_jpg).
holds(s_14588_jpg, building).
holds(s_14588_jpg, feature).
holds(s_14588_jpg, suburban).
holds(s_14588_jpg, door).
holds(s_14588_jpg, window).
holds(s_14588_jpg, awning).
holds(s_14588_jpg, porch).
holds(s_14588_jpg, tiledrooftop).
holds(s_14588_jpg, vendingmachine).
holds(s_14588_jpg, wallsign).
holds(s_14588_jpg, statue).
holds(s_14588_jpg, pipe).
holds(s_14588_jpg, residential).

sample(s_15493_jpg).
holds(s_15493_jpg, building).
holds(s_15493_jpg, feature).
holds(s_15493_jpg, constructionsite).
holds(s_15493_jpg, door).
holds(s_15493_jpg, awning).
holds(s_15493_jpg, billboard).
holds(s_15493_jpg, porch).
holds(s_15493_jpg, tiledrooftop).
holds(s_15493_jpg, vendingmachine).
holds(s_15493_jpg, wallsign).
holds(s_15493_jpg, statue).
holds(s_15493_jpg, chimney).
holds(s_15493_jpg, pipe).
holds(s_15493_jpg, machine).
holds(s_15493_jpg, industrial).

sample(s_10117_jpg).
holds(s_10117_jpg, building).
holds(s_10117_jpg, feature).
holds(s_10117_jpg, constructionsite).
holds(s_10117_jpg, awning).
holds(s_10117_jpg, billboard).
holds(s_10117_jpg, porch).
holds(s_10117_jpg, tiledrooftop).
holds(s_10117_jpg, wallsign).
holds(s_10117_jpg, chimney).
holds(s_10117_jpg, pipe).
holds(s_10117_jpg, machine).
holds(s_10117_jpg, industrial).

sample(s_7623_jpg).
holds(s_7623_jpg, building).
holds(s_7623_jpg, feature).
holds(s_7623_jpg, hotel).
holds(s_7623_jpg, door).
holds(s_7623_jpg, awning).
holds(s_7623_jpg, billboard).
holds(s_7623_jpg, porch).
holds(s_7623_jpg, sign).
holds(s_7623_jpg, tiledrooftop).
holds(s_7623_jpg, chimney).
holds(s_7623_jpg, pipe).
holds(s_7623_jpg, machine).
holds(s_7623_jpg, truck).
holds(s_7623_jpg, commercial).

sample(s_9873_jpg).
holds(s_9873_jpg, building).
holds(s_9873_jpg, feature).
holds(s_9873_jpg, hotel).
holds(s_9873_jpg, door).
holds(s_9873_jpg, awning).
holds(s_9873_jpg, porch).
holds(s_9873_jpg, tiledrooftop).
holds(s_9873_jpg, statue).
holds(s_9873_jpg, chimney).
holds(s_9873_jpg, pipe).
holds(s_9873_jpg, machine).
holds(s_9873_jpg, commercial).

sample(s_11557_jpg).
holds(s_11557_jpg, building).
holds(s_11557_jpg, feature).
holds(s_11557_jpg, constructionsite).
holds(s_11557_jpg, awning).
holds(s_11557_jpg, billboard).
holds(s_11557_jpg, porch).
holds(s_11557_jpg, tiledrooftop).
holds(s_11557_jpg, wallsign).
holds(s_11557_jpg, chimney).
holds(s_11557_jpg, pipe).
holds(s_11557_jpg, machine).
holds(s_11557_jpg, industrial).

sample(s_8800_jpg).
holds(s_8800_jpg, building).
holds(s_8800_jpg, feature).
holds(s_8800_jpg, constructionsite).
holds(s_8800_jpg, door).
holds(s_8800_jpg, awning).
holds(s_8800_jpg, billboard).
holds(s_8800_jpg, porch).
holds(s_8800_jpg, tiledrooftop).
holds(s_8800_jpg, vendingmachine).
holds(s_8800_jpg, wallsign).
holds(s_8800_jpg, statue).
holds(s_8800_jpg, chimney).
holds(s_8800_jpg, pipe).
holds(s_8800_jpg, machine).
holds(s_8800_jpg, industrial).

sample(s_12881_jpg).
holds(s_12881_jpg, building).
holds(s_12881_jpg, feature).
holds(s_12881_jpg, suburban).
holds(s_12881_jpg, door).
holds(s_12881_jpg, window).
holds(s_12881_jpg, awning).
holds(s_12881_jpg, table).
holds(s_12881_jpg, tiledrooftop).
holds(s_12881_jpg, vendingmachine).
holds(s_12881_jpg, wallsign).
holds(s_12881_jpg, statue).
holds(s_12881_jpg, pipe).
holds(s_12881_jpg, car).
holds(s_12881_jpg, residential).

sample(s_5677_jpg).
holds(s_5677_jpg, building).
holds(s_5677_jpg, feature).
holds(s_5677_jpg, constructionsite).
holds(s_5677_jpg, awning).
holds(s_5677_jpg, billboard).
holds(s_5677_jpg, porch).
holds(s_5677_jpg, tiledrooftop).
holds(s_5677_jpg, wallsign).
holds(s_5677_jpg, chimney).
holds(s_5677_jpg, pipe).
holds(s_5677_jpg, machine).
holds(s_5677_jpg, industrial).

sample(s_3991_jpg).
holds(s_3991_jpg, building).
holds(s_3991_jpg, feature).
holds(s_3991_jpg, constructionsite).
holds(s_3991_jpg, awning).
holds(s_3991_jpg, billboard).
holds(s_3991_jpg, porch).
holds(s_3991_jpg, tiledrooftop).
holds(s_3991_jpg, wallsign).
holds(s_3991_jpg, chimney).
holds(s_3991_jpg, pipe).
holds(s_3991_jpg, machine).
holds(s_3991_jpg, industrial).

sample(s_7814_jpg).
holds(s_7814_jpg, building).
holds(s_7814_jpg, feature).
holds(s_7814_jpg, suburban).
holds(s_7814_jpg, door).
holds(s_7814_jpg, window).
holds(s_7814_jpg, awning).
holds(s_7814_jpg, porch).
holds(s_7814_jpg, tiledrooftop).
holds(s_7814_jpg, vendingmachine).
holds(s_7814_jpg, wallsign).
holds(s_7814_jpg, statue).
holds(s_7814_jpg, pipe).
holds(s_7814_jpg, residential).

sample(s_1784_jpg).
holds(s_1784_jpg, building).
holds(s_1784_jpg, feature).
holds(s_1784_jpg, suburban).
holds(s_1784_jpg, door).
holds(s_1784_jpg, window).
holds(s_1784_jpg, awning).
holds(s_1784_jpg, porch).
holds(s_1784_jpg, tiledrooftop).
holds(s_1784_jpg, vendingmachine).
holds(s_1784_jpg, wallsign).
holds(s_1784_jpg, statue).
holds(s_1784_jpg, pipe).
holds(s_1784_jpg, residential).

sample(s_12968_jpg).
holds(s_12968_jpg, building).
holds(s_12968_jpg, feature).
holds(s_12968_jpg, suburban).
holds(s_12968_jpg, door).
holds(s_12968_jpg, awning).
holds(s_12968_jpg, porch).
holds(s_12968_jpg, table).
holds(s_12968_jpg, tiledrooftop).
holds(s_12968_jpg, vendingmachine).
holds(s_12968_jpg, wallsign).
holds(s_12968_jpg, statue).
holds(s_12968_jpg, chimney).
holds(s_12968_jpg, pipe).
holds(s_12968_jpg, truck).
holds(s_12968_jpg, car).
holds(s_12968_jpg, residential).

sample(s_9323_jpg).
holds(s_9323_jpg, building).
holds(s_9323_jpg, feature).
holds(s_9323_jpg, suburban).
holds(s_9323_jpg, door).
holds(s_9323_jpg, window).
holds(s_9323_jpg, awning).
holds(s_9323_jpg, porch).
holds(s_9323_jpg, tiledrooftop).
holds(s_9323_jpg, vendingmachine).
holds(s_9323_jpg, wallsign).
holds(s_9323_jpg, statue).
holds(s_9323_jpg, residential).

sample(s_3220_jpg).
holds(s_3220_jpg, building).
holds(s_3220_jpg, feature).
holds(s_3220_jpg, constructionsite).
holds(s_3220_jpg, awning).
holds(s_3220_jpg, billboard).
holds(s_3220_jpg, porch).
holds(s_3220_jpg, tiledrooftop).
holds(s_3220_jpg, wallsign).
holds(s_3220_jpg, chimney).
holds(s_3220_jpg, pipe).
holds(s_3220_jpg, machine).
holds(s_3220_jpg, industrial).

sample(s_11118_jpg).
holds(s_11118_jpg, building).
holds(s_11118_jpg, feature).
holds(s_11118_jpg, hotel).
holds(s_11118_jpg, door).
holds(s_11118_jpg, awning).
holds(s_11118_jpg, billboard).
holds(s_11118_jpg, porch).
holds(s_11118_jpg, sign).
holds(s_11118_jpg, tiledrooftop).
holds(s_11118_jpg, pipe).
holds(s_11118_jpg, machine).
holds(s_11118_jpg, commercial).

sample(s_14614_jpg).
holds(s_14614_jpg, building).
holds(s_14614_jpg, feature).
holds(s_14614_jpg, constructionsite).
holds(s_14614_jpg, awning).
holds(s_14614_jpg, billboard).
holds(s_14614_jpg, porch).
holds(s_14614_jpg, tiledrooftop).
holds(s_14614_jpg, wallsign).
holds(s_14614_jpg, chimney).
holds(s_14614_jpg, pipe).
holds(s_14614_jpg, machine).
holds(s_14614_jpg, industrial).

sample(s_9127_jpg).
holds(s_9127_jpg, building).
holds(s_9127_jpg, feature).
holds(s_9127_jpg, constructionsite).
holds(s_9127_jpg, awning).
holds(s_9127_jpg, billboard).
holds(s_9127_jpg, porch).
holds(s_9127_jpg, tiledrooftop).
holds(s_9127_jpg, wallsign).
holds(s_9127_jpg, chimney).
holds(s_9127_jpg, pipe).
holds(s_9127_jpg, machine).
holds(s_9127_jpg, industrial).

sample(s_3244_jpg).
holds(s_3244_jpg, building).
holds(s_3244_jpg, feature).
holds(s_3244_jpg, constructionsite).
holds(s_3244_jpg, awning).
holds(s_3244_jpg, billboard).
holds(s_3244_jpg, porch).
holds(s_3244_jpg, tiledrooftop).
holds(s_3244_jpg, vendingmachine).
holds(s_3244_jpg, wallsign).
holds(s_3244_jpg, chimney).
holds(s_3244_jpg, pipe).
holds(s_3244_jpg, machine).
holds(s_3244_jpg, industrial).

sample(s_672_jpg).
holds(s_672_jpg, building).
holds(s_672_jpg, feature).
holds(s_672_jpg, hotel).
holds(s_672_jpg, door).
holds(s_672_jpg, awning).
holds(s_672_jpg, porch).
holds(s_672_jpg, tiledrooftop).
holds(s_672_jpg, statue).
holds(s_672_jpg, chimney).
holds(s_672_jpg, pipe).
holds(s_672_jpg, machine).
holds(s_672_jpg, truck).
holds(s_672_jpg, commercial).

sample(s_7519_jpg).
holds(s_7519_jpg, building).
holds(s_7519_jpg, feature).
holds(s_7519_jpg, constructionsite).
holds(s_7519_jpg, awning).
holds(s_7519_jpg, billboard).
holds(s_7519_jpg, porch).
holds(s_7519_jpg, tiledrooftop).
holds(s_7519_jpg, wallsign).
holds(s_7519_jpg, chimney).
holds(s_7519_jpg, pipe).
holds(s_7519_jpg, machine).
holds(s_7519_jpg, industrial).

sample(s_12543_jpg).
holds(s_12543_jpg, building).
holds(s_12543_jpg, feature).
holds(s_12543_jpg, hotel).
holds(s_12543_jpg, door).
holds(s_12543_jpg, awning).
holds(s_12543_jpg, porch).
holds(s_12543_jpg, tiledrooftop).
holds(s_12543_jpg, statue).
holds(s_12543_jpg, chimney).
holds(s_12543_jpg, pipe).
holds(s_12543_jpg, machine).
holds(s_12543_jpg, truck).
holds(s_12543_jpg, commercial).

sample(s_14385_jpg).
holds(s_14385_jpg, building).
holds(s_14385_jpg, feature).
holds(s_14385_jpg, hotel).
holds(s_14385_jpg, door).
holds(s_14385_jpg, awning).
holds(s_14385_jpg, porch).
holds(s_14385_jpg, sign).
holds(s_14385_jpg, tiledrooftop).
holds(s_14385_jpg, pipe).
holds(s_14385_jpg, machine).
holds(s_14385_jpg, commercial).

sample(s_5494_jpg).
holds(s_5494_jpg, building).
holds(s_5494_jpg, feature).
holds(s_5494_jpg, constructionsite).
holds(s_5494_jpg, door).
holds(s_5494_jpg, awning).
holds(s_5494_jpg, billboard).
holds(s_5494_jpg, porch).
holds(s_5494_jpg, tiledrooftop).
holds(s_5494_jpg, vendingmachine).
holds(s_5494_jpg, wallsign).
holds(s_5494_jpg, statue).
holds(s_5494_jpg, chimney).
holds(s_5494_jpg, pipe).
holds(s_5494_jpg, machine).
holds(s_5494_jpg, industrial).

sample(s_11475_jpg).
holds(s_11475_jpg, building).
holds(s_11475_jpg, feature).
holds(s_11475_jpg, hotel).
holds(s_11475_jpg, door).
holds(s_11475_jpg, window).
holds(s_11475_jpg, awning).
holds(s_11475_jpg, porch).
holds(s_11475_jpg, tiledrooftop).
holds(s_11475_jpg, vendingmachine).
holds(s_11475_jpg, statue).
holds(s_11475_jpg, machine).
holds(s_11475_jpg, commercial).

sample(s_3474_jpg).
holds(s_3474_jpg, building).
holds(s_3474_jpg, feature).
holds(s_3474_jpg, hotel).
holds(s_3474_jpg, door).
holds(s_3474_jpg, awning).
holds(s_3474_jpg, porch).
holds(s_3474_jpg, tiledrooftop).
holds(s_3474_jpg, statue).
holds(s_3474_jpg, chimney).
holds(s_3474_jpg, pipe).
holds(s_3474_jpg, machine).
holds(s_3474_jpg, commercial).

sample(s_15490_jpg).
holds(s_15490_jpg, building).
holds(s_15490_jpg, feature).
holds(s_15490_jpg, constructionsite).
holds(s_15490_jpg, awning).
holds(s_15490_jpg, billboard).
holds(s_15490_jpg, porch).
holds(s_15490_jpg, tiledrooftop).
holds(s_15490_jpg, wallsign).
holds(s_15490_jpg, chimney).
holds(s_15490_jpg, machine).
holds(s_15490_jpg, industrial).

sample(s_4409_jpg).
holds(s_4409_jpg, building).
holds(s_4409_jpg, feature).
holds(s_4409_jpg, suburban).
holds(s_4409_jpg, door).
holds(s_4409_jpg, window).
holds(s_4409_jpg, awning).
holds(s_4409_jpg, porch).
holds(s_4409_jpg, tiledrooftop).
holds(s_4409_jpg, vendingmachine).
holds(s_4409_jpg, wallsign).
holds(s_4409_jpg, statue).
holds(s_4409_jpg, residential).

sample(s_14997_jpg).
holds(s_14997_jpg, building).
holds(s_14997_jpg, feature).
holds(s_14997_jpg, hotel).
holds(s_14997_jpg, door).
holds(s_14997_jpg, awning).
holds(s_14997_jpg, billboard).
holds(s_14997_jpg, porch).
holds(s_14997_jpg, sign).
holds(s_14997_jpg, tiledrooftop).
holds(s_14997_jpg, chimney).
holds(s_14997_jpg, pipe).
holds(s_14997_jpg, machine).
holds(s_14997_jpg, commercial).

sample(s_10919_jpg).
holds(s_10919_jpg, building).
holds(s_10919_jpg, feature).
holds(s_10919_jpg, suburban).
holds(s_10919_jpg, door).
holds(s_10919_jpg, window).
holds(s_10919_jpg, awning).
holds(s_10919_jpg, porch).
holds(s_10919_jpg, table).
holds(s_10919_jpg, tiledrooftop).
holds(s_10919_jpg, vendingmachine).
holds(s_10919_jpg, wallsign).
holds(s_10919_jpg, statue).
holds(s_10919_jpg, pipe).
holds(s_10919_jpg, truck).
holds(s_10919_jpg, car).
holds(s_10919_jpg, residential).

sample(s_1515_jpg).
holds(s_1515_jpg, building).
holds(s_1515_jpg, feature).
holds(s_1515_jpg, hotel).
holds(s_1515_jpg, door).
holds(s_1515_jpg, awning).
holds(s_1515_jpg, porch).
holds(s_1515_jpg, sign).
holds(s_1515_jpg, tiledrooftop).
holds(s_1515_jpg, statue).
holds(s_1515_jpg, machine).
holds(s_1515_jpg, commercial).

sample(s_11897_jpg).
holds(s_11897_jpg, building).
holds(s_11897_jpg, feature).
holds(s_11897_jpg, suburban).
holds(s_11897_jpg, door).
holds(s_11897_jpg, window).
holds(s_11897_jpg, awning).
holds(s_11897_jpg, porch).
holds(s_11897_jpg, tiledrooftop).
holds(s_11897_jpg, vendingmachine).
holds(s_11897_jpg, wallsign).
holds(s_11897_jpg, statue).
holds(s_11897_jpg, pipe).
holds(s_11897_jpg, residential).

sample(s_15053_jpg).
holds(s_15053_jpg, building).
holds(s_15053_jpg, feature).
holds(s_15053_jpg, suburban).
holds(s_15053_jpg, door).
holds(s_15053_jpg, awning).
holds(s_15053_jpg, table).
holds(s_15053_jpg, tiledrooftop).
holds(s_15053_jpg, vendingmachine).
holds(s_15053_jpg, wallsign).
holds(s_15053_jpg, statue).
holds(s_15053_jpg, chimney).
holds(s_15053_jpg, pipe).
holds(s_15053_jpg, truck).
holds(s_15053_jpg, car).
holds(s_15053_jpg, residential).

sample(s_447_jpg).
holds(s_447_jpg, building).
holds(s_447_jpg, feature).
holds(s_447_jpg, hotel).
holds(s_447_jpg, door).
holds(s_447_jpg, awning).
holds(s_447_jpg, billboard).
holds(s_447_jpg, porch).
holds(s_447_jpg, tiledrooftop).
holds(s_447_jpg, statue).
holds(s_447_jpg, chimney).
holds(s_447_jpg, pipe).
holds(s_447_jpg, machine).
holds(s_447_jpg, truck).
holds(s_447_jpg, commercial).

sample(s_3498_jpg).
holds(s_3498_jpg, building).
holds(s_3498_jpg, feature).
holds(s_3498_jpg, hotel).
holds(s_3498_jpg, door).
holds(s_3498_jpg, awning).
holds(s_3498_jpg, billboard).
holds(s_3498_jpg, porch).
holds(s_3498_jpg, sign).
holds(s_3498_jpg, tiledrooftop).
holds(s_3498_jpg, statue).
holds(s_3498_jpg, chimney).
holds(s_3498_jpg, pipe).
holds(s_3498_jpg, machine).
holds(s_3498_jpg, commercial).

sample(s_12114_jpg).
holds(s_12114_jpg, building).
holds(s_12114_jpg, feature).
holds(s_12114_jpg, hotel).
holds(s_12114_jpg, door).
holds(s_12114_jpg, awning).
holds(s_12114_jpg, billboard).
holds(s_12114_jpg, porch).
holds(s_12114_jpg, sign).
holds(s_12114_jpg, tiledrooftop).
holds(s_12114_jpg, chimney).
holds(s_12114_jpg, pipe).
holds(s_12114_jpg, machine).
holds(s_12114_jpg, commercial).

sample(s_6491_jpg).
holds(s_6491_jpg, building).
holds(s_6491_jpg, feature).
holds(s_6491_jpg, suburban).
holds(s_6491_jpg, door).
holds(s_6491_jpg, window).
holds(s_6491_jpg, awning).
holds(s_6491_jpg, table).
holds(s_6491_jpg, tiledrooftop).
holds(s_6491_jpg, vendingmachine).
holds(s_6491_jpg, wallsign).
holds(s_6491_jpg, statue).
holds(s_6491_jpg, pipe).
holds(s_6491_jpg, residential).

sample(s_2078_jpg).
holds(s_2078_jpg, building).
holds(s_2078_jpg, feature).
holds(s_2078_jpg, suburban).
holds(s_2078_jpg, door).
holds(s_2078_jpg, awning).
holds(s_2078_jpg, table).
holds(s_2078_jpg, vendingmachine).
holds(s_2078_jpg, wallsign).
holds(s_2078_jpg, statue).
holds(s_2078_jpg, chimney).
holds(s_2078_jpg, pipe).
holds(s_2078_jpg, truck).
holds(s_2078_jpg, car).
holds(s_2078_jpg, residential).

sample(s_699_jpg).
holds(s_699_jpg, building).
holds(s_699_jpg, feature).
holds(s_699_jpg, hotel).
holds(s_699_jpg, door).
holds(s_699_jpg, awning).
holds(s_699_jpg, billboard).
holds(s_699_jpg, porch).
holds(s_699_jpg, tiledrooftop).
holds(s_699_jpg, statue).
holds(s_699_jpg, chimney).
holds(s_699_jpg, machine).
holds(s_699_jpg, commercial).

sample(s_14354_jpg).
holds(s_14354_jpg, building).
holds(s_14354_jpg, feature).
holds(s_14354_jpg, suburban).
holds(s_14354_jpg, door).
holds(s_14354_jpg, window).
holds(s_14354_jpg, awning).
holds(s_14354_jpg, porch).
holds(s_14354_jpg, tiledrooftop).
holds(s_14354_jpg, vendingmachine).
holds(s_14354_jpg, wallsign).
holds(s_14354_jpg, statue).
holds(s_14354_jpg, pipe).
holds(s_14354_jpg, residential).

sample(s_3362_jpg).
holds(s_3362_jpg, building).
holds(s_3362_jpg, feature).
holds(s_3362_jpg, suburban).
holds(s_3362_jpg, door).
holds(s_3362_jpg, window).
holds(s_3362_jpg, awning).
holds(s_3362_jpg, porch).
holds(s_3362_jpg, table).
holds(s_3362_jpg, tiledrooftop).
holds(s_3362_jpg, vendingmachine).
holds(s_3362_jpg, wallsign).
holds(s_3362_jpg, statue).
holds(s_3362_jpg, pipe).
holds(s_3362_jpg, truck).
holds(s_3362_jpg, car).
holds(s_3362_jpg, residential).

sample(s_11949_jpg).
holds(s_11949_jpg, building).
holds(s_11949_jpg, feature).
holds(s_11949_jpg, hotel).
holds(s_11949_jpg, door).
holds(s_11949_jpg, awning).
holds(s_11949_jpg, billboard).
holds(s_11949_jpg, porch).
holds(s_11949_jpg, sign).
holds(s_11949_jpg, tiledrooftop).
holds(s_11949_jpg, statue).
holds(s_11949_jpg, chimney).
holds(s_11949_jpg, pipe).
holds(s_11949_jpg, machine).
holds(s_11949_jpg, commercial).

sample(s_1923_jpg).
holds(s_1923_jpg, building).
holds(s_1923_jpg, feature).
holds(s_1923_jpg, hotel).
holds(s_1923_jpg, door).
holds(s_1923_jpg, awning).
holds(s_1923_jpg, porch).
holds(s_1923_jpg, tiledrooftop).
holds(s_1923_jpg, statue).
holds(s_1923_jpg, chimney).
holds(s_1923_jpg, pipe).
holds(s_1923_jpg, machine).
holds(s_1923_jpg, commercial).

sample(s_609_jpg).
holds(s_609_jpg, building).
holds(s_609_jpg, feature).
holds(s_609_jpg, hotel).
holds(s_609_jpg, door).
holds(s_609_jpg, awning).
holds(s_609_jpg, billboard).
holds(s_609_jpg, porch).
holds(s_609_jpg, sign).
holds(s_609_jpg, tiledrooftop).
holds(s_609_jpg, pipe).
holds(s_609_jpg, machine).
holds(s_609_jpg, commercial).

sample(s_14295_jpg).
holds(s_14295_jpg, building).
holds(s_14295_jpg, feature).
holds(s_14295_jpg, hotel).
holds(s_14295_jpg, door).
holds(s_14295_jpg, awning).
holds(s_14295_jpg, porch).
holds(s_14295_jpg, sign).
holds(s_14295_jpg, tiledrooftop).
holds(s_14295_jpg, statue).
holds(s_14295_jpg, chimney).
holds(s_14295_jpg, pipe).
holds(s_14295_jpg, machine).
holds(s_14295_jpg, commercial).

sample(s_2414_jpg).
holds(s_2414_jpg, building).
holds(s_2414_jpg, feature).
holds(s_2414_jpg, suburban).
holds(s_2414_jpg, door).
holds(s_2414_jpg, window).
holds(s_2414_jpg, awning).
holds(s_2414_jpg, porch).
holds(s_2414_jpg, tiledrooftop).
holds(s_2414_jpg, vendingmachine).
holds(s_2414_jpg, statue).
holds(s_2414_jpg, pipe).
holds(s_2414_jpg, residential).

sample(s_12426_jpg).
holds(s_12426_jpg, building).
holds(s_12426_jpg, feature).
holds(s_12426_jpg, hotel).
holds(s_12426_jpg, door).
holds(s_12426_jpg, awning).
holds(s_12426_jpg, porch).
holds(s_12426_jpg, sign).
holds(s_12426_jpg, tiledrooftop).
holds(s_12426_jpg, statue).
holds(s_12426_jpg, pipe).
holds(s_12426_jpg, machine).
holds(s_12426_jpg, commercial).

sample(s_8167_jpg).
holds(s_8167_jpg, building).
holds(s_8167_jpg, feature).
holds(s_8167_jpg, constructionsite).
holds(s_8167_jpg, awning).
holds(s_8167_jpg, billboard).
holds(s_8167_jpg, porch).
holds(s_8167_jpg, tiledrooftop).
holds(s_8167_jpg, vendingmachine).
holds(s_8167_jpg, wallsign).
holds(s_8167_jpg, chimney).
holds(s_8167_jpg, pipe).
holds(s_8167_jpg, machine).
holds(s_8167_jpg, industrial).

sample(s_4428_jpg).
holds(s_4428_jpg, building).
holds(s_4428_jpg, feature).
holds(s_4428_jpg, hotel).
holds(s_4428_jpg, door).
holds(s_4428_jpg, awning).
holds(s_4428_jpg, billboard).
holds(s_4428_jpg, porch).
holds(s_4428_jpg, tiledrooftop).
holds(s_4428_jpg, statue).
holds(s_4428_jpg, chimney).
holds(s_4428_jpg, machine).
holds(s_4428_jpg, commercial).

sample(s_3836_jpg).
holds(s_3836_jpg, building).
holds(s_3836_jpg, feature).
holds(s_3836_jpg, suburban).
holds(s_3836_jpg, door).
holds(s_3836_jpg, window).
holds(s_3836_jpg, awning).
holds(s_3836_jpg, porch).
holds(s_3836_jpg, tiledrooftop).
holds(s_3836_jpg, vendingmachine).
holds(s_3836_jpg, statue).
holds(s_3836_jpg, residential).

sample(s_15595_jpg).
holds(s_15595_jpg, building).
holds(s_15595_jpg, feature).
holds(s_15595_jpg, constructionsite).
holds(s_15595_jpg, door).
holds(s_15595_jpg, awning).
holds(s_15595_jpg, billboard).
holds(s_15595_jpg, porch).
holds(s_15595_jpg, tiledrooftop).
holds(s_15595_jpg, wallsign).
holds(s_15595_jpg, statue).
holds(s_15595_jpg, chimney).
holds(s_15595_jpg, pipe).
holds(s_15595_jpg, machine).
holds(s_15595_jpg, industrial).

sample(s_12059_jpg).
holds(s_12059_jpg, building).
holds(s_12059_jpg, feature).
holds(s_12059_jpg, suburban).
holds(s_12059_jpg, door).
holds(s_12059_jpg, window).
holds(s_12059_jpg, awning).
holds(s_12059_jpg, porch).
holds(s_12059_jpg, tiledrooftop).
holds(s_12059_jpg, vendingmachine).
holds(s_12059_jpg, wallsign).
holds(s_12059_jpg, statue).
holds(s_12059_jpg, car).
holds(s_12059_jpg, residential).

sample(s_4504_jpg).
holds(s_4504_jpg, building).
holds(s_4504_jpg, feature).
holds(s_4504_jpg, constructionsite).
holds(s_4504_jpg, awning).
holds(s_4504_jpg, billboard).
holds(s_4504_jpg, porch).
holds(s_4504_jpg, tiledrooftop).
holds(s_4504_jpg, wallsign).
holds(s_4504_jpg, chimney).
holds(s_4504_jpg, pipe).
holds(s_4504_jpg, machine).
holds(s_4504_jpg, industrial).

sample(s_6894_jpg).
holds(s_6894_jpg, building).
holds(s_6894_jpg, feature).
holds(s_6894_jpg, hotel).
holds(s_6894_jpg, door).
holds(s_6894_jpg, awning).
holds(s_6894_jpg, billboard).
holds(s_6894_jpg, porch).
holds(s_6894_jpg, sign).
holds(s_6894_jpg, tiledrooftop).
holds(s_6894_jpg, chimney).
holds(s_6894_jpg, pipe).
holds(s_6894_jpg, machine).
holds(s_6894_jpg, commercial).

sample(s_6688_jpg).
holds(s_6688_jpg, building).
holds(s_6688_jpg, feature).
holds(s_6688_jpg, constructionsite).
holds(s_6688_jpg, awning).
holds(s_6688_jpg, billboard).
holds(s_6688_jpg, porch).
holds(s_6688_jpg, tiledrooftop).
holds(s_6688_jpg, wallsign).
holds(s_6688_jpg, chimney).
holds(s_6688_jpg, pipe).
holds(s_6688_jpg, machine).
holds(s_6688_jpg, industrial).

sample(s_13160_jpg).
holds(s_13160_jpg, building).
holds(s_13160_jpg, feature).
holds(s_13160_jpg, suburban).
holds(s_13160_jpg, door).
holds(s_13160_jpg, window).
holds(s_13160_jpg, awning).
holds(s_13160_jpg, porch).
holds(s_13160_jpg, table).
holds(s_13160_jpg, tiledrooftop).
holds(s_13160_jpg, vendingmachine).
holds(s_13160_jpg, wallsign).
holds(s_13160_jpg, statue).
holds(s_13160_jpg, pipe).
holds(s_13160_jpg, residential).

sample(s_15509_jpg).
holds(s_15509_jpg, building).
holds(s_15509_jpg, feature).
holds(s_15509_jpg, suburban).
holds(s_15509_jpg, door).
holds(s_15509_jpg, window).
holds(s_15509_jpg, awning).
holds(s_15509_jpg, porch).
holds(s_15509_jpg, tiledrooftop).
holds(s_15509_jpg, vendingmachine).
holds(s_15509_jpg, wallsign).
holds(s_15509_jpg, statue).
holds(s_15509_jpg, pipe).
holds(s_15509_jpg, car).
holds(s_15509_jpg, residential).

sample(s_8859_jpg).
holds(s_8859_jpg, building).
holds(s_8859_jpg, feature).
holds(s_8859_jpg, hotel).
holds(s_8859_jpg, door).
holds(s_8859_jpg, awning).
holds(s_8859_jpg, billboard).
holds(s_8859_jpg, porch).
holds(s_8859_jpg, sign).
holds(s_8859_jpg, tiledrooftop).
holds(s_8859_jpg, statue).
holds(s_8859_jpg, chimney).
holds(s_8859_jpg, pipe).
holds(s_8859_jpg, machine).
holds(s_8859_jpg, truck).
holds(s_8859_jpg, commercial).

sample(s_12045_jpg).
holds(s_12045_jpg, building).
holds(s_12045_jpg, feature).
holds(s_12045_jpg, hotel).
holds(s_12045_jpg, door).
holds(s_12045_jpg, awning).
holds(s_12045_jpg, billboard).
holds(s_12045_jpg, porch).
holds(s_12045_jpg, tiledrooftop).
holds(s_12045_jpg, statue).
holds(s_12045_jpg, chimney).
holds(s_12045_jpg, machine).
holds(s_12045_jpg, truck).
holds(s_12045_jpg, commercial).

sample(s_10367_jpg).
holds(s_10367_jpg, building).
holds(s_10367_jpg, feature).
holds(s_10367_jpg, suburban).
holds(s_10367_jpg, door).
holds(s_10367_jpg, window).
holds(s_10367_jpg, awning).
holds(s_10367_jpg, porch).
holds(s_10367_jpg, tiledrooftop).
holds(s_10367_jpg, vendingmachine).
holds(s_10367_jpg, statue).
holds(s_10367_jpg, residential).

sample(s_2121_jpg).
holds(s_2121_jpg, building).
holds(s_2121_jpg, feature).
holds(s_2121_jpg, hotel).
holds(s_2121_jpg, door).
holds(s_2121_jpg, awning).
holds(s_2121_jpg, billboard).
holds(s_2121_jpg, porch).
holds(s_2121_jpg, sign).
holds(s_2121_jpg, tiledrooftop).
holds(s_2121_jpg, chimney).
holds(s_2121_jpg, pipe).
holds(s_2121_jpg, machine).
holds(s_2121_jpg, commercial).

sample(s_2322_jpg).
holds(s_2322_jpg, building).
holds(s_2322_jpg, feature).
holds(s_2322_jpg, hotel).
holds(s_2322_jpg, door).
holds(s_2322_jpg, awning).
holds(s_2322_jpg, billboard).
holds(s_2322_jpg, porch).
holds(s_2322_jpg, sign).
holds(s_2322_jpg, tiledrooftop).
holds(s_2322_jpg, pipe).
holds(s_2322_jpg, machine).
holds(s_2322_jpg, commercial).

sample(s_12028_jpg).
holds(s_12028_jpg, building).
holds(s_12028_jpg, feature).
holds(s_12028_jpg, constructionsite).
holds(s_12028_jpg, awning).
holds(s_12028_jpg, billboard).
holds(s_12028_jpg, porch).
holds(s_12028_jpg, tiledrooftop).
holds(s_12028_jpg, wallsign).
holds(s_12028_jpg, chimney).
holds(s_12028_jpg, machine).
holds(s_12028_jpg, industrial).

sample(s_7676_jpg).
holds(s_7676_jpg, building).
holds(s_7676_jpg, feature).
holds(s_7676_jpg, suburban).
holds(s_7676_jpg, door).
holds(s_7676_jpg, window).
holds(s_7676_jpg, awning).
holds(s_7676_jpg, porch).
holds(s_7676_jpg, tiledrooftop).
holds(s_7676_jpg, vendingmachine).
holds(s_7676_jpg, wallsign).
holds(s_7676_jpg, statue).
holds(s_7676_jpg, pipe).
holds(s_7676_jpg, residential).

sample(s_831_jpg).
holds(s_831_jpg, building).
holds(s_831_jpg, feature).
holds(s_831_jpg, hotel).
holds(s_831_jpg, door).
holds(s_831_jpg, awning).
holds(s_831_jpg, billboard).
holds(s_831_jpg, porch).
holds(s_831_jpg, sign).
holds(s_831_jpg, tiledrooftop).
holds(s_831_jpg, pipe).
holds(s_831_jpg, machine).
holds(s_831_jpg, commercial).

sample(s_7801_jpg).
holds(s_7801_jpg, building).
holds(s_7801_jpg, feature).
holds(s_7801_jpg, constructionsite).
holds(s_7801_jpg, awning).
holds(s_7801_jpg, billboard).
holds(s_7801_jpg, porch).
holds(s_7801_jpg, tiledrooftop).
holds(s_7801_jpg, vendingmachine).
holds(s_7801_jpg, wallsign).
holds(s_7801_jpg, chimney).
holds(s_7801_jpg, pipe).
holds(s_7801_jpg, machine).
holds(s_7801_jpg, industrial).

sample(s_1837_jpg).
holds(s_1837_jpg, building).
holds(s_1837_jpg, feature).
holds(s_1837_jpg, constructionsite).
holds(s_1837_jpg, awning).
holds(s_1837_jpg, billboard).
holds(s_1837_jpg, porch).
holds(s_1837_jpg, tiledrooftop).
holds(s_1837_jpg, wallsign).
holds(s_1837_jpg, chimney).
holds(s_1837_jpg, pipe).
holds(s_1837_jpg, machine).
holds(s_1837_jpg, industrial).

sample(s_6617_jpg).
holds(s_6617_jpg, building).
holds(s_6617_jpg, feature).
holds(s_6617_jpg, suburban).
holds(s_6617_jpg, door).
holds(s_6617_jpg, window).
holds(s_6617_jpg, awning).
holds(s_6617_jpg, porch).
holds(s_6617_jpg, table).
holds(s_6617_jpg, tiledrooftop).
holds(s_6617_jpg, vendingmachine).
holds(s_6617_jpg, wallsign).
holds(s_6617_jpg, statue).
holds(s_6617_jpg, pipe).
holds(s_6617_jpg, residential).

sample(s_13592_jpg).
holds(s_13592_jpg, building).
holds(s_13592_jpg, feature).
holds(s_13592_jpg, suburban).
holds(s_13592_jpg, door).
holds(s_13592_jpg, window).
holds(s_13592_jpg, awning).
holds(s_13592_jpg, table).
holds(s_13592_jpg, tiledrooftop).
holds(s_13592_jpg, vendingmachine).
holds(s_13592_jpg, wallsign).
holds(s_13592_jpg, statue).
holds(s_13592_jpg, pipe).
holds(s_13592_jpg, residential).

sample(s_10444_jpg).
holds(s_10444_jpg, building).
holds(s_10444_jpg, feature).
holds(s_10444_jpg, constructionsite).
holds(s_10444_jpg, awning).
holds(s_10444_jpg, billboard).
holds(s_10444_jpg, porch).
holds(s_10444_jpg, tiledrooftop).
holds(s_10444_jpg, wallsign).
holds(s_10444_jpg, chimney).
holds(s_10444_jpg, pipe).
holds(s_10444_jpg, machine).
holds(s_10444_jpg, industrial).

sample(s_8309_jpg).
holds(s_8309_jpg, building).
holds(s_8309_jpg, feature).
holds(s_8309_jpg, suburban).
holds(s_8309_jpg, door).
holds(s_8309_jpg, window).
holds(s_8309_jpg, awning).
holds(s_8309_jpg, porch).
holds(s_8309_jpg, table).
holds(s_8309_jpg, tiledrooftop).
holds(s_8309_jpg, vendingmachine).
holds(s_8309_jpg, wallsign).
holds(s_8309_jpg, statue).
holds(s_8309_jpg, pipe).
holds(s_8309_jpg, car).
holds(s_8309_jpg, residential).

sample(s_7523_jpg).
holds(s_7523_jpg, building).
holds(s_7523_jpg, feature).
holds(s_7523_jpg, suburban).
holds(s_7523_jpg, door).
holds(s_7523_jpg, window).
holds(s_7523_jpg, awning).
holds(s_7523_jpg, porch).
holds(s_7523_jpg, tiledrooftop).
holds(s_7523_jpg, vendingmachine).
holds(s_7523_jpg, wallsign).
holds(s_7523_jpg, statue).
holds(s_7523_jpg, residential).

sample(s_4551_jpg).
holds(s_4551_jpg, building).
holds(s_4551_jpg, feature).
holds(s_4551_jpg, hotel).
holds(s_4551_jpg, door).
holds(s_4551_jpg, awning).
holds(s_4551_jpg, billboard).
holds(s_4551_jpg, porch).
holds(s_4551_jpg, sign).
holds(s_4551_jpg, tiledrooftop).
holds(s_4551_jpg, pipe).
holds(s_4551_jpg, machine).
holds(s_4551_jpg, commercial).

sample(s_14915_jpg).
holds(s_14915_jpg, building).
holds(s_14915_jpg, feature).
holds(s_14915_jpg, suburban).
holds(s_14915_jpg, door).
holds(s_14915_jpg, window).
holds(s_14915_jpg, awning).
holds(s_14915_jpg, porch).
holds(s_14915_jpg, table).
holds(s_14915_jpg, tiledrooftop).
holds(s_14915_jpg, vendingmachine).
holds(s_14915_jpg, wallsign).
holds(s_14915_jpg, statue).
holds(s_14915_jpg, residential).

sample(s_14963_jpg).
holds(s_14963_jpg, building).
holds(s_14963_jpg, feature).
holds(s_14963_jpg, suburban).
holds(s_14963_jpg, door).
holds(s_14963_jpg, window).
holds(s_14963_jpg, awning).
holds(s_14963_jpg, porch).
holds(s_14963_jpg, tiledrooftop).
holds(s_14963_jpg, vendingmachine).
holds(s_14963_jpg, wallsign).
holds(s_14963_jpg, statue).
holds(s_14963_jpg, pipe).
holds(s_14963_jpg, residential).

sample(s_7408_jpg).
holds(s_7408_jpg, building).
holds(s_7408_jpg, feature).
holds(s_7408_jpg, constructionsite).
holds(s_7408_jpg, door).
holds(s_7408_jpg, awning).
holds(s_7408_jpg, billboard).
holds(s_7408_jpg, porch).
holds(s_7408_jpg, tiledrooftop).
holds(s_7408_jpg, vendingmachine).
holds(s_7408_jpg, wallsign).
holds(s_7408_jpg, statue).
holds(s_7408_jpg, chimney).
holds(s_7408_jpg, pipe).
holds(s_7408_jpg, machine).
holds(s_7408_jpg, industrial).

sample(s_9684_jpg).
holds(s_9684_jpg, building).
holds(s_9684_jpg, feature).
holds(s_9684_jpg, hotel).
holds(s_9684_jpg, door).
holds(s_9684_jpg, awning).
holds(s_9684_jpg, porch).
holds(s_9684_jpg, sign).
holds(s_9684_jpg, tiledrooftop).
holds(s_9684_jpg, statue).
holds(s_9684_jpg, pipe).
holds(s_9684_jpg, machine).
holds(s_9684_jpg, commercial).

sample(s_2594_jpg).
holds(s_2594_jpg, building).
holds(s_2594_jpg, feature).
holds(s_2594_jpg, suburban).
holds(s_2594_jpg, door).
holds(s_2594_jpg, window).
holds(s_2594_jpg, awning).
holds(s_2594_jpg, porch).
holds(s_2594_jpg, tiledrooftop).
holds(s_2594_jpg, vendingmachine).
holds(s_2594_jpg, wallsign).
holds(s_2594_jpg, statue).
holds(s_2594_jpg, pipe).
holds(s_2594_jpg, residential).

sample(s_2017_jpg).
holds(s_2017_jpg, building).
holds(s_2017_jpg, feature).
holds(s_2017_jpg, constructionsite).
holds(s_2017_jpg, door).
holds(s_2017_jpg, awning).
holds(s_2017_jpg, billboard).
holds(s_2017_jpg, porch).
holds(s_2017_jpg, tiledrooftop).
holds(s_2017_jpg, wallsign).
holds(s_2017_jpg, chimney).
holds(s_2017_jpg, pipe).
holds(s_2017_jpg, machine).
holds(s_2017_jpg, industrial).

sample(s_1485_jpg).
holds(s_1485_jpg, building).
holds(s_1485_jpg, feature).
holds(s_1485_jpg, hotel).
holds(s_1485_jpg, door).
holds(s_1485_jpg, awning).
holds(s_1485_jpg, porch).
holds(s_1485_jpg, sign).
holds(s_1485_jpg, tiledrooftop).
holds(s_1485_jpg, chimney).
holds(s_1485_jpg, pipe).
holds(s_1485_jpg, machine).
holds(s_1485_jpg, commercial).

sample(s_11055_jpg).
holds(s_11055_jpg, building).
holds(s_11055_jpg, feature).
holds(s_11055_jpg, hotel).
holds(s_11055_jpg, door).
holds(s_11055_jpg, awning).
holds(s_11055_jpg, billboard).
holds(s_11055_jpg, porch).
holds(s_11055_jpg, sign).
holds(s_11055_jpg, tiledrooftop).
holds(s_11055_jpg, statue).
holds(s_11055_jpg, chimney).
holds(s_11055_jpg, pipe).
holds(s_11055_jpg, machine).
holds(s_11055_jpg, commercial).

sample(s_4737_jpg).
holds(s_4737_jpg, building).
holds(s_4737_jpg, feature).
holds(s_4737_jpg, hotel).
holds(s_4737_jpg, door).
holds(s_4737_jpg, awning).
holds(s_4737_jpg, billboard).
holds(s_4737_jpg, porch).
holds(s_4737_jpg, sign).
holds(s_4737_jpg, tiledrooftop).
holds(s_4737_jpg, pipe).
holds(s_4737_jpg, machine).
holds(s_4737_jpg, commercial).

sample(s_4824_jpg).
holds(s_4824_jpg, building).
holds(s_4824_jpg, feature).
holds(s_4824_jpg, hotel).
holds(s_4824_jpg, door).
holds(s_4824_jpg, window).
holds(s_4824_jpg, awning).
holds(s_4824_jpg, porch).
holds(s_4824_jpg, tiledrooftop).
holds(s_4824_jpg, vendingmachine).
holds(s_4824_jpg, statue).
holds(s_4824_jpg, chimney).
holds(s_4824_jpg, machine).
holds(s_4824_jpg, commercial).

sample(s_724_jpg).
holds(s_724_jpg, building).
holds(s_724_jpg, feature).
holds(s_724_jpg, constructionsite).
holds(s_724_jpg, awning).
holds(s_724_jpg, billboard).
holds(s_724_jpg, porch).
holds(s_724_jpg, tiledrooftop).
holds(s_724_jpg, wallsign).
holds(s_724_jpg, chimney).
holds(s_724_jpg, pipe).
holds(s_724_jpg, machine).
holds(s_724_jpg, industrial).

sample(s_6866_jpg).
holds(s_6866_jpg, building).
holds(s_6866_jpg, feature).
holds(s_6866_jpg, suburban).
holds(s_6866_jpg, door).
holds(s_6866_jpg, awning).
holds(s_6866_jpg, table).
holds(s_6866_jpg, vendingmachine).
holds(s_6866_jpg, wallsign).
holds(s_6866_jpg, statue).
holds(s_6866_jpg, chimney).
holds(s_6866_jpg, pipe).
holds(s_6866_jpg, truck).
holds(s_6866_jpg, car).
holds(s_6866_jpg, residential).

sample(s_2975_jpg).
holds(s_2975_jpg, building).
holds(s_2975_jpg, feature).
holds(s_2975_jpg, suburban).
holds(s_2975_jpg, door).
holds(s_2975_jpg, window).
holds(s_2975_jpg, awning).
holds(s_2975_jpg, porch).
holds(s_2975_jpg, tiledrooftop).
holds(s_2975_jpg, vendingmachine).
holds(s_2975_jpg, wallsign).
holds(s_2975_jpg, statue).
holds(s_2975_jpg, pipe).
holds(s_2975_jpg, car).
holds(s_2975_jpg, residential).

sample(s_2655_jpg).
holds(s_2655_jpg, building).
holds(s_2655_jpg, feature).
holds(s_2655_jpg, hotel).
holds(s_2655_jpg, door).
holds(s_2655_jpg, awning).
holds(s_2655_jpg, billboard).
holds(s_2655_jpg, porch).
holds(s_2655_jpg, sign).
holds(s_2655_jpg, tiledrooftop).
holds(s_2655_jpg, pipe).
holds(s_2655_jpg, machine).
holds(s_2655_jpg, commercial).

sample(s_9548_jpg).
holds(s_9548_jpg, building).
holds(s_9548_jpg, feature).
holds(s_9548_jpg, suburban).
holds(s_9548_jpg, door).
holds(s_9548_jpg, window).
holds(s_9548_jpg, awning).
holds(s_9548_jpg, porch).
holds(s_9548_jpg, tiledrooftop).
holds(s_9548_jpg, vendingmachine).
holds(s_9548_jpg, wallsign).
holds(s_9548_jpg, statue).
holds(s_9548_jpg, pipe).
holds(s_9548_jpg, residential).

sample(s_13478_jpg).
holds(s_13478_jpg, building).
holds(s_13478_jpg, feature).
holds(s_13478_jpg, suburban).
holds(s_13478_jpg, door).
holds(s_13478_jpg, window).
holds(s_13478_jpg, awning).
holds(s_13478_jpg, table).
holds(s_13478_jpg, tiledrooftop).
holds(s_13478_jpg, vendingmachine).
holds(s_13478_jpg, wallsign).
holds(s_13478_jpg, statue).
holds(s_13478_jpg, pipe).
holds(s_13478_jpg, residential).

sample(s_3348_jpg).
holds(s_3348_jpg, building).
holds(s_3348_jpg, feature).
holds(s_3348_jpg, hotel).
holds(s_3348_jpg, door).
holds(s_3348_jpg, awning).
holds(s_3348_jpg, porch).
holds(s_3348_jpg, tiledrooftop).
holds(s_3348_jpg, statue).
holds(s_3348_jpg, chimney).
holds(s_3348_jpg, machine).
holds(s_3348_jpg, commercial).

sample(s_2614_jpg).
holds(s_2614_jpg, building).
holds(s_2614_jpg, feature).
holds(s_2614_jpg, constructionsite).
holds(s_2614_jpg, door).
holds(s_2614_jpg, awning).
holds(s_2614_jpg, billboard).
holds(s_2614_jpg, porch).
holds(s_2614_jpg, vendingmachine).
holds(s_2614_jpg, wallsign).
holds(s_2614_jpg, chimney).
holds(s_2614_jpg, pipe).
holds(s_2614_jpg, machine).
holds(s_2614_jpg, industrial).

sample(s_11829_jpg).
holds(s_11829_jpg, building).
holds(s_11829_jpg, feature).
holds(s_11829_jpg, constructionsite).
holds(s_11829_jpg, door).
holds(s_11829_jpg, awning).
holds(s_11829_jpg, billboard).
holds(s_11829_jpg, porch).
holds(s_11829_jpg, tiledrooftop).
holds(s_11829_jpg, vendingmachine).
holds(s_11829_jpg, wallsign).
holds(s_11829_jpg, chimney).
holds(s_11829_jpg, pipe).
holds(s_11829_jpg, machine).
holds(s_11829_jpg, truck).
holds(s_11829_jpg, car).
holds(s_11829_jpg, industrial).

sample(s_9640_jpg).
holds(s_9640_jpg, building).
holds(s_9640_jpg, feature).
holds(s_9640_jpg, constructionsite).
holds(s_9640_jpg, door).
holds(s_9640_jpg, awning).
holds(s_9640_jpg, billboard).
holds(s_9640_jpg, porch).
holds(s_9640_jpg, tiledrooftop).
holds(s_9640_jpg, vendingmachine).
holds(s_9640_jpg, wallsign).
holds(s_9640_jpg, chimney).
holds(s_9640_jpg, pipe).
holds(s_9640_jpg, machine).
holds(s_9640_jpg, industrial).

sample(s_9086_jpg).
holds(s_9086_jpg, building).
holds(s_9086_jpg, feature).
holds(s_9086_jpg, suburban).
holds(s_9086_jpg, door).
holds(s_9086_jpg, awning).
holds(s_9086_jpg, billboard).
holds(s_9086_jpg, porch).
holds(s_9086_jpg, tiledrooftop).
holds(s_9086_jpg, vendingmachine).
holds(s_9086_jpg, wallsign).
holds(s_9086_jpg, statue).
holds(s_9086_jpg, chimney).
holds(s_9086_jpg, pipe).
holds(s_9086_jpg, truck).
holds(s_9086_jpg, car).
holds(s_9086_jpg, residential).

sample(s_4684_jpg).
holds(s_4684_jpg, building).
holds(s_4684_jpg, feature).
holds(s_4684_jpg, constructionsite).
holds(s_4684_jpg, door).
holds(s_4684_jpg, awning).
holds(s_4684_jpg, billboard).
holds(s_4684_jpg, porch).
holds(s_4684_jpg, tiledrooftop).
holds(s_4684_jpg, vendingmachine).
holds(s_4684_jpg, wallsign).
holds(s_4684_jpg, statue).
holds(s_4684_jpg, chimney).
holds(s_4684_jpg, pipe).
holds(s_4684_jpg, machine).
holds(s_4684_jpg, industrial).

sample(s_2501_jpg).
holds(s_2501_jpg, building).
holds(s_2501_jpg, feature).
holds(s_2501_jpg, suburban).
holds(s_2501_jpg, door).
holds(s_2501_jpg, window).
holds(s_2501_jpg, awning).
holds(s_2501_jpg, porch).
holds(s_2501_jpg, tiledrooftop).
holds(s_2501_jpg, vendingmachine).
holds(s_2501_jpg, statue).
holds(s_2501_jpg, residential).

sample(s_5062_jpg).
holds(s_5062_jpg, building).
holds(s_5062_jpg, feature).
holds(s_5062_jpg, constructionsite).
holds(s_5062_jpg, door).
holds(s_5062_jpg, awning).
holds(s_5062_jpg, billboard).
holds(s_5062_jpg, porch).
holds(s_5062_jpg, tiledrooftop).
holds(s_5062_jpg, vendingmachine).
holds(s_5062_jpg, wallsign).
holds(s_5062_jpg, chimney).
holds(s_5062_jpg, pipe).
holds(s_5062_jpg, machine).
holds(s_5062_jpg, industrial).

sample(s_2762_jpg).
holds(s_2762_jpg, building).
holds(s_2762_jpg, feature).
holds(s_2762_jpg, suburban).
holds(s_2762_jpg, door).
holds(s_2762_jpg, window).
holds(s_2762_jpg, awning).
holds(s_2762_jpg, porch).
holds(s_2762_jpg, tiledrooftop).
holds(s_2762_jpg, vendingmachine).
holds(s_2762_jpg, wallsign).
holds(s_2762_jpg, statue).
holds(s_2762_jpg, residential).

sample(s_6782_jpg).
holds(s_6782_jpg, building).
holds(s_6782_jpg, feature).
holds(s_6782_jpg, suburban).
holds(s_6782_jpg, door).
holds(s_6782_jpg, window).
holds(s_6782_jpg, awning).
holds(s_6782_jpg, porch).
holds(s_6782_jpg, table).
holds(s_6782_jpg, tiledrooftop).
holds(s_6782_jpg, vendingmachine).
holds(s_6782_jpg, wallsign).
holds(s_6782_jpg, statue).
holds(s_6782_jpg, pipe).
holds(s_6782_jpg, car).
holds(s_6782_jpg, residential).

sample(s_5889_jpg).
holds(s_5889_jpg, building).
holds(s_5889_jpg, feature).
holds(s_5889_jpg, hotel).
holds(s_5889_jpg, door).
holds(s_5889_jpg, awning).
holds(s_5889_jpg, porch).
holds(s_5889_jpg, tiledrooftop).
holds(s_5889_jpg, statue).
holds(s_5889_jpg, chimney).
holds(s_5889_jpg, machine).
holds(s_5889_jpg, commercial).

sample(s_15929_jpg).
holds(s_15929_jpg, building).
holds(s_15929_jpg, feature).
holds(s_15929_jpg, suburban).
holds(s_15929_jpg, door).
holds(s_15929_jpg, awning).
holds(s_15929_jpg, porch).
holds(s_15929_jpg, table).
holds(s_15929_jpg, tiledrooftop).
holds(s_15929_jpg, vendingmachine).
holds(s_15929_jpg, wallsign).
holds(s_15929_jpg, statue).
holds(s_15929_jpg, chimney).
holds(s_15929_jpg, pipe).
holds(s_15929_jpg, truck).
holds(s_15929_jpg, car).
holds(s_15929_jpg, residential).

sample(s_11071_jpg).
holds(s_11071_jpg, building).
holds(s_11071_jpg, feature).
holds(s_11071_jpg, constructionsite).
holds(s_11071_jpg, awning).
holds(s_11071_jpg, billboard).
holds(s_11071_jpg, porch).
holds(s_11071_jpg, tiledrooftop).
holds(s_11071_jpg, wallsign).
holds(s_11071_jpg, chimney).
holds(s_11071_jpg, machine).
holds(s_11071_jpg, industrial).

sample(s_14664_jpg).
holds(s_14664_jpg, building).
holds(s_14664_jpg, feature).
holds(s_14664_jpg, hotel).
holds(s_14664_jpg, door).
holds(s_14664_jpg, awning).
holds(s_14664_jpg, porch).
holds(s_14664_jpg, tiledrooftop).
holds(s_14664_jpg, wallsign).
holds(s_14664_jpg, statue).
holds(s_14664_jpg, chimney).
holds(s_14664_jpg, pipe).
holds(s_14664_jpg, machine).
holds(s_14664_jpg, commercial).

sample(s_8785_jpg).
holds(s_8785_jpg, building).
holds(s_8785_jpg, feature).
holds(s_8785_jpg, constructionsite).
holds(s_8785_jpg, door).
holds(s_8785_jpg, awning).
holds(s_8785_jpg, billboard).
holds(s_8785_jpg, porch).
holds(s_8785_jpg, tiledrooftop).
holds(s_8785_jpg, wallsign).
holds(s_8785_jpg, chimney).
holds(s_8785_jpg, pipe).
holds(s_8785_jpg, machine).
holds(s_8785_jpg, industrial).

sample(s_206_jpg).
holds(s_206_jpg, building).
holds(s_206_jpg, feature).
holds(s_206_jpg, suburban).
holds(s_206_jpg, door).
holds(s_206_jpg, window).
holds(s_206_jpg, awning).
holds(s_206_jpg, porch).
holds(s_206_jpg, tiledrooftop).
holds(s_206_jpg, vendingmachine).
holds(s_206_jpg, statue).
holds(s_206_jpg, pipe).
holds(s_206_jpg, residential).

sample(s_7518_jpg).
holds(s_7518_jpg, building).
holds(s_7518_jpg, feature).
holds(s_7518_jpg, hotel).
holds(s_7518_jpg, door).
holds(s_7518_jpg, awning).
holds(s_7518_jpg, billboard).
holds(s_7518_jpg, porch).
holds(s_7518_jpg, tiledrooftop).
holds(s_7518_jpg, statue).
holds(s_7518_jpg, chimney).
holds(s_7518_jpg, machine).
holds(s_7518_jpg, commercial).

sample(s_7488_jpg).
holds(s_7488_jpg, building).
holds(s_7488_jpg, feature).
holds(s_7488_jpg, hotel).
holds(s_7488_jpg, door).
holds(s_7488_jpg, awning).
holds(s_7488_jpg, billboard).
holds(s_7488_jpg, porch).
holds(s_7488_jpg, sign).
holds(s_7488_jpg, tiledrooftop).
holds(s_7488_jpg, pipe).
holds(s_7488_jpg, machine).
holds(s_7488_jpg, commercial).

sample(s_15882_jpg).
holds(s_15882_jpg, building).
holds(s_15882_jpg, feature).
holds(s_15882_jpg, hotel).
holds(s_15882_jpg, door).
holds(s_15882_jpg, awning).
holds(s_15882_jpg, billboard).
holds(s_15882_jpg, porch).
holds(s_15882_jpg, sign).
holds(s_15882_jpg, tiledrooftop).
holds(s_15882_jpg, pipe).
holds(s_15882_jpg, machine).
holds(s_15882_jpg, commercial).

sample(s_11187_jpg).
holds(s_11187_jpg, building).
holds(s_11187_jpg, feature).
holds(s_11187_jpg, hotel).
holds(s_11187_jpg, door).
holds(s_11187_jpg, awning).
holds(s_11187_jpg, porch).
holds(s_11187_jpg, tiledrooftop).
holds(s_11187_jpg, vendingmachine).
holds(s_11187_jpg, statue).
holds(s_11187_jpg, chimney).
holds(s_11187_jpg, machine).
holds(s_11187_jpg, commercial).

sample(s_1752_jpg).
holds(s_1752_jpg, building).
holds(s_1752_jpg, feature).
holds(s_1752_jpg, hotel).
holds(s_1752_jpg, door).
holds(s_1752_jpg, awning).
holds(s_1752_jpg, billboard).
holds(s_1752_jpg, porch).
holds(s_1752_jpg, sign).
holds(s_1752_jpg, tiledrooftop).
holds(s_1752_jpg, statue).
holds(s_1752_jpg, chimney).
holds(s_1752_jpg, pipe).
holds(s_1752_jpg, machine).
holds(s_1752_jpg, commercial).

sample(s_9710_jpg).
holds(s_9710_jpg, building).
holds(s_9710_jpg, feature).
holds(s_9710_jpg, suburban).
holds(s_9710_jpg, door).
holds(s_9710_jpg, window).
holds(s_9710_jpg, awning).
holds(s_9710_jpg, porch).
holds(s_9710_jpg, tiledrooftop).
holds(s_9710_jpg, vendingmachine).
holds(s_9710_jpg, statue).
holds(s_9710_jpg, pipe).
holds(s_9710_jpg, residential).

sample(s_1344_jpg).
holds(s_1344_jpg, building).
holds(s_1344_jpg, feature).
holds(s_1344_jpg, hotel).
holds(s_1344_jpg, door).
holds(s_1344_jpg, awning).
holds(s_1344_jpg, billboard).
holds(s_1344_jpg, porch).
holds(s_1344_jpg, sign).
holds(s_1344_jpg, tiledrooftop).
holds(s_1344_jpg, pipe).
holds(s_1344_jpg, machine).
holds(s_1344_jpg, commercial).

sample(s_11621_jpg).
holds(s_11621_jpg, building).
holds(s_11621_jpg, feature).
holds(s_11621_jpg, suburban).
holds(s_11621_jpg, door).
holds(s_11621_jpg, window).
holds(s_11621_jpg, awning).
holds(s_11621_jpg, porch).
holds(s_11621_jpg, table).
holds(s_11621_jpg, tiledrooftop).
holds(s_11621_jpg, vendingmachine).
holds(s_11621_jpg, wallsign).
holds(s_11621_jpg, statue).
holds(s_11621_jpg, pipe).
holds(s_11621_jpg, car).
holds(s_11621_jpg, residential).

sample(s_1565_jpg).
holds(s_1565_jpg, building).
holds(s_1565_jpg, feature).
holds(s_1565_jpg, suburban).
holds(s_1565_jpg, door).
holds(s_1565_jpg, window).
holds(s_1565_jpg, awning).
holds(s_1565_jpg, porch).
holds(s_1565_jpg, table).
holds(s_1565_jpg, tiledrooftop).
holds(s_1565_jpg, vendingmachine).
holds(s_1565_jpg, wallsign).
holds(s_1565_jpg, statue).
holds(s_1565_jpg, pipe).
holds(s_1565_jpg, car).
holds(s_1565_jpg, residential).

sample(s_7787_jpg).
holds(s_7787_jpg, building).
holds(s_7787_jpg, feature).
holds(s_7787_jpg, suburban).
holds(s_7787_jpg, door).
holds(s_7787_jpg, window).
holds(s_7787_jpg, awning).
holds(s_7787_jpg, table).
holds(s_7787_jpg, tiledrooftop).
holds(s_7787_jpg, vendingmachine).
holds(s_7787_jpg, wallsign).
holds(s_7787_jpg, statue).
holds(s_7787_jpg, pipe).
holds(s_7787_jpg, residential).

sample(s_813_jpg).
holds(s_813_jpg, building).
holds(s_813_jpg, feature).
holds(s_813_jpg, hotel).
holds(s_813_jpg, door).
holds(s_813_jpg, awning).
holds(s_813_jpg, billboard).
holds(s_813_jpg, porch).
holds(s_813_jpg, sign).
holds(s_813_jpg, tiledrooftop).
holds(s_813_jpg, pipe).
holds(s_813_jpg, machine).
holds(s_813_jpg, commercial).

sample(s_7939_jpg).
holds(s_7939_jpg, building).
holds(s_7939_jpg, feature).
holds(s_7939_jpg, constructionsite).
holds(s_7939_jpg, awning).
holds(s_7939_jpg, billboard).
holds(s_7939_jpg, porch).
holds(s_7939_jpg, tiledrooftop).
holds(s_7939_jpg, wallsign).
holds(s_7939_jpg, chimney).
holds(s_7939_jpg, machine).
holds(s_7939_jpg, industrial).

sample(s_11547_jpg).
holds(s_11547_jpg, building).
holds(s_11547_jpg, feature).
holds(s_11547_jpg, hotel).
holds(s_11547_jpg, door).
holds(s_11547_jpg, awning).
holds(s_11547_jpg, billboard).
holds(s_11547_jpg, porch).
holds(s_11547_jpg, sign).
holds(s_11547_jpg, tiledrooftop).
holds(s_11547_jpg, chimney).
holds(s_11547_jpg, machine).
holds(s_11547_jpg, commercial).

sample(s_4154_jpg).
holds(s_4154_jpg, building).
holds(s_4154_jpg, feature).
holds(s_4154_jpg, suburban).
holds(s_4154_jpg, door).
holds(s_4154_jpg, window).
holds(s_4154_jpg, awning).
holds(s_4154_jpg, porch).
holds(s_4154_jpg, tiledrooftop).
holds(s_4154_jpg, vendingmachine).
holds(s_4154_jpg, wallsign).
holds(s_4154_jpg, statue).
holds(s_4154_jpg, residential).

sample(s_4479_jpg).
holds(s_4479_jpg, building).
holds(s_4479_jpg, feature).
holds(s_4479_jpg, hotel).
holds(s_4479_jpg, door).
holds(s_4479_jpg, window).
holds(s_4479_jpg, awning).
holds(s_4479_jpg, porch).
holds(s_4479_jpg, tiledrooftop).
holds(s_4479_jpg, statue).
holds(s_4479_jpg, chimney).
holds(s_4479_jpg, pipe).
holds(s_4479_jpg, machine).
holds(s_4479_jpg, commercial).

sample(s_14477_jpg).
holds(s_14477_jpg, building).
holds(s_14477_jpg, feature).
holds(s_14477_jpg, suburban).
holds(s_14477_jpg, door).
holds(s_14477_jpg, window).
holds(s_14477_jpg, awning).
holds(s_14477_jpg, porch).
holds(s_14477_jpg, table).
holds(s_14477_jpg, tiledrooftop).
holds(s_14477_jpg, vendingmachine).
holds(s_14477_jpg, wallsign).
holds(s_14477_jpg, statue).
holds(s_14477_jpg, residential).

sample(s_3738_jpg).
holds(s_3738_jpg, building).
holds(s_3738_jpg, feature).
holds(s_3738_jpg, hotel).
holds(s_3738_jpg, door).
holds(s_3738_jpg, awning).
holds(s_3738_jpg, billboard).
holds(s_3738_jpg, porch).
holds(s_3738_jpg, tiledrooftop).
holds(s_3738_jpg, statue).
holds(s_3738_jpg, chimney).
holds(s_3738_jpg, machine).
holds(s_3738_jpg, commercial).

sample(s_671_jpg).
holds(s_671_jpg, building).
holds(s_671_jpg, feature).
holds(s_671_jpg, suburban).
holds(s_671_jpg, door).
holds(s_671_jpg, window).
holds(s_671_jpg, awning).
holds(s_671_jpg, table).
holds(s_671_jpg, tiledrooftop).
holds(s_671_jpg, vendingmachine).
holds(s_671_jpg, wallsign).
holds(s_671_jpg, statue).
holds(s_671_jpg, pipe).
holds(s_671_jpg, car).
holds(s_671_jpg, residential).

sample(s_10545_jpg).
holds(s_10545_jpg, building).
holds(s_10545_jpg, feature).
holds(s_10545_jpg, hotel).
holds(s_10545_jpg, door).
holds(s_10545_jpg, awning).
holds(s_10545_jpg, billboard).
holds(s_10545_jpg, porch).
holds(s_10545_jpg, sign).
holds(s_10545_jpg, tiledrooftop).
holds(s_10545_jpg, pipe).
holds(s_10545_jpg, machine).
holds(s_10545_jpg, commercial).

sample(s_14499_jpg).
holds(s_14499_jpg, building).
holds(s_14499_jpg, feature).
holds(s_14499_jpg, hotel).
holds(s_14499_jpg, door).
holds(s_14499_jpg, awning).
holds(s_14499_jpg, billboard).
holds(s_14499_jpg, porch).
holds(s_14499_jpg, sign).
holds(s_14499_jpg, tiledrooftop).
holds(s_14499_jpg, statue).
holds(s_14499_jpg, chimney).
holds(s_14499_jpg, machine).
holds(s_14499_jpg, commercial).

sample(s_4571_jpg).
holds(s_4571_jpg, building).
holds(s_4571_jpg, feature).
holds(s_4571_jpg, suburban).
holds(s_4571_jpg, door).
holds(s_4571_jpg, window).
holds(s_4571_jpg, awning).
holds(s_4571_jpg, table).
holds(s_4571_jpg, tiledrooftop).
holds(s_4571_jpg, vendingmachine).
holds(s_4571_jpg, wallsign).
holds(s_4571_jpg, statue).
holds(s_4571_jpg, pipe).
holds(s_4571_jpg, car).
holds(s_4571_jpg, residential).

sample(s_1756_jpg).
holds(s_1756_jpg, building).
holds(s_1756_jpg, feature).
holds(s_1756_jpg, constructionsite).
holds(s_1756_jpg, door).
holds(s_1756_jpg, awning).
holds(s_1756_jpg, billboard).
holds(s_1756_jpg, porch).
holds(s_1756_jpg, tiledrooftop).
holds(s_1756_jpg, vendingmachine).
holds(s_1756_jpg, wallsign).
holds(s_1756_jpg, chimney).
holds(s_1756_jpg, pipe).
holds(s_1756_jpg, machine).
holds(s_1756_jpg, industrial).

sample(s_10942_jpg).
holds(s_10942_jpg, building).
holds(s_10942_jpg, feature).
holds(s_10942_jpg, constructionsite).
holds(s_10942_jpg, awning).
holds(s_10942_jpg, porch).
holds(s_10942_jpg, tiledrooftop).
holds(s_10942_jpg, vendingmachine).
holds(s_10942_jpg, wallsign).
holds(s_10942_jpg, statue).
holds(s_10942_jpg, chimney).
holds(s_10942_jpg, pipe).
holds(s_10942_jpg, machine).
holds(s_10942_jpg, industrial).

sample(s_11487_jpg).
holds(s_11487_jpg, building).
holds(s_11487_jpg, feature).
holds(s_11487_jpg, hotel).
holds(s_11487_jpg, door).
holds(s_11487_jpg, awning).
holds(s_11487_jpg, billboard).
holds(s_11487_jpg, porch).
holds(s_11487_jpg, sign).
holds(s_11487_jpg, tiledrooftop).
holds(s_11487_jpg, statue).
holds(s_11487_jpg, chimney).
holds(s_11487_jpg, pipe).
holds(s_11487_jpg, machine).
holds(s_11487_jpg, commercial).

sample(s_9112_jpg).
holds(s_9112_jpg, building).
holds(s_9112_jpg, feature).
holds(s_9112_jpg, constructionsite).
holds(s_9112_jpg, awning).
holds(s_9112_jpg, billboard).
holds(s_9112_jpg, porch).
holds(s_9112_jpg, tiledrooftop).
holds(s_9112_jpg, chimney).
holds(s_9112_jpg, machine).
holds(s_9112_jpg, industrial).

sample(s_6216_jpg).
holds(s_6216_jpg, building).
holds(s_6216_jpg, feature).
holds(s_6216_jpg, hotel).
holds(s_6216_jpg, door).
holds(s_6216_jpg, awning).
holds(s_6216_jpg, billboard).
holds(s_6216_jpg, porch).
holds(s_6216_jpg, tiledrooftop).
holds(s_6216_jpg, wallsign).
holds(s_6216_jpg, statue).
holds(s_6216_jpg, chimney).
holds(s_6216_jpg, pipe).
holds(s_6216_jpg, machine).
holds(s_6216_jpg, truck).
holds(s_6216_jpg, commercial).

sample(s_7823_jpg).
holds(s_7823_jpg, building).
holds(s_7823_jpg, feature).
holds(s_7823_jpg, suburban).
holds(s_7823_jpg, door).
holds(s_7823_jpg, window).
holds(s_7823_jpg, awning).
holds(s_7823_jpg, porch).
holds(s_7823_jpg, tiledrooftop).
holds(s_7823_jpg, vendingmachine).
holds(s_7823_jpg, statue).
holds(s_7823_jpg, machine).
holds(s_7823_jpg, residential).

sample(s_3784_jpg).
holds(s_3784_jpg, building).
holds(s_3784_jpg, feature).
holds(s_3784_jpg, constructionsite).
holds(s_3784_jpg, awning).
holds(s_3784_jpg, billboard).
holds(s_3784_jpg, porch).
holds(s_3784_jpg, tiledrooftop).
holds(s_3784_jpg, wallsign).
holds(s_3784_jpg, chimney).
holds(s_3784_jpg, pipe).
holds(s_3784_jpg, machine).
holds(s_3784_jpg, industrial).

sample(s_9874_jpg).
holds(s_9874_jpg, building).
holds(s_9874_jpg, feature).
holds(s_9874_jpg, constructionsite).
holds(s_9874_jpg, awning).
holds(s_9874_jpg, billboard).
holds(s_9874_jpg, porch).
holds(s_9874_jpg, tiledrooftop).
holds(s_9874_jpg, wallsign).
holds(s_9874_jpg, chimney).
holds(s_9874_jpg, pipe).
holds(s_9874_jpg, machine).
holds(s_9874_jpg, industrial).

sample(s_6073_jpg).
holds(s_6073_jpg, building).
holds(s_6073_jpg, feature).
holds(s_6073_jpg, constructionsite).
holds(s_6073_jpg, door).
holds(s_6073_jpg, awning).
holds(s_6073_jpg, billboard).
holds(s_6073_jpg, porch).
holds(s_6073_jpg, tiledrooftop).
holds(s_6073_jpg, wallsign).
holds(s_6073_jpg, chimney).
holds(s_6073_jpg, pipe).
holds(s_6073_jpg, machine).
holds(s_6073_jpg, industrial).

sample(s_12160_jpg).
holds(s_12160_jpg, building).
holds(s_12160_jpg, feature).
holds(s_12160_jpg, constructionsite).
holds(s_12160_jpg, awning).
holds(s_12160_jpg, billboard).
holds(s_12160_jpg, porch).
holds(s_12160_jpg, tiledrooftop).
holds(s_12160_jpg, wallsign).
holds(s_12160_jpg, chimney).
holds(s_12160_jpg, pipe).
holds(s_12160_jpg, machine).
holds(s_12160_jpg, industrial).

sample(s_9043_jpg).
holds(s_9043_jpg, building).
holds(s_9043_jpg, feature).
holds(s_9043_jpg, constructionsite).
holds(s_9043_jpg, awning).
holds(s_9043_jpg, billboard).
holds(s_9043_jpg, porch).
holds(s_9043_jpg, tiledrooftop).
holds(s_9043_jpg, wallsign).
holds(s_9043_jpg, chimney).
holds(s_9043_jpg, pipe).
holds(s_9043_jpg, machine).
holds(s_9043_jpg, industrial).

sample(s_4748_jpg).
holds(s_4748_jpg, building).
holds(s_4748_jpg, feature).
holds(s_4748_jpg, suburban).
holds(s_4748_jpg, door).
holds(s_4748_jpg, window).
holds(s_4748_jpg, awning).
holds(s_4748_jpg, porch).
holds(s_4748_jpg, tiledrooftop).
holds(s_4748_jpg, vendingmachine).
holds(s_4748_jpg, wallsign).
holds(s_4748_jpg, statue).
holds(s_4748_jpg, pipe).
holds(s_4748_jpg, residential).

sample(s_3227_jpg).
holds(s_3227_jpg, building).
holds(s_3227_jpg, feature).
holds(s_3227_jpg, suburban).
holds(s_3227_jpg, door).
holds(s_3227_jpg, window).
holds(s_3227_jpg, awning).
holds(s_3227_jpg, porch).
holds(s_3227_jpg, tiledrooftop).
holds(s_3227_jpg, vendingmachine).
holds(s_3227_jpg, wallsign).
holds(s_3227_jpg, statue).
holds(s_3227_jpg, pipe).
holds(s_3227_jpg, residential).

sample(s_14804_jpg).
holds(s_14804_jpg, building).
holds(s_14804_jpg, feature).
holds(s_14804_jpg, suburban).
holds(s_14804_jpg, door).
holds(s_14804_jpg, window).
holds(s_14804_jpg, awning).
holds(s_14804_jpg, porch).
holds(s_14804_jpg, tiledrooftop).
holds(s_14804_jpg, vendingmachine).
holds(s_14804_jpg, statue).
holds(s_14804_jpg, pipe).
holds(s_14804_jpg, residential).

sample(s_1694_jpg).
holds(s_1694_jpg, building).
holds(s_1694_jpg, feature).
holds(s_1694_jpg, suburban).
holds(s_1694_jpg, door).
holds(s_1694_jpg, window).
holds(s_1694_jpg, awning).
holds(s_1694_jpg, porch).
holds(s_1694_jpg, tiledrooftop).
holds(s_1694_jpg, vendingmachine).
holds(s_1694_jpg, wallsign).
holds(s_1694_jpg, statue).
holds(s_1694_jpg, pipe).
holds(s_1694_jpg, residential).

sample(s_1410_jpg).
holds(s_1410_jpg, building).
holds(s_1410_jpg, feature).
holds(s_1410_jpg, hotel).
holds(s_1410_jpg, door).
holds(s_1410_jpg, awning).
holds(s_1410_jpg, billboard).
holds(s_1410_jpg, porch).
holds(s_1410_jpg, sign).
holds(s_1410_jpg, tiledrooftop).
holds(s_1410_jpg, pipe).
holds(s_1410_jpg, machine).
holds(s_1410_jpg, commercial).

sample(s_4817_jpg).
holds(s_4817_jpg, building).
holds(s_4817_jpg, feature).
holds(s_4817_jpg, suburban).
holds(s_4817_jpg, door).
holds(s_4817_jpg, awning).
holds(s_4817_jpg, porch).
holds(s_4817_jpg, table).
holds(s_4817_jpg, tiledrooftop).
holds(s_4817_jpg, vendingmachine).
holds(s_4817_jpg, wallsign).
holds(s_4817_jpg, statue).
holds(s_4817_jpg, chimney).
holds(s_4817_jpg, pipe).
holds(s_4817_jpg, truck).
holds(s_4817_jpg, car).
holds(s_4817_jpg, residential).

sample(s_12595_jpg).
holds(s_12595_jpg, building).
holds(s_12595_jpg, feature).
holds(s_12595_jpg, constructionsite).
holds(s_12595_jpg, awning).
holds(s_12595_jpg, billboard).
holds(s_12595_jpg, porch).
holds(s_12595_jpg, tiledrooftop).
holds(s_12595_jpg, wallsign).
holds(s_12595_jpg, chimney).
holds(s_12595_jpg, pipe).
holds(s_12595_jpg, machine).
holds(s_12595_jpg, industrial).

sample(s_14828_jpg).
holds(s_14828_jpg, building).
holds(s_14828_jpg, feature).
holds(s_14828_jpg, suburban).
holds(s_14828_jpg, door).
holds(s_14828_jpg, awning).
holds(s_14828_jpg, billboard).
holds(s_14828_jpg, porch).
holds(s_14828_jpg, tiledrooftop).
holds(s_14828_jpg, vendingmachine).
holds(s_14828_jpg, wallsign).
holds(s_14828_jpg, statue).
holds(s_14828_jpg, chimney).
holds(s_14828_jpg, pipe).
holds(s_14828_jpg, truck).
holds(s_14828_jpg, car).
holds(s_14828_jpg, residential).

sample(s_12791_jpg).
holds(s_12791_jpg, building).
holds(s_12791_jpg, feature).
holds(s_12791_jpg, suburban).
holds(s_12791_jpg, door).
holds(s_12791_jpg, window).
holds(s_12791_jpg, awning).
holds(s_12791_jpg, porch).
holds(s_12791_jpg, tiledrooftop).
holds(s_12791_jpg, vendingmachine).
holds(s_12791_jpg, statue).
holds(s_12791_jpg, residential).

sample(s_11405_jpg).
holds(s_11405_jpg, building).
holds(s_11405_jpg, feature).
holds(s_11405_jpg, suburban).
holds(s_11405_jpg, door).
holds(s_11405_jpg, window).
holds(s_11405_jpg, awning).
holds(s_11405_jpg, porch).
holds(s_11405_jpg, tiledrooftop).
holds(s_11405_jpg, vendingmachine).
holds(s_11405_jpg, wallsign).
holds(s_11405_jpg, statue).
holds(s_11405_jpg, pipe).
holds(s_11405_jpg, car).
holds(s_11405_jpg, residential).

sample(s_15179_jpg).
holds(s_15179_jpg, building).
holds(s_15179_jpg, feature).
holds(s_15179_jpg, suburban).
holds(s_15179_jpg, door).
holds(s_15179_jpg, window).
holds(s_15179_jpg, awning).
holds(s_15179_jpg, table).
holds(s_15179_jpg, tiledrooftop).
holds(s_15179_jpg, vendingmachine).
holds(s_15179_jpg, wallsign).
holds(s_15179_jpg, statue).
holds(s_15179_jpg, pipe).
holds(s_15179_jpg, residential).

sample(s_9062_jpg).
holds(s_9062_jpg, building).
holds(s_9062_jpg, feature).
holds(s_9062_jpg, suburban).
holds(s_9062_jpg, door).
holds(s_9062_jpg, window).
holds(s_9062_jpg, awning).
holds(s_9062_jpg, porch).
holds(s_9062_jpg, table).
holds(s_9062_jpg, tiledrooftop).
holds(s_9062_jpg, vendingmachine).
holds(s_9062_jpg, wallsign).
holds(s_9062_jpg, statue).
holds(s_9062_jpg, pipe).
holds(s_9062_jpg, car).
holds(s_9062_jpg, residential).

sample(s_10593_jpg).
holds(s_10593_jpg, building).
holds(s_10593_jpg, feature).
holds(s_10593_jpg, hotel).
holds(s_10593_jpg, door).
holds(s_10593_jpg, awning).
holds(s_10593_jpg, billboard).
holds(s_10593_jpg, porch).
holds(s_10593_jpg, sign).
holds(s_10593_jpg, tiledrooftop).
holds(s_10593_jpg, statue).
holds(s_10593_jpg, chimney).
holds(s_10593_jpg, pipe).
holds(s_10593_jpg, machine).
holds(s_10593_jpg, commercial).

sample(s_2141_jpg).
holds(s_2141_jpg, building).
holds(s_2141_jpg, feature).
holds(s_2141_jpg, suburban).
holds(s_2141_jpg, door).
holds(s_2141_jpg, window).
holds(s_2141_jpg, awning).
holds(s_2141_jpg, porch).
holds(s_2141_jpg, tiledrooftop).
holds(s_2141_jpg, vendingmachine).
holds(s_2141_jpg, wallsign).
holds(s_2141_jpg, statue).
holds(s_2141_jpg, residential).

sample(s_12995_jpg).
holds(s_12995_jpg, building).
holds(s_12995_jpg, feature).
holds(s_12995_jpg, suburban).
holds(s_12995_jpg, door).
holds(s_12995_jpg, window).
holds(s_12995_jpg, awning).
holds(s_12995_jpg, porch).
holds(s_12995_jpg, tiledrooftop).
holds(s_12995_jpg, vendingmachine).
holds(s_12995_jpg, statue).
holds(s_12995_jpg, residential).

sample(s_14649_jpg).
holds(s_14649_jpg, building).
holds(s_14649_jpg, feature).
holds(s_14649_jpg, hotel).
holds(s_14649_jpg, door).
holds(s_14649_jpg, awning).
holds(s_14649_jpg, billboard).
holds(s_14649_jpg, porch).
holds(s_14649_jpg, sign).
holds(s_14649_jpg, tiledrooftop).
holds(s_14649_jpg, chimney).
holds(s_14649_jpg, pipe).
holds(s_14649_jpg, machine).
holds(s_14649_jpg, truck).
holds(s_14649_jpg, commercial).

sample(s_12747_jpg).
holds(s_12747_jpg, building).
holds(s_12747_jpg, feature).
holds(s_12747_jpg, hotel).
holds(s_12747_jpg, door).
holds(s_12747_jpg, awning).
holds(s_12747_jpg, billboard).
holds(s_12747_jpg, porch).
holds(s_12747_jpg, sign).
holds(s_12747_jpg, tiledrooftop).
holds(s_12747_jpg, pipe).
holds(s_12747_jpg, machine).
holds(s_12747_jpg, commercial).

sample(s_511_jpg).
holds(s_511_jpg, building).
holds(s_511_jpg, feature).
holds(s_511_jpg, constructionsite).
holds(s_511_jpg, door).
holds(s_511_jpg, awning).
holds(s_511_jpg, billboard).
holds(s_511_jpg, porch).
holds(s_511_jpg, tiledrooftop).
holds(s_511_jpg, vendingmachine).
holds(s_511_jpg, wallsign).
holds(s_511_jpg, statue).
holds(s_511_jpg, chimney).
holds(s_511_jpg, pipe).
holds(s_511_jpg, machine).
holds(s_511_jpg, industrial).

sample(s_10510_jpg).
holds(s_10510_jpg, building).
holds(s_10510_jpg, feature).
holds(s_10510_jpg, constructionsite).
holds(s_10510_jpg, awning).
holds(s_10510_jpg, billboard).
holds(s_10510_jpg, porch).
holds(s_10510_jpg, tiledrooftop).
holds(s_10510_jpg, wallsign).
holds(s_10510_jpg, chimney).
holds(s_10510_jpg, pipe).
holds(s_10510_jpg, machine).
holds(s_10510_jpg, industrial).

sample(s_8059_jpg).
holds(s_8059_jpg, building).
holds(s_8059_jpg, feature).
holds(s_8059_jpg, constructionsite).
holds(s_8059_jpg, awning).
holds(s_8059_jpg, billboard).
holds(s_8059_jpg, porch).
holds(s_8059_jpg, tiledrooftop).
holds(s_8059_jpg, wallsign).
holds(s_8059_jpg, chimney).
holds(s_8059_jpg, pipe).
holds(s_8059_jpg, machine).
holds(s_8059_jpg, industrial).

sample(s_15640_jpg).
holds(s_15640_jpg, building).
holds(s_15640_jpg, feature).
holds(s_15640_jpg, constructionsite).
holds(s_15640_jpg, awning).
holds(s_15640_jpg, billboard).
holds(s_15640_jpg, porch).
holds(s_15640_jpg, tiledrooftop).
holds(s_15640_jpg, wallsign).
holds(s_15640_jpg, chimney).
holds(s_15640_jpg, pipe).
holds(s_15640_jpg, machine).
holds(s_15640_jpg, industrial).

sample(s_429_jpg).
holds(s_429_jpg, building).
holds(s_429_jpg, feature).
holds(s_429_jpg, hotel).
holds(s_429_jpg, door).
holds(s_429_jpg, awning).
holds(s_429_jpg, billboard).
holds(s_429_jpg, porch).
holds(s_429_jpg, sign).
holds(s_429_jpg, tiledrooftop).
holds(s_429_jpg, statue).
holds(s_429_jpg, chimney).
holds(s_429_jpg, machine).
holds(s_429_jpg, commercial).

sample(s_4369_jpg).
holds(s_4369_jpg, building).
holds(s_4369_jpg, feature).
holds(s_4369_jpg, constructionsite).
holds(s_4369_jpg, awning).
holds(s_4369_jpg, billboard).
holds(s_4369_jpg, porch).
holds(s_4369_jpg, tiledrooftop).
holds(s_4369_jpg, wallsign).
holds(s_4369_jpg, chimney).
holds(s_4369_jpg, pipe).
holds(s_4369_jpg, machine).
holds(s_4369_jpg, industrial).

sample(s_3603_jpg).
holds(s_3603_jpg, building).
holds(s_3603_jpg, feature).
holds(s_3603_jpg, hotel).
holds(s_3603_jpg, door).
holds(s_3603_jpg, awning).
holds(s_3603_jpg, porch).
holds(s_3603_jpg, sign).
holds(s_3603_jpg, tiledrooftop).
holds(s_3603_jpg, statue).
holds(s_3603_jpg, pipe).
holds(s_3603_jpg, machine).
holds(s_3603_jpg, commercial).

sample(s_6845_jpg).
holds(s_6845_jpg, building).
holds(s_6845_jpg, feature).
holds(s_6845_jpg, suburban).
holds(s_6845_jpg, door).
holds(s_6845_jpg, awning).
holds(s_6845_jpg, billboard).
holds(s_6845_jpg, vendingmachine).
holds(s_6845_jpg, wallsign).
holds(s_6845_jpg, statue).
holds(s_6845_jpg, chimney).
holds(s_6845_jpg, pipe).
holds(s_6845_jpg, truck).
holds(s_6845_jpg, car).
holds(s_6845_jpg, residential).

sample(s_14298_jpg).
holds(s_14298_jpg, building).
holds(s_14298_jpg, feature).
holds(s_14298_jpg, hotel).
holds(s_14298_jpg, door).
holds(s_14298_jpg, awning).
holds(s_14298_jpg, porch).
holds(s_14298_jpg, tiledrooftop).
holds(s_14298_jpg, statue).
holds(s_14298_jpg, chimney).
holds(s_14298_jpg, pipe).
holds(s_14298_jpg, machine).
holds(s_14298_jpg, truck).
holds(s_14298_jpg, commercial).

sample(s_14929_jpg).
holds(s_14929_jpg, building).
holds(s_14929_jpg, feature).
holds(s_14929_jpg, constructionsite).
holds(s_14929_jpg, awning).
holds(s_14929_jpg, billboard).
holds(s_14929_jpg, porch).
holds(s_14929_jpg, tiledrooftop).
holds(s_14929_jpg, wallsign).
holds(s_14929_jpg, chimney).
holds(s_14929_jpg, pipe).
holds(s_14929_jpg, machine).
holds(s_14929_jpg, industrial).

sample(s_10394_jpg).
holds(s_10394_jpg, building).
holds(s_10394_jpg, feature).
holds(s_10394_jpg, suburban).
holds(s_10394_jpg, door).
holds(s_10394_jpg, window).
holds(s_10394_jpg, awning).
holds(s_10394_jpg, porch).
holds(s_10394_jpg, tiledrooftop).
holds(s_10394_jpg, vendingmachine).
holds(s_10394_jpg, statue).
holds(s_10394_jpg, residential).

sample(s_1441_jpg).
holds(s_1441_jpg, building).
holds(s_1441_jpg, feature).
holds(s_1441_jpg, constructionsite).
holds(s_1441_jpg, awning).
holds(s_1441_jpg, billboard).
holds(s_1441_jpg, porch).
holds(s_1441_jpg, tiledrooftop).
holds(s_1441_jpg, wallsign).
holds(s_1441_jpg, chimney).
holds(s_1441_jpg, pipe).
holds(s_1441_jpg, machine).
holds(s_1441_jpg, industrial).

sample(s_3295_jpg).
holds(s_3295_jpg, building).
holds(s_3295_jpg, feature).
holds(s_3295_jpg, constructionsite).
holds(s_3295_jpg, awning).
holds(s_3295_jpg, billboard).
holds(s_3295_jpg, porch).
holds(s_3295_jpg, tiledrooftop).
holds(s_3295_jpg, vendingmachine).
holds(s_3295_jpg, wallsign).
holds(s_3295_jpg, statue).
holds(s_3295_jpg, chimney).
holds(s_3295_jpg, pipe).
holds(s_3295_jpg, machine).
holds(s_3295_jpg, industrial).

sample(s_3948_jpg).
holds(s_3948_jpg, building).
holds(s_3948_jpg, feature).
holds(s_3948_jpg, hotel).
holds(s_3948_jpg, door).
holds(s_3948_jpg, window).
holds(s_3948_jpg, awning).
holds(s_3948_jpg, porch).
holds(s_3948_jpg, sign).
holds(s_3948_jpg, tiledrooftop).
holds(s_3948_jpg, statue).
holds(s_3948_jpg, pipe).
holds(s_3948_jpg, machine).
holds(s_3948_jpg, commercial).

sample(s_9392_jpg).
holds(s_9392_jpg, building).
holds(s_9392_jpg, feature).
holds(s_9392_jpg, suburban).
holds(s_9392_jpg, door).
holds(s_9392_jpg, window).
holds(s_9392_jpg, awning).
holds(s_9392_jpg, porch).
holds(s_9392_jpg, table).
holds(s_9392_jpg, tiledrooftop).
holds(s_9392_jpg, vendingmachine).
holds(s_9392_jpg, wallsign).
holds(s_9392_jpg, statue).
holds(s_9392_jpg, pipe).
holds(s_9392_jpg, residential).

sample(s_1762_jpg).
holds(s_1762_jpg, building).
holds(s_1762_jpg, feature).
holds(s_1762_jpg, constructionsite).
holds(s_1762_jpg, awning).
holds(s_1762_jpg, billboard).
holds(s_1762_jpg, porch).
holds(s_1762_jpg, tiledrooftop).
holds(s_1762_jpg, wallsign).
holds(s_1762_jpg, chimney).
holds(s_1762_jpg, machine).
holds(s_1762_jpg, industrial).

sample(s_5661_jpg).
holds(s_5661_jpg, building).
holds(s_5661_jpg, feature).
holds(s_5661_jpg, hotel).
holds(s_5661_jpg, door).
holds(s_5661_jpg, awning).
holds(s_5661_jpg, billboard).
holds(s_5661_jpg, porch).
holds(s_5661_jpg, sign).
holds(s_5661_jpg, tiledrooftop).
holds(s_5661_jpg, pipe).
holds(s_5661_jpg, machine).
holds(s_5661_jpg, commercial).

sample(s_5937_jpg).
holds(s_5937_jpg, building).
holds(s_5937_jpg, feature).
holds(s_5937_jpg, hotel).
holds(s_5937_jpg, door).
holds(s_5937_jpg, awning).
holds(s_5937_jpg, billboard).
holds(s_5937_jpg, porch).
holds(s_5937_jpg, tiledrooftop).
holds(s_5937_jpg, statue).
holds(s_5937_jpg, chimney).
holds(s_5937_jpg, machine).
holds(s_5937_jpg, commercial).

sample(s_6304_jpg).
holds(s_6304_jpg, building).
holds(s_6304_jpg, feature).
holds(s_6304_jpg, constructionsite).
holds(s_6304_jpg, awning).
holds(s_6304_jpg, billboard).
holds(s_6304_jpg, porch).
holds(s_6304_jpg, tiledrooftop).
holds(s_6304_jpg, wallsign).
holds(s_6304_jpg, chimney).
holds(s_6304_jpg, pipe).
holds(s_6304_jpg, machine).
holds(s_6304_jpg, industrial).

sample(s_10093_jpg).
holds(s_10093_jpg, building).
holds(s_10093_jpg, feature).
holds(s_10093_jpg, constructionsite).
holds(s_10093_jpg, awning).
holds(s_10093_jpg, billboard).
holds(s_10093_jpg, porch).
holds(s_10093_jpg, tiledrooftop).
holds(s_10093_jpg, vendingmachine).
holds(s_10093_jpg, wallsign).
holds(s_10093_jpg, chimney).
holds(s_10093_jpg, pipe).
holds(s_10093_jpg, machine).
holds(s_10093_jpg, industrial).

sample(s_2834_jpg).
holds(s_2834_jpg, building).
holds(s_2834_jpg, feature).
holds(s_2834_jpg, suburban).
holds(s_2834_jpg, door).
holds(s_2834_jpg, window).
holds(s_2834_jpg, awning).
holds(s_2834_jpg, porch).
holds(s_2834_jpg, tiledrooftop).
holds(s_2834_jpg, vendingmachine).
holds(s_2834_jpg, statue).
holds(s_2834_jpg, residential).

sample(s_15106_jpg).
holds(s_15106_jpg, building).
holds(s_15106_jpg, feature).
holds(s_15106_jpg, constructionsite).
holds(s_15106_jpg, door).
holds(s_15106_jpg, awning).
holds(s_15106_jpg, billboard).
holds(s_15106_jpg, porch).
holds(s_15106_jpg, tiledrooftop).
holds(s_15106_jpg, vendingmachine).
holds(s_15106_jpg, wallsign).
holds(s_15106_jpg, statue).
holds(s_15106_jpg, chimney).
holds(s_15106_jpg, pipe).
holds(s_15106_jpg, machine).
holds(s_15106_jpg, industrial).

sample(s_2722_jpg).
holds(s_2722_jpg, building).
holds(s_2722_jpg, feature).
holds(s_2722_jpg, constructionsite).
holds(s_2722_jpg, door).
holds(s_2722_jpg, awning).
holds(s_2722_jpg, billboard).
holds(s_2722_jpg, porch).
holds(s_2722_jpg, tiledrooftop).
holds(s_2722_jpg, wallsign).
holds(s_2722_jpg, chimney).
holds(s_2722_jpg, pipe).
holds(s_2722_jpg, machine).
holds(s_2722_jpg, industrial).

sample(s_2813_jpg).
holds(s_2813_jpg, building).
holds(s_2813_jpg, feature).
holds(s_2813_jpg, suburban).
holds(s_2813_jpg, door).
holds(s_2813_jpg, awning).
holds(s_2813_jpg, porch).
holds(s_2813_jpg, table).
holds(s_2813_jpg, tiledrooftop).
holds(s_2813_jpg, vendingmachine).
holds(s_2813_jpg, wallsign).
holds(s_2813_jpg, statue).
holds(s_2813_jpg, chimney).
holds(s_2813_jpg, pipe).
holds(s_2813_jpg, truck).
holds(s_2813_jpg, car).
holds(s_2813_jpg, residential).

sample(s_10933_jpg).
holds(s_10933_jpg, building).
holds(s_10933_jpg, feature).
holds(s_10933_jpg, constructionsite).
holds(s_10933_jpg, awning).
holds(s_10933_jpg, billboard).
holds(s_10933_jpg, porch).
holds(s_10933_jpg, tiledrooftop).
holds(s_10933_jpg, wallsign).
holds(s_10933_jpg, chimney).
holds(s_10933_jpg, pipe).
holds(s_10933_jpg, machine).
holds(s_10933_jpg, industrial).

sample(s_2547_jpg).
holds(s_2547_jpg, building).
holds(s_2547_jpg, feature).
holds(s_2547_jpg, hotel).
holds(s_2547_jpg, door).
holds(s_2547_jpg, awning).
holds(s_2547_jpg, porch).
holds(s_2547_jpg, sign).
holds(s_2547_jpg, tiledrooftop).
holds(s_2547_jpg, statue).
holds(s_2547_jpg, chimney).
holds(s_2547_jpg, pipe).
holds(s_2547_jpg, machine).
holds(s_2547_jpg, commercial).

sample(s_7614_jpg).
holds(s_7614_jpg, building).
holds(s_7614_jpg, feature).
holds(s_7614_jpg, hotel).
holds(s_7614_jpg, door).
holds(s_7614_jpg, awning).
holds(s_7614_jpg, billboard).
holds(s_7614_jpg, porch).
holds(s_7614_jpg, sign).
holds(s_7614_jpg, tiledrooftop).
holds(s_7614_jpg, chimney).
holds(s_7614_jpg, pipe).
holds(s_7614_jpg, machine).
holds(s_7614_jpg, commercial).

sample(s_6745_jpg).
holds(s_6745_jpg, building).
holds(s_6745_jpg, feature).
holds(s_6745_jpg, constructionsite).
holds(s_6745_jpg, awning).
holds(s_6745_jpg, billboard).
holds(s_6745_jpg, porch).
holds(s_6745_jpg, tiledrooftop).
holds(s_6745_jpg, statue).
holds(s_6745_jpg, chimney).
holds(s_6745_jpg, machine).
holds(s_6745_jpg, industrial).

sample(s_14729_jpg).
holds(s_14729_jpg, building).
holds(s_14729_jpg, feature).
holds(s_14729_jpg, suburban).
holds(s_14729_jpg, door).
holds(s_14729_jpg, window).
holds(s_14729_jpg, awning).
holds(s_14729_jpg, porch).
holds(s_14729_jpg, tiledrooftop).
holds(s_14729_jpg, vendingmachine).
holds(s_14729_jpg, statue).
holds(s_14729_jpg, residential).

sample(s_13338_jpg).
holds(s_13338_jpg, building).
holds(s_13338_jpg, feature).
holds(s_13338_jpg, hotel).
holds(s_13338_jpg, door).
holds(s_13338_jpg, awning).
holds(s_13338_jpg, porch).
holds(s_13338_jpg, sign).
holds(s_13338_jpg, tiledrooftop).
holds(s_13338_jpg, statue).
holds(s_13338_jpg, pipe).
holds(s_13338_jpg, machine).
holds(s_13338_jpg, commercial).

sample(s_5731_jpg).
holds(s_5731_jpg, building).
holds(s_5731_jpg, feature).
holds(s_5731_jpg, constructionsite).
holds(s_5731_jpg, awning).
holds(s_5731_jpg, billboard).
holds(s_5731_jpg, porch).
holds(s_5731_jpg, tiledrooftop).
holds(s_5731_jpg, chimney).
holds(s_5731_jpg, machine).
holds(s_5731_jpg, industrial).

sample(s_13407_jpg).
holds(s_13407_jpg, building).
holds(s_13407_jpg, feature).
holds(s_13407_jpg, hotel).
holds(s_13407_jpg, door).
holds(s_13407_jpg, awning).
holds(s_13407_jpg, porch).
holds(s_13407_jpg, tiledrooftop).
holds(s_13407_jpg, statue).
holds(s_13407_jpg, chimney).
holds(s_13407_jpg, machine).
holds(s_13407_jpg, commercial).

sample(s_3492_jpg).
holds(s_3492_jpg, building).
holds(s_3492_jpg, feature).
holds(s_3492_jpg, hotel).
holds(s_3492_jpg, door).
holds(s_3492_jpg, awning).
holds(s_3492_jpg, billboard).
holds(s_3492_jpg, porch).
holds(s_3492_jpg, sign).
holds(s_3492_jpg, tiledrooftop).
holds(s_3492_jpg, chimney).
holds(s_3492_jpg, pipe).
holds(s_3492_jpg, machine).
holds(s_3492_jpg, truck).
holds(s_3492_jpg, commercial).

sample(s_12156_jpg).
holds(s_12156_jpg, building).
holds(s_12156_jpg, feature).
holds(s_12156_jpg, hotel).
holds(s_12156_jpg, door).
holds(s_12156_jpg, awning).
holds(s_12156_jpg, billboard).
holds(s_12156_jpg, porch).
holds(s_12156_jpg, sign).
holds(s_12156_jpg, tiledrooftop).
holds(s_12156_jpg, pipe).
holds(s_12156_jpg, machine).
holds(s_12156_jpg, commercial).

sample(s_15273_jpg).
holds(s_15273_jpg, building).
holds(s_15273_jpg, feature).
holds(s_15273_jpg, hotel).
holds(s_15273_jpg, door).
holds(s_15273_jpg, window).
holds(s_15273_jpg, awning).
holds(s_15273_jpg, porch).
holds(s_15273_jpg, tiledrooftop).
holds(s_15273_jpg, vendingmachine).
holds(s_15273_jpg, statue).
holds(s_15273_jpg, machine).
holds(s_15273_jpg, commercial).

sample(s_14988_jpg).
holds(s_14988_jpg, building).
holds(s_14988_jpg, feature).
holds(s_14988_jpg, hotel).
holds(s_14988_jpg, door).
holds(s_14988_jpg, awning).
holds(s_14988_jpg, porch).
holds(s_14988_jpg, tiledrooftop).
holds(s_14988_jpg, statue).
holds(s_14988_jpg, chimney).
holds(s_14988_jpg, pipe).
holds(s_14988_jpg, machine).
holds(s_14988_jpg, commercial).

sample(s_9500_jpg).
holds(s_9500_jpg, building).
holds(s_9500_jpg, feature).
holds(s_9500_jpg, suburban).
holds(s_9500_jpg, door).
holds(s_9500_jpg, window).
holds(s_9500_jpg, awning).
holds(s_9500_jpg, porch).
holds(s_9500_jpg, tiledrooftop).
holds(s_9500_jpg, vendingmachine).
holds(s_9500_jpg, statue).
holds(s_9500_jpg, residential).

sample(s_10584_jpg).
holds(s_10584_jpg, building).
holds(s_10584_jpg, feature).
holds(s_10584_jpg, hotel).
holds(s_10584_jpg, door).
holds(s_10584_jpg, awning).
holds(s_10584_jpg, billboard).
holds(s_10584_jpg, porch).
holds(s_10584_jpg, sign).
holds(s_10584_jpg, tiledrooftop).
holds(s_10584_jpg, statue).
holds(s_10584_jpg, chimney).
holds(s_10584_jpg, pipe).
holds(s_10584_jpg, machine).
holds(s_10584_jpg, truck).
holds(s_10584_jpg, commercial).

sample(s_3138_jpg).
holds(s_3138_jpg, building).
holds(s_3138_jpg, feature).
holds(s_3138_jpg, hotel).
holds(s_3138_jpg, door).
holds(s_3138_jpg, awning).
holds(s_3138_jpg, porch).
holds(s_3138_jpg, sign).
holds(s_3138_jpg, tiledrooftop).
holds(s_3138_jpg, statue).
holds(s_3138_jpg, pipe).
holds(s_3138_jpg, machine).
holds(s_3138_jpg, commercial).

sample(s_2524_jpg).
holds(s_2524_jpg, building).
holds(s_2524_jpg, feature).
holds(s_2524_jpg, constructionsite).
holds(s_2524_jpg, awning).
holds(s_2524_jpg, billboard).
holds(s_2524_jpg, porch).
holds(s_2524_jpg, tiledrooftop).
holds(s_2524_jpg, chimney).
holds(s_2524_jpg, machine).
holds(s_2524_jpg, industrial).

sample(s_293_jpg).
holds(s_293_jpg, building).
holds(s_293_jpg, feature).
holds(s_293_jpg, suburban).
holds(s_293_jpg, door).
holds(s_293_jpg, window).
holds(s_293_jpg, awning).
holds(s_293_jpg, porch).
holds(s_293_jpg, tiledrooftop).
holds(s_293_jpg, vendingmachine).
holds(s_293_jpg, statue).
holds(s_293_jpg, residential).

sample(s_12499_jpg).
holds(s_12499_jpg, building).
holds(s_12499_jpg, feature).
holds(s_12499_jpg, constructionsite).
holds(s_12499_jpg, awning).
holds(s_12499_jpg, billboard).
holds(s_12499_jpg, porch).
holds(s_12499_jpg, tiledrooftop).
holds(s_12499_jpg, wallsign).
holds(s_12499_jpg, chimney).
holds(s_12499_jpg, pipe).
holds(s_12499_jpg, machine).
holds(s_12499_jpg, industrial).

sample(s_14978_jpg).
holds(s_14978_jpg, building).
holds(s_14978_jpg, feature).
holds(s_14978_jpg, suburban).
holds(s_14978_jpg, door).
holds(s_14978_jpg, window).
holds(s_14978_jpg, awning).
holds(s_14978_jpg, porch).
holds(s_14978_jpg, table).
holds(s_14978_jpg, tiledrooftop).
holds(s_14978_jpg, vendingmachine).
holds(s_14978_jpg, wallsign).
holds(s_14978_jpg, statue).
holds(s_14978_jpg, pipe).
holds(s_14978_jpg, residential).

sample(s_8881_jpg).
holds(s_8881_jpg, building).
holds(s_8881_jpg, feature).
holds(s_8881_jpg, constructionsite).
holds(s_8881_jpg, awning).
holds(s_8881_jpg, billboard).
holds(s_8881_jpg, porch).
holds(s_8881_jpg, tiledrooftop).
holds(s_8881_jpg, wallsign).
holds(s_8881_jpg, chimney).
holds(s_8881_jpg, pipe).
holds(s_8881_jpg, machine).
holds(s_8881_jpg, industrial).

sample(s_13308_jpg).
holds(s_13308_jpg, building).
holds(s_13308_jpg, feature).
holds(s_13308_jpg, hotel).
holds(s_13308_jpg, door).
holds(s_13308_jpg, awning).
holds(s_13308_jpg, porch).
holds(s_13308_jpg, sign).
holds(s_13308_jpg, tiledrooftop).
holds(s_13308_jpg, statue).
holds(s_13308_jpg, chimney).
holds(s_13308_jpg, pipe).
holds(s_13308_jpg, machine).
holds(s_13308_jpg, truck).
holds(s_13308_jpg, commercial).

sample(s_4390_jpg).
holds(s_4390_jpg, building).
holds(s_4390_jpg, feature).
holds(s_4390_jpg, constructionsite).
holds(s_4390_jpg, awning).
holds(s_4390_jpg, billboard).
holds(s_4390_jpg, porch).
holds(s_4390_jpg, tiledrooftop).
holds(s_4390_jpg, wallsign).
holds(s_4390_jpg, chimney).
holds(s_4390_jpg, pipe).
holds(s_4390_jpg, machine).
holds(s_4390_jpg, industrial).

sample(s_757_jpg).
holds(s_757_jpg, building).
holds(s_757_jpg, feature).
holds(s_757_jpg, constructionsite).
holds(s_757_jpg, awning).
holds(s_757_jpg, billboard).
holds(s_757_jpg, porch).
holds(s_757_jpg, tiledrooftop).
holds(s_757_jpg, wallsign).
holds(s_757_jpg, chimney).
holds(s_757_jpg, pipe).
holds(s_757_jpg, machine).
holds(s_757_jpg, industrial).

sample(s_4540_jpg).
holds(s_4540_jpg, building).
holds(s_4540_jpg, feature).
holds(s_4540_jpg, constructionsite).
holds(s_4540_jpg, awning).
holds(s_4540_jpg, billboard).
holds(s_4540_jpg, porch).
holds(s_4540_jpg, tiledrooftop).
holds(s_4540_jpg, wallsign).
holds(s_4540_jpg, chimney).
holds(s_4540_jpg, pipe).
holds(s_4540_jpg, machine).
holds(s_4540_jpg, industrial).

sample(s_11602_jpg).
holds(s_11602_jpg, building).
holds(s_11602_jpg, feature).
holds(s_11602_jpg, constructionsite).
holds(s_11602_jpg, awning).
holds(s_11602_jpg, billboard).
holds(s_11602_jpg, porch).
holds(s_11602_jpg, tiledrooftop).
holds(s_11602_jpg, wallsign).
holds(s_11602_jpg, chimney).
holds(s_11602_jpg, pipe).
holds(s_11602_jpg, machine).
holds(s_11602_jpg, industrial).

sample(s_6203_jpg).
holds(s_6203_jpg, building).
holds(s_6203_jpg, feature).
holds(s_6203_jpg, suburban).
holds(s_6203_jpg, door).
holds(s_6203_jpg, window).
holds(s_6203_jpg, awning).
holds(s_6203_jpg, porch).
holds(s_6203_jpg, tiledrooftop).
holds(s_6203_jpg, vendingmachine).
holds(s_6203_jpg, wallsign).
holds(s_6203_jpg, statue).
holds(s_6203_jpg, pipe).
holds(s_6203_jpg, residential).

sample(s_8518_jpg).
holds(s_8518_jpg, building).
holds(s_8518_jpg, feature).
holds(s_8518_jpg, constructionsite).
holds(s_8518_jpg, door).
holds(s_8518_jpg, awning).
holds(s_8518_jpg, billboard).
holds(s_8518_jpg, porch).
holds(s_8518_jpg, tiledrooftop).
holds(s_8518_jpg, vendingmachine).
holds(s_8518_jpg, wallsign).
holds(s_8518_jpg, statue).
holds(s_8518_jpg, chimney).
holds(s_8518_jpg, pipe).
holds(s_8518_jpg, machine).
holds(s_8518_jpg, industrial).

sample(s_1491_jpg).
holds(s_1491_jpg, building).
holds(s_1491_jpg, feature).
holds(s_1491_jpg, hotel).
holds(s_1491_jpg, door).
holds(s_1491_jpg, awning).
holds(s_1491_jpg, billboard).
holds(s_1491_jpg, porch).
holds(s_1491_jpg, sign).
holds(s_1491_jpg, tiledrooftop).
holds(s_1491_jpg, pipe).
holds(s_1491_jpg, machine).
holds(s_1491_jpg, commercial).

sample(s_15518_jpg).
holds(s_15518_jpg, building).
holds(s_15518_jpg, feature).
holds(s_15518_jpg, suburban).
holds(s_15518_jpg, door).
holds(s_15518_jpg, awning).
holds(s_15518_jpg, billboard).
holds(s_15518_jpg, porch).
holds(s_15518_jpg, table).
holds(s_15518_jpg, tiledrooftop).
holds(s_15518_jpg, vendingmachine).
holds(s_15518_jpg, wallsign).
holds(s_15518_jpg, statue).
holds(s_15518_jpg, chimney).
holds(s_15518_jpg, pipe).
holds(s_15518_jpg, truck).
holds(s_15518_jpg, car).
holds(s_15518_jpg, residential).

sample(s_9771_jpg).
holds(s_9771_jpg, building).
holds(s_9771_jpg, feature).
holds(s_9771_jpg, hotel).
holds(s_9771_jpg, door).
holds(s_9771_jpg, awning).
holds(s_9771_jpg, porch).
holds(s_9771_jpg, sign).
holds(s_9771_jpg, tiledrooftop).
holds(s_9771_jpg, statue).
holds(s_9771_jpg, pipe).
holds(s_9771_jpg, machine).
holds(s_9771_jpg, commercial).

sample(s_8318_jpg).
holds(s_8318_jpg, building).
holds(s_8318_jpg, feature).
holds(s_8318_jpg, suburban).
holds(s_8318_jpg, door).
holds(s_8318_jpg, awning).
holds(s_8318_jpg, porch).
holds(s_8318_jpg, tiledrooftop).
holds(s_8318_jpg, vendingmachine).
holds(s_8318_jpg, wallsign).
holds(s_8318_jpg, statue).
holds(s_8318_jpg, chimney).
holds(s_8318_jpg, pipe).
holds(s_8318_jpg, machine).
holds(s_8318_jpg, truck).
holds(s_8318_jpg, car).
holds(s_8318_jpg, residential).

sample(s_6792_jpg).
holds(s_6792_jpg, building).
holds(s_6792_jpg, feature).
holds(s_6792_jpg, hotel).
holds(s_6792_jpg, door).
holds(s_6792_jpg, awning).
holds(s_6792_jpg, billboard).
holds(s_6792_jpg, porch).
holds(s_6792_jpg, sign).
holds(s_6792_jpg, tiledrooftop).
holds(s_6792_jpg, statue).
holds(s_6792_jpg, pipe).
holds(s_6792_jpg, machine).
holds(s_6792_jpg, commercial).

sample(s_3615_jpg).
holds(s_3615_jpg, building).
holds(s_3615_jpg, feature).
holds(s_3615_jpg, hotel).
holds(s_3615_jpg, door).
holds(s_3615_jpg, awning).
holds(s_3615_jpg, billboard).
holds(s_3615_jpg, porch).
holds(s_3615_jpg, tiledrooftop).
holds(s_3615_jpg, statue).
holds(s_3615_jpg, chimney).
holds(s_3615_jpg, pipe).
holds(s_3615_jpg, machine).
holds(s_3615_jpg, commercial).

sample(s_6701_jpg).
holds(s_6701_jpg, building).
holds(s_6701_jpg, feature).
holds(s_6701_jpg, suburban).
holds(s_6701_jpg, door).
holds(s_6701_jpg, window).
holds(s_6701_jpg, awning).
holds(s_6701_jpg, porch).
holds(s_6701_jpg, table).
holds(s_6701_jpg, tiledrooftop).
holds(s_6701_jpg, vendingmachine).
holds(s_6701_jpg, wallsign).
holds(s_6701_jpg, statue).
holds(s_6701_jpg, pipe).
holds(s_6701_jpg, car).
holds(s_6701_jpg, residential).

sample(s_4136_jpg).
holds(s_4136_jpg, building).
holds(s_4136_jpg, feature).
holds(s_4136_jpg, suburban).
holds(s_4136_jpg, door).
holds(s_4136_jpg, window).
holds(s_4136_jpg, awning).
holds(s_4136_jpg, porch).
holds(s_4136_jpg, tiledrooftop).
holds(s_4136_jpg, vendingmachine).
holds(s_4136_jpg, wallsign).
holds(s_4136_jpg, statue).
holds(s_4136_jpg, residential).

sample(s_8316_jpg).
holds(s_8316_jpg, building).
holds(s_8316_jpg, feature).
holds(s_8316_jpg, hotel).
holds(s_8316_jpg, door).
holds(s_8316_jpg, awning).
holds(s_8316_jpg, billboard).
holds(s_8316_jpg, porch).
holds(s_8316_jpg, sign).
holds(s_8316_jpg, tiledrooftop).
holds(s_8316_jpg, chimney).
holds(s_8316_jpg, pipe).
holds(s_8316_jpg, machine).
holds(s_8316_jpg, commercial).

sample(s_4954_jpg).
holds(s_4954_jpg, building).
holds(s_4954_jpg, feature).
holds(s_4954_jpg, constructionsite).
holds(s_4954_jpg, awning).
holds(s_4954_jpg, billboard).
holds(s_4954_jpg, porch).
holds(s_4954_jpg, tiledrooftop).
holds(s_4954_jpg, vendingmachine).
holds(s_4954_jpg, wallsign).
holds(s_4954_jpg, statue).
holds(s_4954_jpg, chimney).
holds(s_4954_jpg, pipe).
holds(s_4954_jpg, machine).
holds(s_4954_jpg, industrial).

sample(s_6846_jpg).
holds(s_6846_jpg, building).
holds(s_6846_jpg, feature).
holds(s_6846_jpg, hotel).
holds(s_6846_jpg, door).
holds(s_6846_jpg, awning).
holds(s_6846_jpg, billboard).
holds(s_6846_jpg, porch).
holds(s_6846_jpg, sign).
holds(s_6846_jpg, tiledrooftop).
holds(s_6846_jpg, chimney).
holds(s_6846_jpg, pipe).
holds(s_6846_jpg, machine).
holds(s_6846_jpg, commercial).

sample(s_2497_jpg).
holds(s_2497_jpg, building).
holds(s_2497_jpg, feature).
holds(s_2497_jpg, constructionsite).
holds(s_2497_jpg, awning).
holds(s_2497_jpg, billboard).
holds(s_2497_jpg, porch).
holds(s_2497_jpg, tiledrooftop).
holds(s_2497_jpg, wallsign).
holds(s_2497_jpg, chimney).
holds(s_2497_jpg, pipe).
holds(s_2497_jpg, machine).
holds(s_2497_jpg, industrial).

sample(s_2333_jpg).
holds(s_2333_jpg, building).
holds(s_2333_jpg, feature).
holds(s_2333_jpg, suburban).
holds(s_2333_jpg, door).
holds(s_2333_jpg, window).
holds(s_2333_jpg, awning).
holds(s_2333_jpg, porch).
holds(s_2333_jpg, table).
holds(s_2333_jpg, tiledrooftop).
holds(s_2333_jpg, vendingmachine).
holds(s_2333_jpg, wallsign).
holds(s_2333_jpg, statue).
holds(s_2333_jpg, pipe).
holds(s_2333_jpg, residential).

sample(s_13215_jpg).
holds(s_13215_jpg, building).
holds(s_13215_jpg, feature).
holds(s_13215_jpg, hotel).
holds(s_13215_jpg, door).
holds(s_13215_jpg, awning).
holds(s_13215_jpg, porch).
holds(s_13215_jpg, tiledrooftop).
holds(s_13215_jpg, statue).
holds(s_13215_jpg, chimney).
holds(s_13215_jpg, machine).
holds(s_13215_jpg, commercial).

sample(s_5203_jpg).
holds(s_5203_jpg, building).
holds(s_5203_jpg, feature).
holds(s_5203_jpg, constructionsite).
holds(s_5203_jpg, awning).
holds(s_5203_jpg, billboard).
holds(s_5203_jpg, porch).
holds(s_5203_jpg, sign).
holds(s_5203_jpg, tiledrooftop).
holds(s_5203_jpg, wallsign).
holds(s_5203_jpg, chimney).
holds(s_5203_jpg, pipe).
holds(s_5203_jpg, machine).
holds(s_5203_jpg, industrial).

sample(s_10728_jpg).
holds(s_10728_jpg, building).
holds(s_10728_jpg, feature).
holds(s_10728_jpg, hotel).
holds(s_10728_jpg, door).
holds(s_10728_jpg, awning).
holds(s_10728_jpg, billboard).
holds(s_10728_jpg, porch).
holds(s_10728_jpg, sign).
holds(s_10728_jpg, tiledrooftop).
holds(s_10728_jpg, statue).
holds(s_10728_jpg, chimney).
holds(s_10728_jpg, pipe).
holds(s_10728_jpg, machine).
holds(s_10728_jpg, truck).
holds(s_10728_jpg, commercial).

sample(s_5200_jpg).
holds(s_5200_jpg, building).
holds(s_5200_jpg, feature).
holds(s_5200_jpg, constructionsite).
holds(s_5200_jpg, awning).
holds(s_5200_jpg, billboard).
holds(s_5200_jpg, porch).
holds(s_5200_jpg, tiledrooftop).
holds(s_5200_jpg, wallsign).
holds(s_5200_jpg, chimney).
holds(s_5200_jpg, pipe).
holds(s_5200_jpg, machine).
holds(s_5200_jpg, industrial).

sample(s_7103_jpg).
holds(s_7103_jpg, building).
holds(s_7103_jpg, feature).
holds(s_7103_jpg, suburban).
holds(s_7103_jpg, door).
holds(s_7103_jpg, window).
holds(s_7103_jpg, awning).
holds(s_7103_jpg, porch).
holds(s_7103_jpg, tiledrooftop).
holds(s_7103_jpg, vendingmachine).
holds(s_7103_jpg, wallsign).
holds(s_7103_jpg, statue).
holds(s_7103_jpg, residential).

sample(s_7763_jpg).
holds(s_7763_jpg, building).
holds(s_7763_jpg, feature).
holds(s_7763_jpg, suburban).
holds(s_7763_jpg, door).
holds(s_7763_jpg, window).
holds(s_7763_jpg, awning).
holds(s_7763_jpg, porch).
holds(s_7763_jpg, tiledrooftop).
holds(s_7763_jpg, vendingmachine).
holds(s_7763_jpg, statue).
holds(s_7763_jpg, residential).

sample(s_5495_jpg).
holds(s_5495_jpg, building).
holds(s_5495_jpg, feature).
holds(s_5495_jpg, suburban).
holds(s_5495_jpg, door).
holds(s_5495_jpg, window).
holds(s_5495_jpg, awning).
holds(s_5495_jpg, porch).
holds(s_5495_jpg, tiledrooftop).
holds(s_5495_jpg, vendingmachine).
holds(s_5495_jpg, wallsign).
holds(s_5495_jpg, statue).
holds(s_5495_jpg, pipe).
holds(s_5495_jpg, residential).

sample(s_13765_jpg).
holds(s_13765_jpg, building).
holds(s_13765_jpg, feature).
holds(s_13765_jpg, constructionsite).
holds(s_13765_jpg, awning).
holds(s_13765_jpg, billboard).
holds(s_13765_jpg, porch).
holds(s_13765_jpg, tiledrooftop).
holds(s_13765_jpg, wallsign).
holds(s_13765_jpg, chimney).
holds(s_13765_jpg, machine).
holds(s_13765_jpg, industrial).

sample(s_1169_jpg).
holds(s_1169_jpg, building).
holds(s_1169_jpg, feature).
holds(s_1169_jpg, suburban).
holds(s_1169_jpg, door).
holds(s_1169_jpg, awning).
holds(s_1169_jpg, table).
holds(s_1169_jpg, vendingmachine).
holds(s_1169_jpg, wallsign).
holds(s_1169_jpg, statue).
holds(s_1169_jpg, chimney).
holds(s_1169_jpg, pipe).
holds(s_1169_jpg, truck).
holds(s_1169_jpg, car).
holds(s_1169_jpg, residential).

sample(s_12311_jpg).
holds(s_12311_jpg, building).
holds(s_12311_jpg, feature).
holds(s_12311_jpg, suburban).
holds(s_12311_jpg, door).
holds(s_12311_jpg, window).
holds(s_12311_jpg, awning).
holds(s_12311_jpg, porch).
holds(s_12311_jpg, table).
holds(s_12311_jpg, tiledrooftop).
holds(s_12311_jpg, vendingmachine).
holds(s_12311_jpg, wallsign).
holds(s_12311_jpg, statue).
holds(s_12311_jpg, pipe).
holds(s_12311_jpg, car).
holds(s_12311_jpg, residential).

sample(s_9476_jpg).
holds(s_9476_jpg, building).
holds(s_9476_jpg, feature).
holds(s_9476_jpg, suburban).
holds(s_9476_jpg, door).
holds(s_9476_jpg, window).
holds(s_9476_jpg, awning).
holds(s_9476_jpg, porch).
holds(s_9476_jpg, tiledrooftop).
holds(s_9476_jpg, vendingmachine).
holds(s_9476_jpg, wallsign).
holds(s_9476_jpg, statue).
holds(s_9476_jpg, pipe).
holds(s_9476_jpg, residential).

sample(s_7497_jpg).
holds(s_7497_jpg, building).
holds(s_7497_jpg, feature).
holds(s_7497_jpg, hotel).
holds(s_7497_jpg, door).
holds(s_7497_jpg, awning).
holds(s_7497_jpg, billboard).
holds(s_7497_jpg, porch).
holds(s_7497_jpg, sign).
holds(s_7497_jpg, tiledrooftop).
holds(s_7497_jpg, pipe).
holds(s_7497_jpg, machine).
holds(s_7497_jpg, commercial).

sample(s_11486_jpg).
holds(s_11486_jpg, building).
holds(s_11486_jpg, feature).
holds(s_11486_jpg, suburban).
holds(s_11486_jpg, door).
holds(s_11486_jpg, window).
holds(s_11486_jpg, awning).
holds(s_11486_jpg, porch).
holds(s_11486_jpg, tiledrooftop).
holds(s_11486_jpg, vendingmachine).
holds(s_11486_jpg, statue).
holds(s_11486_jpg, pipe).
holds(s_11486_jpg, residential).

sample(s_15220_jpg).
holds(s_15220_jpg, building).
holds(s_15220_jpg, feature).
holds(s_15220_jpg, constructionsite).
holds(s_15220_jpg, awning).
holds(s_15220_jpg, billboard).
holds(s_15220_jpg, porch).
holds(s_15220_jpg, tiledrooftop).
holds(s_15220_jpg, vendingmachine).
holds(s_15220_jpg, wallsign).
holds(s_15220_jpg, chimney).
holds(s_15220_jpg, pipe).
holds(s_15220_jpg, machine).
holds(s_15220_jpg, industrial).

sample(s_2641_jpg).
holds(s_2641_jpg, building).
holds(s_2641_jpg, feature).
holds(s_2641_jpg, constructionsite).
holds(s_2641_jpg, door).
holds(s_2641_jpg, awning).
holds(s_2641_jpg, billboard).
holds(s_2641_jpg, porch).
holds(s_2641_jpg, tiledrooftop).
holds(s_2641_jpg, wallsign).
holds(s_2641_jpg, chimney).
holds(s_2641_jpg, pipe).
holds(s_2641_jpg, machine).
holds(s_2641_jpg, industrial).

sample(s_15266_jpg).
holds(s_15266_jpg, building).
holds(s_15266_jpg, feature).
holds(s_15266_jpg, suburban).
holds(s_15266_jpg, door).
holds(s_15266_jpg, awning).
holds(s_15266_jpg, billboard).
holds(s_15266_jpg, porch).
holds(s_15266_jpg, table).
holds(s_15266_jpg, tiledrooftop).
holds(s_15266_jpg, vendingmachine).
holds(s_15266_jpg, wallsign).
holds(s_15266_jpg, statue).
holds(s_15266_jpg, chimney).
holds(s_15266_jpg, pipe).
holds(s_15266_jpg, truck).
holds(s_15266_jpg, car).
holds(s_15266_jpg, residential).

sample(s_10636_jpg).
holds(s_10636_jpg, building).
holds(s_10636_jpg, feature).
holds(s_10636_jpg, constructionsite).
holds(s_10636_jpg, awning).
holds(s_10636_jpg, billboard).
holds(s_10636_jpg, porch).
holds(s_10636_jpg, sign).
holds(s_10636_jpg, tiledrooftop).
holds(s_10636_jpg, wallsign).
holds(s_10636_jpg, chimney).
holds(s_10636_jpg, pipe).
holds(s_10636_jpg, machine).
holds(s_10636_jpg, industrial).

sample(s_14416_jpg).
holds(s_14416_jpg, building).
holds(s_14416_jpg, feature).
holds(s_14416_jpg, constructionsite).
holds(s_14416_jpg, awning).
holds(s_14416_jpg, billboard).
holds(s_14416_jpg, porch).
holds(s_14416_jpg, tiledrooftop).
holds(s_14416_jpg, wallsign).
holds(s_14416_jpg, chimney).
holds(s_14416_jpg, pipe).
holds(s_14416_jpg, machine).
holds(s_14416_jpg, industrial).

sample(s_2373_jpg).
holds(s_2373_jpg, building).
holds(s_2373_jpg, feature).
holds(s_2373_jpg, hotel).
holds(s_2373_jpg, door).
holds(s_2373_jpg, awning).
holds(s_2373_jpg, porch).
holds(s_2373_jpg, tiledrooftop).
holds(s_2373_jpg, statue).
holds(s_2373_jpg, chimney).
holds(s_2373_jpg, pipe).
holds(s_2373_jpg, machine).
holds(s_2373_jpg, truck).
holds(s_2373_jpg, commercial).

sample(s_7083_jpg).
holds(s_7083_jpg, building).
holds(s_7083_jpg, feature).
holds(s_7083_jpg, hotel).
holds(s_7083_jpg, door).
holds(s_7083_jpg, window).
holds(s_7083_jpg, awning).
holds(s_7083_jpg, porch).
holds(s_7083_jpg, tiledrooftop).
holds(s_7083_jpg, statue).
holds(s_7083_jpg, chimney).
holds(s_7083_jpg, machine).
holds(s_7083_jpg, commercial).

sample(s_11997_jpg).
holds(s_11997_jpg, building).
holds(s_11997_jpg, feature).
holds(s_11997_jpg, hotel).
holds(s_11997_jpg, door).
holds(s_11997_jpg, awning).
holds(s_11997_jpg, porch).
holds(s_11997_jpg, sign).
holds(s_11997_jpg, tiledrooftop).
holds(s_11997_jpg, statue).
holds(s_11997_jpg, pipe).
holds(s_11997_jpg, machine).
holds(s_11997_jpg, commercial).

sample(s_9944_jpg).
holds(s_9944_jpg, building).
holds(s_9944_jpg, feature).
holds(s_9944_jpg, suburban).
holds(s_9944_jpg, door).
holds(s_9944_jpg, window).
holds(s_9944_jpg, awning).
holds(s_9944_jpg, porch).
holds(s_9944_jpg, tiledrooftop).
holds(s_9944_jpg, vendingmachine).
holds(s_9944_jpg, wallsign).
holds(s_9944_jpg, statue).
holds(s_9944_jpg, pipe).
holds(s_9944_jpg, car).
holds(s_9944_jpg, residential).

sample(s_2149_jpg).
holds(s_2149_jpg, building).
holds(s_2149_jpg, feature).
holds(s_2149_jpg, constructionsite).
holds(s_2149_jpg, awning).
holds(s_2149_jpg, billboard).
holds(s_2149_jpg, porch).
holds(s_2149_jpg, tiledrooftop).
holds(s_2149_jpg, wallsign).
holds(s_2149_jpg, chimney).
holds(s_2149_jpg, pipe).
holds(s_2149_jpg, machine).
holds(s_2149_jpg, industrial).

sample(s_5610_jpg).
holds(s_5610_jpg, building).
holds(s_5610_jpg, feature).
holds(s_5610_jpg, hotel).
holds(s_5610_jpg, door).
holds(s_5610_jpg, awning).
holds(s_5610_jpg, porch).
holds(s_5610_jpg, tiledrooftop).
holds(s_5610_jpg, statue).
holds(s_5610_jpg, chimney).
holds(s_5610_jpg, pipe).
holds(s_5610_jpg, machine).
holds(s_5610_jpg, commercial).

sample(s_11213_jpg).
holds(s_11213_jpg, building).
holds(s_11213_jpg, feature).
holds(s_11213_jpg, suburban).
holds(s_11213_jpg, door).
holds(s_11213_jpg, window).
holds(s_11213_jpg, awning).
holds(s_11213_jpg, porch).
holds(s_11213_jpg, tiledrooftop).
holds(s_11213_jpg, vendingmachine).
holds(s_11213_jpg, wallsign).
holds(s_11213_jpg, statue).
holds(s_11213_jpg, pipe).
holds(s_11213_jpg, truck).
holds(s_11213_jpg, car).
holds(s_11213_jpg, residential).

sample(s_10930_jpg).
holds(s_10930_jpg, building).
holds(s_10930_jpg, feature).
holds(s_10930_jpg, constructionsite).
holds(s_10930_jpg, awning).
holds(s_10930_jpg, billboard).
holds(s_10930_jpg, porch).
holds(s_10930_jpg, tiledrooftop).
holds(s_10930_jpg, wallsign).
holds(s_10930_jpg, chimney).
holds(s_10930_jpg, pipe).
holds(s_10930_jpg, machine).
holds(s_10930_jpg, industrial).

sample(s_10782_jpg).
holds(s_10782_jpg, building).
holds(s_10782_jpg, feature).
holds(s_10782_jpg, hotel).
holds(s_10782_jpg, door).
holds(s_10782_jpg, awning).
holds(s_10782_jpg, billboard).
holds(s_10782_jpg, porch).
holds(s_10782_jpg, sign).
holds(s_10782_jpg, tiledrooftop).
holds(s_10782_jpg, statue).
holds(s_10782_jpg, chimney).
holds(s_10782_jpg, pipe).
holds(s_10782_jpg, machine).
holds(s_10782_jpg, commercial).

sample(s_13276_jpg).
holds(s_13276_jpg, building).
holds(s_13276_jpg, feature).
holds(s_13276_jpg, constructionsite).
holds(s_13276_jpg, awning).
holds(s_13276_jpg, billboard).
holds(s_13276_jpg, porch).
holds(s_13276_jpg, tiledrooftop).
holds(s_13276_jpg, wallsign).
holds(s_13276_jpg, chimney).
holds(s_13276_jpg, pipe).
holds(s_13276_jpg, machine).
holds(s_13276_jpg, industrial).

sample(s_7914_jpg).
holds(s_7914_jpg, building).
holds(s_7914_jpg, feature).
holds(s_7914_jpg, hotel).
holds(s_7914_jpg, door).
holds(s_7914_jpg, awning).
holds(s_7914_jpg, porch).
holds(s_7914_jpg, sign).
holds(s_7914_jpg, tiledrooftop).
holds(s_7914_jpg, statue).
holds(s_7914_jpg, machine).
holds(s_7914_jpg, commercial).

sample(s_5174_jpg).
holds(s_5174_jpg, building).
holds(s_5174_jpg, feature).
holds(s_5174_jpg, suburban).
holds(s_5174_jpg, door).
holds(s_5174_jpg, window).
holds(s_5174_jpg, awning).
holds(s_5174_jpg, table).
holds(s_5174_jpg, tiledrooftop).
holds(s_5174_jpg, vendingmachine).
holds(s_5174_jpg, wallsign).
holds(s_5174_jpg, statue).
holds(s_5174_jpg, pipe).
holds(s_5174_jpg, residential).

sample(s_6303_jpg).
holds(s_6303_jpg, building).
holds(s_6303_jpg, feature).
holds(s_6303_jpg, hotel).
holds(s_6303_jpg, door).
holds(s_6303_jpg, awning).
holds(s_6303_jpg, porch).
holds(s_6303_jpg, sign).
holds(s_6303_jpg, tiledrooftop).
holds(s_6303_jpg, statue).
holds(s_6303_jpg, chimney).
holds(s_6303_jpg, pipe).
holds(s_6303_jpg, machine).
holds(s_6303_jpg, commercial).

sample(s_6493_jpg).
holds(s_6493_jpg, building).
holds(s_6493_jpg, feature).
holds(s_6493_jpg, constructionsite).
holds(s_6493_jpg, door).
holds(s_6493_jpg, awning).
holds(s_6493_jpg, billboard).
holds(s_6493_jpg, porch).
holds(s_6493_jpg, tiledrooftop).
holds(s_6493_jpg, wallsign).
holds(s_6493_jpg, chimney).
holds(s_6493_jpg, pipe).
holds(s_6493_jpg, machine).
holds(s_6493_jpg, industrial).

sample(s_5121_jpg).
holds(s_5121_jpg, building).
holds(s_5121_jpg, feature).
holds(s_5121_jpg, hotel).
holds(s_5121_jpg, door).
holds(s_5121_jpg, awning).
holds(s_5121_jpg, porch).
holds(s_5121_jpg, tiledrooftop).
holds(s_5121_jpg, vendingmachine).
holds(s_5121_jpg, wallsign).
holds(s_5121_jpg, statue).
holds(s_5121_jpg, chimney).
holds(s_5121_jpg, pipe).
holds(s_5121_jpg, machine).
holds(s_5121_jpg, commercial).

sample(s_8445_jpg).
holds(s_8445_jpg, building).
holds(s_8445_jpg, feature).
holds(s_8445_jpg, hotel).
holds(s_8445_jpg, door).
holds(s_8445_jpg, awning).
holds(s_8445_jpg, porch).
holds(s_8445_jpg, tiledrooftop).
holds(s_8445_jpg, vendingmachine).
holds(s_8445_jpg, wallsign).
holds(s_8445_jpg, statue).
holds(s_8445_jpg, chimney).
holds(s_8445_jpg, pipe).
holds(s_8445_jpg, machine).
holds(s_8445_jpg, truck).
holds(s_8445_jpg, commercial).

sample(s_6140_jpg).
holds(s_6140_jpg, building).
holds(s_6140_jpg, feature).
holds(s_6140_jpg, suburban).
holds(s_6140_jpg, door).
holds(s_6140_jpg, window).
holds(s_6140_jpg, awning).
holds(s_6140_jpg, porch).
holds(s_6140_jpg, tiledrooftop).
holds(s_6140_jpg, vendingmachine).
holds(s_6140_jpg, wallsign).
holds(s_6140_jpg, statue).
holds(s_6140_jpg, residential).

sample(s_6575_jpg).
holds(s_6575_jpg, building).
holds(s_6575_jpg, feature).
holds(s_6575_jpg, suburban).
holds(s_6575_jpg, door).
holds(s_6575_jpg, window).
holds(s_6575_jpg, awning).
holds(s_6575_jpg, porch).
holds(s_6575_jpg, tiledrooftop).
holds(s_6575_jpg, vendingmachine).
holds(s_6575_jpg, statue).
holds(s_6575_jpg, pipe).
holds(s_6575_jpg, residential).

sample(s_7466_jpg).
holds(s_7466_jpg, building).
holds(s_7466_jpg, feature).
holds(s_7466_jpg, suburban).
holds(s_7466_jpg, door).
holds(s_7466_jpg, window).
holds(s_7466_jpg, awning).
holds(s_7466_jpg, porch).
holds(s_7466_jpg, tiledrooftop).
holds(s_7466_jpg, vendingmachine).
holds(s_7466_jpg, wallsign).
holds(s_7466_jpg, statue).
holds(s_7466_jpg, residential).

sample(s_5928_jpg).
holds(s_5928_jpg, building).
holds(s_5928_jpg, feature).
holds(s_5928_jpg, constructionsite).
holds(s_5928_jpg, awning).
holds(s_5928_jpg, billboard).
holds(s_5928_jpg, porch).
holds(s_5928_jpg, tiledrooftop).
holds(s_5928_jpg, wallsign).
holds(s_5928_jpg, chimney).
holds(s_5928_jpg, pipe).
holds(s_5928_jpg, machine).
holds(s_5928_jpg, industrial).

sample(s_9972_jpg).
holds(s_9972_jpg, building).
holds(s_9972_jpg, feature).
holds(s_9972_jpg, hotel).
holds(s_9972_jpg, door).
holds(s_9972_jpg, awning).
holds(s_9972_jpg, billboard).
holds(s_9972_jpg, porch).
holds(s_9972_jpg, sign).
holds(s_9972_jpg, tiledrooftop).
holds(s_9972_jpg, pipe).
holds(s_9972_jpg, machine).
holds(s_9972_jpg, commercial).

sample(s_5663_jpg).
holds(s_5663_jpg, building).
holds(s_5663_jpg, feature).
holds(s_5663_jpg, suburban).
holds(s_5663_jpg, door).
holds(s_5663_jpg, window).
holds(s_5663_jpg, awning).
holds(s_5663_jpg, porch).
holds(s_5663_jpg, tiledrooftop).
holds(s_5663_jpg, vendingmachine).
holds(s_5663_jpg, wallsign).
holds(s_5663_jpg, statue).
holds(s_5663_jpg, residential).

sample(s_10317_jpg).
holds(s_10317_jpg, building).
holds(s_10317_jpg, feature).
holds(s_10317_jpg, hotel).
holds(s_10317_jpg, door).
holds(s_10317_jpg, awning).
holds(s_10317_jpg, billboard).
holds(s_10317_jpg, porch).
holds(s_10317_jpg, sign).
holds(s_10317_jpg, tiledrooftop).
holds(s_10317_jpg, statue).
holds(s_10317_jpg, chimney).
holds(s_10317_jpg, machine).
holds(s_10317_jpg, commercial).

sample(s_14706_jpg).
holds(s_14706_jpg, building).
holds(s_14706_jpg, feature).
holds(s_14706_jpg, hotel).
holds(s_14706_jpg, door).
holds(s_14706_jpg, awning).
holds(s_14706_jpg, billboard).
holds(s_14706_jpg, porch).
holds(s_14706_jpg, sign).
holds(s_14706_jpg, tiledrooftop).
holds(s_14706_jpg, chimney).
holds(s_14706_jpg, pipe).
holds(s_14706_jpg, machine).
holds(s_14706_jpg, commercial).

sample(s_14585_jpg).
holds(s_14585_jpg, building).
holds(s_14585_jpg, feature).
holds(s_14585_jpg, suburban).
holds(s_14585_jpg, door).
holds(s_14585_jpg, window).
holds(s_14585_jpg, awning).
holds(s_14585_jpg, porch).
holds(s_14585_jpg, tiledrooftop).
holds(s_14585_jpg, vendingmachine).
holds(s_14585_jpg, wallsign).
holds(s_14585_jpg, statue).
holds(s_14585_jpg, residential).

sample(s_9939_jpg).
holds(s_9939_jpg, building).
holds(s_9939_jpg, feature).
holds(s_9939_jpg, hotel).
holds(s_9939_jpg, door).
holds(s_9939_jpg, awning).
holds(s_9939_jpg, billboard).
holds(s_9939_jpg, porch).
holds(s_9939_jpg, tiledrooftop).
holds(s_9939_jpg, statue).
holds(s_9939_jpg, chimney).
holds(s_9939_jpg, machine).
holds(s_9939_jpg, commercial).

sample(s_2405_jpg).
holds(s_2405_jpg, building).
holds(s_2405_jpg, feature).
holds(s_2405_jpg, suburban).
holds(s_2405_jpg, door).
holds(s_2405_jpg, window).
holds(s_2405_jpg, awning).
holds(s_2405_jpg, porch).
holds(s_2405_jpg, tiledrooftop).
holds(s_2405_jpg, vendingmachine).
holds(s_2405_jpg, statue).
holds(s_2405_jpg, residential).

sample(s_15870_jpg).
holds(s_15870_jpg, building).
holds(s_15870_jpg, feature).
holds(s_15870_jpg, hotel).
holds(s_15870_jpg, door).
holds(s_15870_jpg, awning).
holds(s_15870_jpg, billboard).
holds(s_15870_jpg, porch).
holds(s_15870_jpg, sign).
holds(s_15870_jpg, tiledrooftop).
holds(s_15870_jpg, pipe).
holds(s_15870_jpg, machine).
holds(s_15870_jpg, commercial).

sample(s_7974_jpg).
holds(s_7974_jpg, building).
holds(s_7974_jpg, feature).
holds(s_7974_jpg, hotel).
holds(s_7974_jpg, door).
holds(s_7974_jpg, awning).
holds(s_7974_jpg, billboard).
holds(s_7974_jpg, porch).
holds(s_7974_jpg, sign).
holds(s_7974_jpg, tiledrooftop).
holds(s_7974_jpg, statue).
holds(s_7974_jpg, chimney).
holds(s_7974_jpg, pipe).
holds(s_7974_jpg, machine).
holds(s_7974_jpg, truck).
holds(s_7974_jpg, commercial).

sample(s_4556_jpg).
holds(s_4556_jpg, building).
holds(s_4556_jpg, feature).
holds(s_4556_jpg, suburban).
holds(s_4556_jpg, door).
holds(s_4556_jpg, window).
holds(s_4556_jpg, awning).
holds(s_4556_jpg, porch).
holds(s_4556_jpg, tiledrooftop).
holds(s_4556_jpg, vendingmachine).
holds(s_4556_jpg, statue).
holds(s_4556_jpg, residential).

sample(s_6157_jpg).
holds(s_6157_jpg, building).
holds(s_6157_jpg, feature).
holds(s_6157_jpg, constructionsite).
holds(s_6157_jpg, awning).
holds(s_6157_jpg, billboard).
holds(s_6157_jpg, porch).
holds(s_6157_jpg, tiledrooftop).
holds(s_6157_jpg, wallsign).
holds(s_6157_jpg, statue).
holds(s_6157_jpg, chimney).
holds(s_6157_jpg, pipe).
holds(s_6157_jpg, machine).
holds(s_6157_jpg, industrial).

sample(s_14402_jpg).
holds(s_14402_jpg, building).
holds(s_14402_jpg, feature).
holds(s_14402_jpg, suburban).
holds(s_14402_jpg, door).
holds(s_14402_jpg, window).
holds(s_14402_jpg, awning).
holds(s_14402_jpg, porch).
holds(s_14402_jpg, tiledrooftop).
holds(s_14402_jpg, vendingmachine).
holds(s_14402_jpg, wallsign).
holds(s_14402_jpg, statue).
holds(s_14402_jpg, residential).

sample(s_14943_jpg).
holds(s_14943_jpg, building).
holds(s_14943_jpg, feature).
holds(s_14943_jpg, hotel).
holds(s_14943_jpg, door).
holds(s_14943_jpg, awning).
holds(s_14943_jpg, porch).
holds(s_14943_jpg, tiledrooftop).
holds(s_14943_jpg, statue).
holds(s_14943_jpg, chimney).
holds(s_14943_jpg, pipe).
holds(s_14943_jpg, machine).
holds(s_14943_jpg, commercial).

sample(s_5064_jpg).
holds(s_5064_jpg, building).
holds(s_5064_jpg, feature).
holds(s_5064_jpg, hotel).
holds(s_5064_jpg, door).
holds(s_5064_jpg, awning).
holds(s_5064_jpg, billboard).
holds(s_5064_jpg, porch).
holds(s_5064_jpg, sign).
holds(s_5064_jpg, tiledrooftop).
holds(s_5064_jpg, chimney).
holds(s_5064_jpg, pipe).
holds(s_5064_jpg, machine).
holds(s_5064_jpg, commercial).

sample(s_9314_jpg).
holds(s_9314_jpg, building).
holds(s_9314_jpg, feature).
holds(s_9314_jpg, suburban).
holds(s_9314_jpg, door).
holds(s_9314_jpg, window).
holds(s_9314_jpg, awning).
holds(s_9314_jpg, table).
holds(s_9314_jpg, tiledrooftop).
holds(s_9314_jpg, vendingmachine).
holds(s_9314_jpg, wallsign).
holds(s_9314_jpg, statue).
holds(s_9314_jpg, pipe).
holds(s_9314_jpg, car).
holds(s_9314_jpg, residential).

sample(s_13646_jpg).
holds(s_13646_jpg, building).
holds(s_13646_jpg, feature).
holds(s_13646_jpg, suburban).
holds(s_13646_jpg, door).
holds(s_13646_jpg, awning).
holds(s_13646_jpg, porch).
holds(s_13646_jpg, table).
holds(s_13646_jpg, tiledrooftop).
holds(s_13646_jpg, vendingmachine).
holds(s_13646_jpg, wallsign).
holds(s_13646_jpg, statue).
holds(s_13646_jpg, chimney).
holds(s_13646_jpg, pipe).
holds(s_13646_jpg, truck).
holds(s_13646_jpg, car).
holds(s_13646_jpg, residential).

sample(s_10680_jpg).
holds(s_10680_jpg, building).
holds(s_10680_jpg, feature).
holds(s_10680_jpg, hotel).
holds(s_10680_jpg, door).
holds(s_10680_jpg, awning).
holds(s_10680_jpg, billboard).
holds(s_10680_jpg, porch).
holds(s_10680_jpg, sign).
holds(s_10680_jpg, tiledrooftop).
holds(s_10680_jpg, statue).
holds(s_10680_jpg, chimney).
holds(s_10680_jpg, pipe).
holds(s_10680_jpg, machine).
holds(s_10680_jpg, commercial).

sample(s_14596_jpg).
holds(s_14596_jpg, building).
holds(s_14596_jpg, feature).
holds(s_14596_jpg, constructionsite).
holds(s_14596_jpg, awning).
holds(s_14596_jpg, billboard).
holds(s_14596_jpg, porch).
holds(s_14596_jpg, tiledrooftop).
holds(s_14596_jpg, wallsign).
holds(s_14596_jpg, chimney).
holds(s_14596_jpg, pipe).
holds(s_14596_jpg, machine).
holds(s_14596_jpg, industrial).

sample(s_3732_jpg).
holds(s_3732_jpg, building).
holds(s_3732_jpg, feature).
holds(s_3732_jpg, hotel).
holds(s_3732_jpg, door).
holds(s_3732_jpg, awning).
holds(s_3732_jpg, porch).
holds(s_3732_jpg, sign).
holds(s_3732_jpg, tiledrooftop).
holds(s_3732_jpg, statue).
holds(s_3732_jpg, pipe).
holds(s_3732_jpg, machine).
holds(s_3732_jpg, commercial).

sample(s_9748_jpg).
holds(s_9748_jpg, building).
holds(s_9748_jpg, feature).
holds(s_9748_jpg, constructionsite).
holds(s_9748_jpg, awning).
holds(s_9748_jpg, billboard).
holds(s_9748_jpg, porch).
holds(s_9748_jpg, tiledrooftop).
holds(s_9748_jpg, wallsign).
holds(s_9748_jpg, chimney).
holds(s_9748_jpg, pipe).
holds(s_9748_jpg, machine).
holds(s_9748_jpg, industrial).

sample(s_7069_jpg).
holds(s_7069_jpg, building).
holds(s_7069_jpg, feature).
holds(s_7069_jpg, constructionsite).
holds(s_7069_jpg, door).
holds(s_7069_jpg, awning).
holds(s_7069_jpg, billboard).
holds(s_7069_jpg, porch).
holds(s_7069_jpg, tiledrooftop).
holds(s_7069_jpg, vendingmachine).
holds(s_7069_jpg, wallsign).
holds(s_7069_jpg, statue).
holds(s_7069_jpg, chimney).
holds(s_7069_jpg, pipe).
holds(s_7069_jpg, machine).
holds(s_7069_jpg, industrial).

sample(s_1827_jpg).
holds(s_1827_jpg, building).
holds(s_1827_jpg, feature).
holds(s_1827_jpg, hotel).
holds(s_1827_jpg, door).
holds(s_1827_jpg, awning).
holds(s_1827_jpg, billboard).
holds(s_1827_jpg, porch).
holds(s_1827_jpg, tiledrooftop).
holds(s_1827_jpg, statue).
holds(s_1827_jpg, chimney).
holds(s_1827_jpg, machine).
holds(s_1827_jpg, commercial).

sample(s_13618_jpg).
holds(s_13618_jpg, building).
holds(s_13618_jpg, feature).
holds(s_13618_jpg, constructionsite).
holds(s_13618_jpg, door).
holds(s_13618_jpg, awning).
holds(s_13618_jpg, billboard).
holds(s_13618_jpg, porch).
holds(s_13618_jpg, tiledrooftop).
holds(s_13618_jpg, vendingmachine).
holds(s_13618_jpg, wallsign).
holds(s_13618_jpg, statue).
holds(s_13618_jpg, chimney).
holds(s_13618_jpg, pipe).
holds(s_13618_jpg, machine).
holds(s_13618_jpg, industrial).

sample(s_2833_jpg).
holds(s_2833_jpg, building).
holds(s_2833_jpg, feature).
holds(s_2833_jpg, constructionsite).
holds(s_2833_jpg, awning).
holds(s_2833_jpg, billboard).
holds(s_2833_jpg, porch).
holds(s_2833_jpg, tiledrooftop).
holds(s_2833_jpg, chimney).
holds(s_2833_jpg, machine).
holds(s_2833_jpg, industrial).

sample(s_13868_jpg).
holds(s_13868_jpg, building).
holds(s_13868_jpg, feature).
holds(s_13868_jpg, suburban).
holds(s_13868_jpg, door).
holds(s_13868_jpg, window).
holds(s_13868_jpg, awning).
holds(s_13868_jpg, porch).
holds(s_13868_jpg, tiledrooftop).
holds(s_13868_jpg, vendingmachine).
holds(s_13868_jpg, statue).
holds(s_13868_jpg, residential).

sample(s_15623_jpg).
holds(s_15623_jpg, building).
holds(s_15623_jpg, feature).
holds(s_15623_jpg, suburban).
holds(s_15623_jpg, door).
holds(s_15623_jpg, window).
holds(s_15623_jpg, awning).
holds(s_15623_jpg, porch).
holds(s_15623_jpg, table).
holds(s_15623_jpg, tiledrooftop).
holds(s_15623_jpg, vendingmachine).
holds(s_15623_jpg, wallsign).
holds(s_15623_jpg, statue).
holds(s_15623_jpg, pipe).
holds(s_15623_jpg, car).
holds(s_15623_jpg, residential).

sample(s_10798_jpg).
holds(s_10798_jpg, building).
holds(s_10798_jpg, feature).
holds(s_10798_jpg, constructionsite).
holds(s_10798_jpg, awning).
holds(s_10798_jpg, billboard).
holds(s_10798_jpg, porch).
holds(s_10798_jpg, tiledrooftop).
holds(s_10798_jpg, wallsign).
holds(s_10798_jpg, chimney).
holds(s_10798_jpg, pipe).
holds(s_10798_jpg, machine).
holds(s_10798_jpg, industrial).

sample(s_4472_jpg).
holds(s_4472_jpg, building).
holds(s_4472_jpg, feature).
holds(s_4472_jpg, suburban).
holds(s_4472_jpg, door).
holds(s_4472_jpg, window).
holds(s_4472_jpg, awning).
holds(s_4472_jpg, porch).
holds(s_4472_jpg, table).
holds(s_4472_jpg, tiledrooftop).
holds(s_4472_jpg, vendingmachine).
holds(s_4472_jpg, wallsign).
holds(s_4472_jpg, statue).
holds(s_4472_jpg, pipe).
holds(s_4472_jpg, car).
holds(s_4472_jpg, residential).

sample(s_3710_jpg).
holds(s_3710_jpg, building).
holds(s_3710_jpg, feature).
holds(s_3710_jpg, suburban).
holds(s_3710_jpg, door).
holds(s_3710_jpg, window).
holds(s_3710_jpg, awning).
holds(s_3710_jpg, porch).
holds(s_3710_jpg, tiledrooftop).
holds(s_3710_jpg, vendingmachine).
holds(s_3710_jpg, statue).
holds(s_3710_jpg, residential).

sample(s_13050_jpg).
holds(s_13050_jpg, building).
holds(s_13050_jpg, feature).
holds(s_13050_jpg, hotel).
holds(s_13050_jpg, door).
holds(s_13050_jpg, awning).
holds(s_13050_jpg, billboard).
holds(s_13050_jpg, porch).
holds(s_13050_jpg, tiledrooftop).
holds(s_13050_jpg, statue).
holds(s_13050_jpg, chimney).
holds(s_13050_jpg, pipe).
holds(s_13050_jpg, machine).
holds(s_13050_jpg, truck).
holds(s_13050_jpg, commercial).

sample(s_14118_jpg).
holds(s_14118_jpg, building).
holds(s_14118_jpg, feature).
holds(s_14118_jpg, hotel).
holds(s_14118_jpg, door).
holds(s_14118_jpg, awning).
holds(s_14118_jpg, porch).
holds(s_14118_jpg, sign).
holds(s_14118_jpg, tiledrooftop).
holds(s_14118_jpg, statue).
holds(s_14118_jpg, pipe).
holds(s_14118_jpg, machine).
holds(s_14118_jpg, commercial).

sample(s_8127_jpg).
holds(s_8127_jpg, building).
holds(s_8127_jpg, feature).
holds(s_8127_jpg, hotel).
holds(s_8127_jpg, door).
holds(s_8127_jpg, window).
holds(s_8127_jpg, awning).
holds(s_8127_jpg, porch).
holds(s_8127_jpg, sign).
holds(s_8127_jpg, tiledrooftop).
holds(s_8127_jpg, statue).
holds(s_8127_jpg, pipe).
holds(s_8127_jpg, machine).
holds(s_8127_jpg, commercial).

sample(s_11752_jpg).
holds(s_11752_jpg, building).
holds(s_11752_jpg, feature).
holds(s_11752_jpg, constructionsite).
holds(s_11752_jpg, awning).
holds(s_11752_jpg, billboard).
holds(s_11752_jpg, porch).
holds(s_11752_jpg, tiledrooftop).
holds(s_11752_jpg, vendingmachine).
holds(s_11752_jpg, wallsign).
holds(s_11752_jpg, statue).
holds(s_11752_jpg, chimney).
holds(s_11752_jpg, pipe).
holds(s_11752_jpg, machine).
holds(s_11752_jpg, industrial).

sample(s_121_jpg).
holds(s_121_jpg, building).
holds(s_121_jpg, feature).
holds(s_121_jpg, constructionsite).
holds(s_121_jpg, awning).
holds(s_121_jpg, billboard).
holds(s_121_jpg, porch).
holds(s_121_jpg, tiledrooftop).
holds(s_121_jpg, vendingmachine).
holds(s_121_jpg, wallsign).
holds(s_121_jpg, chimney).
holds(s_121_jpg, pipe).
holds(s_121_jpg, machine).
holds(s_121_jpg, industrial).

sample(s_10792_jpg).
holds(s_10792_jpg, building).
holds(s_10792_jpg, feature).
holds(s_10792_jpg, constructionsite).
holds(s_10792_jpg, door).
holds(s_10792_jpg, awning).
holds(s_10792_jpg, billboard).
holds(s_10792_jpg, porch).
holds(s_10792_jpg, tiledrooftop).
holds(s_10792_jpg, vendingmachine).
holds(s_10792_jpg, wallsign).
holds(s_10792_jpg, statue).
holds(s_10792_jpg, chimney).
holds(s_10792_jpg, pipe).
holds(s_10792_jpg, machine).
holds(s_10792_jpg, industrial).

sample(s_4811_jpg).
holds(s_4811_jpg, building).
holds(s_4811_jpg, feature).
holds(s_4811_jpg, suburban).
holds(s_4811_jpg, door).
holds(s_4811_jpg, window).
holds(s_4811_jpg, awning).
holds(s_4811_jpg, porch).
holds(s_4811_jpg, tiledrooftop).
holds(s_4811_jpg, vendingmachine).
holds(s_4811_jpg, statue).
holds(s_4811_jpg, residential).

sample(s_5753_jpg).
holds(s_5753_jpg, building).
holds(s_5753_jpg, feature).
holds(s_5753_jpg, suburban).
holds(s_5753_jpg, door).
holds(s_5753_jpg, window).
holds(s_5753_jpg, awning).
holds(s_5753_jpg, porch).
holds(s_5753_jpg, tiledrooftop).
holds(s_5753_jpg, vendingmachine).
holds(s_5753_jpg, statue).
holds(s_5753_jpg, residential).

sample(s_6917_jpg).
holds(s_6917_jpg, building).
holds(s_6917_jpg, feature).
holds(s_6917_jpg, suburban).
holds(s_6917_jpg, door).
holds(s_6917_jpg, window).
holds(s_6917_jpg, awning).
holds(s_6917_jpg, table).
holds(s_6917_jpg, tiledrooftop).
holds(s_6917_jpg, vendingmachine).
holds(s_6917_jpg, wallsign).
holds(s_6917_jpg, statue).
holds(s_6917_jpg, pipe).
holds(s_6917_jpg, residential).

sample(s_5892_jpg).
holds(s_5892_jpg, building).
holds(s_5892_jpg, feature).
holds(s_5892_jpg, hotel).
holds(s_5892_jpg, door).
holds(s_5892_jpg, awning).
holds(s_5892_jpg, billboard).
holds(s_5892_jpg, porch).
holds(s_5892_jpg, sign).
holds(s_5892_jpg, tiledrooftop).
holds(s_5892_jpg, pipe).
holds(s_5892_jpg, machine).
holds(s_5892_jpg, commercial).

sample(s_15970_jpg).
holds(s_15970_jpg, building).
holds(s_15970_jpg, feature).
holds(s_15970_jpg, constructionsite).
holds(s_15970_jpg, awning).
holds(s_15970_jpg, billboard).
holds(s_15970_jpg, porch).
holds(s_15970_jpg, tiledrooftop).
holds(s_15970_jpg, chimney).
holds(s_15970_jpg, pipe).
holds(s_15970_jpg, machine).
holds(s_15970_jpg, industrial).

sample(s_615_jpg).
holds(s_615_jpg, building).
holds(s_615_jpg, feature).
holds(s_615_jpg, hotel).
holds(s_615_jpg, door).
holds(s_615_jpg, awning).
holds(s_615_jpg, porch).
holds(s_615_jpg, tiledrooftop).
holds(s_615_jpg, vendingmachine).
holds(s_615_jpg, statue).
holds(s_615_jpg, chimney).
holds(s_615_jpg, machine).
holds(s_615_jpg, commercial).

sample(s_806_jpg).
holds(s_806_jpg, building).
holds(s_806_jpg, feature).
holds(s_806_jpg, suburban).
holds(s_806_jpg, door).
holds(s_806_jpg, window).
holds(s_806_jpg, awning).
holds(s_806_jpg, porch).
holds(s_806_jpg, tiledrooftop).
holds(s_806_jpg, vendingmachine).
holds(s_806_jpg, wallsign).
holds(s_806_jpg, statue).
holds(s_806_jpg, pipe).
holds(s_806_jpg, residential).

sample(s_10577_jpg).
holds(s_10577_jpg, building).
holds(s_10577_jpg, feature).
holds(s_10577_jpg, suburban).
holds(s_10577_jpg, door).
holds(s_10577_jpg, window).
holds(s_10577_jpg, awning).
holds(s_10577_jpg, porch).
holds(s_10577_jpg, tiledrooftop).
holds(s_10577_jpg, vendingmachine).
holds(s_10577_jpg, statue).
holds(s_10577_jpg, residential).

sample(s_3379_jpg).
holds(s_3379_jpg, building).
holds(s_3379_jpg, feature).
holds(s_3379_jpg, constructionsite).
holds(s_3379_jpg, awning).
holds(s_3379_jpg, billboard).
holds(s_3379_jpg, porch).
holds(s_3379_jpg, tiledrooftop).
holds(s_3379_jpg, wallsign).
holds(s_3379_jpg, chimney).
holds(s_3379_jpg, pipe).
holds(s_3379_jpg, machine).
holds(s_3379_jpg, industrial).

sample(s_322_jpg).
holds(s_322_jpg, building).
holds(s_322_jpg, feature).
holds(s_322_jpg, constructionsite).
holds(s_322_jpg, door).
holds(s_322_jpg, awning).
holds(s_322_jpg, billboard).
holds(s_322_jpg, porch).
holds(s_322_jpg, tiledrooftop).
holds(s_322_jpg, wallsign).
holds(s_322_jpg, chimney).
holds(s_322_jpg, pipe).
holds(s_322_jpg, machine).
holds(s_322_jpg, industrial).

sample(s_810_jpg).
holds(s_810_jpg, building).
holds(s_810_jpg, feature).
holds(s_810_jpg, hotel).
holds(s_810_jpg, door).
holds(s_810_jpg, awning).
holds(s_810_jpg, billboard).
holds(s_810_jpg, porch).
holds(s_810_jpg, sign).
holds(s_810_jpg, tiledrooftop).
holds(s_810_jpg, chimney).
holds(s_810_jpg, pipe).
holds(s_810_jpg, machine).
holds(s_810_jpg, commercial).

sample(s_12442_jpg).
holds(s_12442_jpg, building).
holds(s_12442_jpg, feature).
holds(s_12442_jpg, constructionsite).
holds(s_12442_jpg, door).
holds(s_12442_jpg, awning).
holds(s_12442_jpg, billboard).
holds(s_12442_jpg, porch).
holds(s_12442_jpg, tiledrooftop).
holds(s_12442_jpg, wallsign).
holds(s_12442_jpg, chimney).
holds(s_12442_jpg, pipe).
holds(s_12442_jpg, machine).
holds(s_12442_jpg, industrial).

sample(s_608_jpg).
holds(s_608_jpg, building).
holds(s_608_jpg, feature).
holds(s_608_jpg, suburban).
holds(s_608_jpg, door).
holds(s_608_jpg, window).
holds(s_608_jpg, awning).
holds(s_608_jpg, porch).
holds(s_608_jpg, table).
holds(s_608_jpg, tiledrooftop).
holds(s_608_jpg, vendingmachine).
holds(s_608_jpg, wallsign).
holds(s_608_jpg, statue).
holds(s_608_jpg, pipe).
holds(s_608_jpg, residential).

sample(s_3434_jpg).
holds(s_3434_jpg, building).
holds(s_3434_jpg, feature).
holds(s_3434_jpg, suburban).
holds(s_3434_jpg, door).
holds(s_3434_jpg, window).
holds(s_3434_jpg, awning).
holds(s_3434_jpg, porch).
holds(s_3434_jpg, tiledrooftop).
holds(s_3434_jpg, vendingmachine).
holds(s_3434_jpg, statue).
holds(s_3434_jpg, residential).

sample(s_1642_jpg).
holds(s_1642_jpg, building).
holds(s_1642_jpg, feature).
holds(s_1642_jpg, constructionsite).
holds(s_1642_jpg, awning).
holds(s_1642_jpg, billboard).
holds(s_1642_jpg, porch).
holds(s_1642_jpg, tiledrooftop).
holds(s_1642_jpg, wallsign).
holds(s_1642_jpg, chimney).
holds(s_1642_jpg, pipe).
holds(s_1642_jpg, machine).
holds(s_1642_jpg, industrial).

sample(s_9899_jpg).
holds(s_9899_jpg, building).
holds(s_9899_jpg, feature).
holds(s_9899_jpg, suburban).
holds(s_9899_jpg, door).
holds(s_9899_jpg, window).
holds(s_9899_jpg, awning).
holds(s_9899_jpg, porch).
holds(s_9899_jpg, table).
holds(s_9899_jpg, tiledrooftop).
holds(s_9899_jpg, vendingmachine).
holds(s_9899_jpg, wallsign).
holds(s_9899_jpg, statue).
holds(s_9899_jpg, pipe).
holds(s_9899_jpg, car).
holds(s_9899_jpg, residential).

sample(s_13065_jpg).
holds(s_13065_jpg, building).
holds(s_13065_jpg, feature).
holds(s_13065_jpg, hotel).
holds(s_13065_jpg, door).
holds(s_13065_jpg, awning).
holds(s_13065_jpg, billboard).
holds(s_13065_jpg, porch).
holds(s_13065_jpg, sign).
holds(s_13065_jpg, tiledrooftop).
holds(s_13065_jpg, chimney).
holds(s_13065_jpg, pipe).
holds(s_13065_jpg, machine).
holds(s_13065_jpg, commercial).

sample(s_15290_jpg).
holds(s_15290_jpg, building).
holds(s_15290_jpg, feature).
holds(s_15290_jpg, suburban).
holds(s_15290_jpg, door).
holds(s_15290_jpg, window).
holds(s_15290_jpg, awning).
holds(s_15290_jpg, porch).
holds(s_15290_jpg, tiledrooftop).
holds(s_15290_jpg, vendingmachine).
holds(s_15290_jpg, statue).
holds(s_15290_jpg, residential).

sample(s_7505_jpg).
holds(s_7505_jpg, building).
holds(s_7505_jpg, feature).
holds(s_7505_jpg, suburban).
holds(s_7505_jpg, door).
holds(s_7505_jpg, window).
holds(s_7505_jpg, awning).
holds(s_7505_jpg, table).
holds(s_7505_jpg, tiledrooftop).
holds(s_7505_jpg, vendingmachine).
holds(s_7505_jpg, wallsign).
holds(s_7505_jpg, statue).
holds(s_7505_jpg, pipe).
holds(s_7505_jpg, residential).

sample(s_8395_jpg).
holds(s_8395_jpg, building).
holds(s_8395_jpg, feature).
holds(s_8395_jpg, constructionsite).
holds(s_8395_jpg, door).
holds(s_8395_jpg, awning).
holds(s_8395_jpg, billboard).
holds(s_8395_jpg, porch).
holds(s_8395_jpg, tiledrooftop).
holds(s_8395_jpg, wallsign).
holds(s_8395_jpg, chimney).
holds(s_8395_jpg, pipe).
holds(s_8395_jpg, machine).
holds(s_8395_jpg, industrial).

sample(s_15834_jpg).
holds(s_15834_jpg, building).
holds(s_15834_jpg, feature).
holds(s_15834_jpg, hotel).
holds(s_15834_jpg, door).
holds(s_15834_jpg, awning).
holds(s_15834_jpg, billboard).
holds(s_15834_jpg, porch).
holds(s_15834_jpg, sign).
holds(s_15834_jpg, tiledrooftop).
holds(s_15834_jpg, statue).
holds(s_15834_jpg, chimney).
holds(s_15834_jpg, machine).
holds(s_15834_jpg, commercial).

sample(s_2745_jpg).
holds(s_2745_jpg, building).
holds(s_2745_jpg, feature).
holds(s_2745_jpg, hotel).
holds(s_2745_jpg, door).
holds(s_2745_jpg, awning).
holds(s_2745_jpg, porch).
holds(s_2745_jpg, tiledrooftop).
holds(s_2745_jpg, vendingmachine).
holds(s_2745_jpg, wallsign).
holds(s_2745_jpg, statue).
holds(s_2745_jpg, chimney).
holds(s_2745_jpg, pipe).
holds(s_2745_jpg, machine).
holds(s_2745_jpg, commercial).

sample(s_8310_jpg).
holds(s_8310_jpg, building).
holds(s_8310_jpg, feature).
holds(s_8310_jpg, hotel).
holds(s_8310_jpg, door).
holds(s_8310_jpg, awning).
holds(s_8310_jpg, porch).
holds(s_8310_jpg, tiledrooftop).
holds(s_8310_jpg, statue).
holds(s_8310_jpg, chimney).
holds(s_8310_jpg, machine).
holds(s_8310_jpg, commercial).

sample(s_14323_jpg).
holds(s_14323_jpg, building).
holds(s_14323_jpg, feature).
holds(s_14323_jpg, constructionsite).
holds(s_14323_jpg, awning).
holds(s_14323_jpg, billboard).
holds(s_14323_jpg, porch).
holds(s_14323_jpg, tiledrooftop).
holds(s_14323_jpg, wallsign).
holds(s_14323_jpg, chimney).
holds(s_14323_jpg, pipe).
holds(s_14323_jpg, machine).
holds(s_14323_jpg, industrial).

sample(s_6880_jpg).
holds(s_6880_jpg, building).
holds(s_6880_jpg, feature).
holds(s_6880_jpg, constructionsite).
holds(s_6880_jpg, awning).
holds(s_6880_jpg, billboard).
holds(s_6880_jpg, porch).
holds(s_6880_jpg, tiledrooftop).
holds(s_6880_jpg, wallsign).
holds(s_6880_jpg, statue).
holds(s_6880_jpg, chimney).
holds(s_6880_jpg, pipe).
holds(s_6880_jpg, machine).
holds(s_6880_jpg, industrial).

sample(s_14628_jpg).
holds(s_14628_jpg, building).
holds(s_14628_jpg, feature).
holds(s_14628_jpg, hotel).
holds(s_14628_jpg, door).
holds(s_14628_jpg, awning).
holds(s_14628_jpg, billboard).
holds(s_14628_jpg, porch).
holds(s_14628_jpg, sign).
holds(s_14628_jpg, tiledrooftop).
holds(s_14628_jpg, statue).
holds(s_14628_jpg, chimney).
holds(s_14628_jpg, pipe).
holds(s_14628_jpg, machine).
holds(s_14628_jpg, truck).
holds(s_14628_jpg, commercial).

sample(s_9602_jpg).
holds(s_9602_jpg, building).
holds(s_9602_jpg, feature).
holds(s_9602_jpg, suburban).
holds(s_9602_jpg, door).
holds(s_9602_jpg, window).
holds(s_9602_jpg, awning).
holds(s_9602_jpg, porch).
holds(s_9602_jpg, tiledrooftop).
holds(s_9602_jpg, vendingmachine).
holds(s_9602_jpg, wallsign).
holds(s_9602_jpg, statue).
holds(s_9602_jpg, pipe).
holds(s_9602_jpg, residential).

sample(s_8271_jpg).
holds(s_8271_jpg, building).
holds(s_8271_jpg, feature).
holds(s_8271_jpg, hotel).
holds(s_8271_jpg, door).
holds(s_8271_jpg, awning).
holds(s_8271_jpg, billboard).
holds(s_8271_jpg, porch).
holds(s_8271_jpg, sign).
holds(s_8271_jpg, tiledrooftop).
holds(s_8271_jpg, statue).
holds(s_8271_jpg, chimney).
holds(s_8271_jpg, machine).
holds(s_8271_jpg, commercial).

sample(s_12464_jpg).
holds(s_12464_jpg, building).
holds(s_12464_jpg, feature).
holds(s_12464_jpg, constructionsite).
holds(s_12464_jpg, door).
holds(s_12464_jpg, awning).
holds(s_12464_jpg, billboard).
holds(s_12464_jpg, porch).
holds(s_12464_jpg, vendingmachine).
holds(s_12464_jpg, wallsign).
holds(s_12464_jpg, statue).
holds(s_12464_jpg, chimney).
holds(s_12464_jpg, pipe).
holds(s_12464_jpg, machine).
holds(s_12464_jpg, truck).

sample(s_14457_jpg).
holds(s_14457_jpg, building).
holds(s_14457_jpg, feature).
holds(s_14457_jpg, hotel).
holds(s_14457_jpg, door).
holds(s_14457_jpg, awning).
holds(s_14457_jpg, billboard).
holds(s_14457_jpg, porch).
holds(s_14457_jpg, tiledrooftop).
holds(s_14457_jpg, statue).
holds(s_14457_jpg, chimney).
holds(s_14457_jpg, pipe).
holds(s_14457_jpg, machine).
holds(s_14457_jpg, commercial).

sample(s_11311_jpg).
holds(s_11311_jpg, building).
holds(s_11311_jpg, feature).
holds(s_11311_jpg, constructionsite).
holds(s_11311_jpg, awning).
holds(s_11311_jpg, billboard).
holds(s_11311_jpg, porch).
holds(s_11311_jpg, tiledrooftop).
holds(s_11311_jpg, wallsign).
holds(s_11311_jpg, chimney).
holds(s_11311_jpg, pipe).
holds(s_11311_jpg, machine).
holds(s_11311_jpg, industrial).

sample(s_4241_jpg).
holds(s_4241_jpg, building).
holds(s_4241_jpg, feature).
holds(s_4241_jpg, suburban).
holds(s_4241_jpg, door).
holds(s_4241_jpg, window).
holds(s_4241_jpg, awning).
holds(s_4241_jpg, porch).
holds(s_4241_jpg, table).
holds(s_4241_jpg, tiledrooftop).
holds(s_4241_jpg, vendingmachine).
holds(s_4241_jpg, wallsign).
holds(s_4241_jpg, statue).
holds(s_4241_jpg, pipe).
holds(s_4241_jpg, residential).

sample(s_15676_jpg).
holds(s_15676_jpg, building).
holds(s_15676_jpg, feature).
holds(s_15676_jpg, constructionsite).
holds(s_15676_jpg, awning).
holds(s_15676_jpg, billboard).
holds(s_15676_jpg, porch).
holds(s_15676_jpg, tiledrooftop).
holds(s_15676_jpg, wallsign).
holds(s_15676_jpg, chimney).
holds(s_15676_jpg, pipe).
holds(s_15676_jpg, machine).
holds(s_15676_jpg, industrial).

sample(s_10668_jpg).
holds(s_10668_jpg, building).
holds(s_10668_jpg, feature).
holds(s_10668_jpg, hotel).
holds(s_10668_jpg, door).
holds(s_10668_jpg, awning).
holds(s_10668_jpg, billboard).
holds(s_10668_jpg, porch).
holds(s_10668_jpg, sign).
holds(s_10668_jpg, tiledrooftop).
holds(s_10668_jpg, chimney).
holds(s_10668_jpg, pipe).
holds(s_10668_jpg, machine).
holds(s_10668_jpg, commercial).

sample(s_7324_jpg).
holds(s_7324_jpg, building).
holds(s_7324_jpg, feature).
holds(s_7324_jpg, constructionsite).
holds(s_7324_jpg, awning).
holds(s_7324_jpg, billboard).
holds(s_7324_jpg, porch).
holds(s_7324_jpg, tiledrooftop).
holds(s_7324_jpg, vendingmachine).
holds(s_7324_jpg, wallsign).
holds(s_7324_jpg, chimney).
holds(s_7324_jpg, pipe).
holds(s_7324_jpg, machine).
holds(s_7324_jpg, industrial).

sample(s_5978_jpg).
holds(s_5978_jpg, building).
holds(s_5978_jpg, feature).
holds(s_5978_jpg, suburban).
holds(s_5978_jpg, door).
holds(s_5978_jpg, awning).
holds(s_5978_jpg, porch).
holds(s_5978_jpg, tiledrooftop).
holds(s_5978_jpg, vendingmachine).
holds(s_5978_jpg, wallsign).
holds(s_5978_jpg, statue).
holds(s_5978_jpg, chimney).
holds(s_5978_jpg, pipe).
holds(s_5978_jpg, machine).
holds(s_5978_jpg, truck).
holds(s_5978_jpg, car).
holds(s_5978_jpg, residential).

sample(s_2076_jpg).
holds(s_2076_jpg, building).
holds(s_2076_jpg, feature).
holds(s_2076_jpg, door).
holds(s_2076_jpg, awning).
holds(s_2076_jpg, porch).
holds(s_2076_jpg, tiledrooftop).
holds(s_2076_jpg, vendingmachine).
holds(s_2076_jpg, wallsign).
holds(s_2076_jpg, statue).
holds(s_2076_jpg, chimney).
holds(s_2076_jpg, pipe).
holds(s_2076_jpg, machine).
holds(s_2076_jpg, commercial).

sample(s_13057_jpg).
holds(s_13057_jpg, building).
holds(s_13057_jpg, feature).
holds(s_13057_jpg, constructionsite).
holds(s_13057_jpg, awning).
holds(s_13057_jpg, billboard).
holds(s_13057_jpg, porch).
holds(s_13057_jpg, tiledrooftop).
holds(s_13057_jpg, wallsign).
holds(s_13057_jpg, chimney).
holds(s_13057_jpg, pipe).
holds(s_13057_jpg, machine).
holds(s_13057_jpg, industrial).

sample(s_7415_jpg).
holds(s_7415_jpg, building).
holds(s_7415_jpg, feature).
holds(s_7415_jpg, constructionsite).
holds(s_7415_jpg, door).
holds(s_7415_jpg, awning).
holds(s_7415_jpg, billboard).
holds(s_7415_jpg, porch).
holds(s_7415_jpg, tiledrooftop).
holds(s_7415_jpg, vendingmachine).
holds(s_7415_jpg, wallsign).
holds(s_7415_jpg, statue).
holds(s_7415_jpg, chimney).
holds(s_7415_jpg, pipe).
holds(s_7415_jpg, machine).
holds(s_7415_jpg, industrial).

sample(s_4227_jpg).
holds(s_4227_jpg, building).
holds(s_4227_jpg, feature).
holds(s_4227_jpg, hotel).
holds(s_4227_jpg, door).
holds(s_4227_jpg, awning).
holds(s_4227_jpg, billboard).
holds(s_4227_jpg, porch).
holds(s_4227_jpg, sign).
holds(s_4227_jpg, tiledrooftop).
holds(s_4227_jpg, chimney).
holds(s_4227_jpg, pipe).
holds(s_4227_jpg, machine).
holds(s_4227_jpg, truck).
holds(s_4227_jpg, commercial).

sample(s_9626_jpg).
holds(s_9626_jpg, building).
holds(s_9626_jpg, feature).
holds(s_9626_jpg, suburban).
holds(s_9626_jpg, door).
holds(s_9626_jpg, window).
holds(s_9626_jpg, awning).
holds(s_9626_jpg, porch).
holds(s_9626_jpg, table).
holds(s_9626_jpg, tiledrooftop).
holds(s_9626_jpg, vendingmachine).
holds(s_9626_jpg, wallsign).
holds(s_9626_jpg, statue).
holds(s_9626_jpg, pipe).
holds(s_9626_jpg, car).
holds(s_9626_jpg, residential).

sample(s_14465_jpg).
holds(s_14465_jpg, building).
holds(s_14465_jpg, feature).
holds(s_14465_jpg, suburban).
holds(s_14465_jpg, door).
holds(s_14465_jpg, window).
holds(s_14465_jpg, awning).
holds(s_14465_jpg, porch).
holds(s_14465_jpg, tiledrooftop).
holds(s_14465_jpg, vendingmachine).
holds(s_14465_jpg, statue).
holds(s_14465_jpg, pipe).
holds(s_14465_jpg, machine).
holds(s_14465_jpg, residential).

sample(s_5606_jpg).
holds(s_5606_jpg, building).
holds(s_5606_jpg, feature).
holds(s_5606_jpg, suburban).
holds(s_5606_jpg, door).
holds(s_5606_jpg, window).
holds(s_5606_jpg, awning).
holds(s_5606_jpg, porch).
holds(s_5606_jpg, tiledrooftop).
holds(s_5606_jpg, vendingmachine).
holds(s_5606_jpg, wallsign).
holds(s_5606_jpg, statue).
holds(s_5606_jpg, residential).

sample(s_6796_jpg).
holds(s_6796_jpg, building).
holds(s_6796_jpg, feature).
holds(s_6796_jpg, constructionsite).
holds(s_6796_jpg, door).
holds(s_6796_jpg, awning).
holds(s_6796_jpg, billboard).
holds(s_6796_jpg, porch).
holds(s_6796_jpg, tiledrooftop).
holds(s_6796_jpg, vendingmachine).
holds(s_6796_jpg, wallsign).
holds(s_6796_jpg, statue).
holds(s_6796_jpg, chimney).
holds(s_6796_jpg, pipe).
holds(s_6796_jpg, machine).
holds(s_6796_jpg, industrial).

sample(s_13247_jpg).
holds(s_13247_jpg, building).
holds(s_13247_jpg, feature).
holds(s_13247_jpg, suburban).
holds(s_13247_jpg, door).
holds(s_13247_jpg, awning).
holds(s_13247_jpg, billboard).
holds(s_13247_jpg, table).
holds(s_13247_jpg, vendingmachine).
holds(s_13247_jpg, wallsign).
holds(s_13247_jpg, statue).
holds(s_13247_jpg, chimney).
holds(s_13247_jpg, pipe).
holds(s_13247_jpg, truck).
holds(s_13247_jpg, car).
holds(s_13247_jpg, residential).

sample(s_4257_jpg).
holds(s_4257_jpg, building).
holds(s_4257_jpg, feature).
holds(s_4257_jpg, hotel).
holds(s_4257_jpg, door).
holds(s_4257_jpg, awning).
holds(s_4257_jpg, billboard).
holds(s_4257_jpg, porch).
holds(s_4257_jpg, sign).
holds(s_4257_jpg, tiledrooftop).
holds(s_4257_jpg, chimney).
holds(s_4257_jpg, pipe).
holds(s_4257_jpg, machine).
holds(s_4257_jpg, truck).
holds(s_4257_jpg, commercial).

sample(s_13905_jpg).
holds(s_13905_jpg, building).
holds(s_13905_jpg, feature).
holds(s_13905_jpg, hotel).
holds(s_13905_jpg, door).
holds(s_13905_jpg, awning).
holds(s_13905_jpg, porch).
holds(s_13905_jpg, sign).
holds(s_13905_jpg, tiledrooftop).
holds(s_13905_jpg, chimney).
holds(s_13905_jpg, pipe).
holds(s_13905_jpg, machine).
holds(s_13905_jpg, commercial).

sample(s_13493_jpg).
holds(s_13493_jpg, building).
holds(s_13493_jpg, feature).
holds(s_13493_jpg, suburban).
holds(s_13493_jpg, door).
holds(s_13493_jpg, window).
holds(s_13493_jpg, awning).
holds(s_13493_jpg, porch).
holds(s_13493_jpg, tiledrooftop).
holds(s_13493_jpg, vendingmachine).
holds(s_13493_jpg, statue).
holds(s_13493_jpg, residential).

sample(s_10062_jpg).
holds(s_10062_jpg, building).
holds(s_10062_jpg, feature).
holds(s_10062_jpg, hotel).
holds(s_10062_jpg, door).
holds(s_10062_jpg, awning).
holds(s_10062_jpg, billboard).
holds(s_10062_jpg, porch).
holds(s_10062_jpg, sign).
holds(s_10062_jpg, tiledrooftop).
holds(s_10062_jpg, statue).
holds(s_10062_jpg, chimney).
holds(s_10062_jpg, pipe).
holds(s_10062_jpg, machine).
holds(s_10062_jpg, commercial).

sample(s_14016_jpg).
holds(s_14016_jpg, building).
holds(s_14016_jpg, feature).
holds(s_14016_jpg, hotel).
holds(s_14016_jpg, door).
holds(s_14016_jpg, awning).
holds(s_14016_jpg, billboard).
holds(s_14016_jpg, porch).
holds(s_14016_jpg, sign).
holds(s_14016_jpg, tiledrooftop).
holds(s_14016_jpg, chimney).
holds(s_14016_jpg, pipe).
holds(s_14016_jpg, machine).
holds(s_14016_jpg, commercial).

sample(s_13786_jpg).
holds(s_13786_jpg, building).
holds(s_13786_jpg, feature).
holds(s_13786_jpg, constructionsite).
holds(s_13786_jpg, awning).
holds(s_13786_jpg, billboard).
holds(s_13786_jpg, porch).
holds(s_13786_jpg, tiledrooftop).
holds(s_13786_jpg, wallsign).
holds(s_13786_jpg, chimney).
holds(s_13786_jpg, pipe).
holds(s_13786_jpg, machine).
holds(s_13786_jpg, industrial).

sample(s_842_jpg).
holds(s_842_jpg, building).
holds(s_842_jpg, feature).
holds(s_842_jpg, suburban).
holds(s_842_jpg, door).
holds(s_842_jpg, window).
holds(s_842_jpg, awning).
holds(s_842_jpg, porch).
holds(s_842_jpg, tiledrooftop).
holds(s_842_jpg, vendingmachine).
holds(s_842_jpg, wallsign).
holds(s_842_jpg, statue).
holds(s_842_jpg, pipe).
holds(s_842_jpg, car).
holds(s_842_jpg, residential).

sample(s_8340_jpg).
holds(s_8340_jpg, building).
holds(s_8340_jpg, feature).
holds(s_8340_jpg, door).
holds(s_8340_jpg, window).
holds(s_8340_jpg, awning).
holds(s_8340_jpg, porch).
holds(s_8340_jpg, tiledrooftop).
holds(s_8340_jpg, vendingmachine).
holds(s_8340_jpg, statue).
holds(s_8340_jpg, machine).

sample(s_2009_jpg).
holds(s_2009_jpg, building).
holds(s_2009_jpg, feature).
holds(s_2009_jpg, suburban).
holds(s_2009_jpg, door).
holds(s_2009_jpg, window).
holds(s_2009_jpg, awning).
holds(s_2009_jpg, porch).
holds(s_2009_jpg, table).
holds(s_2009_jpg, tiledrooftop).
holds(s_2009_jpg, vendingmachine).
holds(s_2009_jpg, wallsign).
holds(s_2009_jpg, statue).
holds(s_2009_jpg, pipe).
holds(s_2009_jpg, car).
holds(s_2009_jpg, residential).

sample(s_14715_jpg).
holds(s_14715_jpg, building).
holds(s_14715_jpg, feature).
holds(s_14715_jpg, hotel).
holds(s_14715_jpg, door).
holds(s_14715_jpg, awning).
holds(s_14715_jpg, billboard).
holds(s_14715_jpg, porch).
holds(s_14715_jpg, sign).
holds(s_14715_jpg, tiledrooftop).
holds(s_14715_jpg, statue).
holds(s_14715_jpg, chimney).
holds(s_14715_jpg, pipe).
holds(s_14715_jpg, machine).
holds(s_14715_jpg, truck).
holds(s_14715_jpg, commercial).

sample(s_9381_jpg).
holds(s_9381_jpg, building).
holds(s_9381_jpg, feature).
holds(s_9381_jpg, hotel).
holds(s_9381_jpg, door).
holds(s_9381_jpg, awning).
holds(s_9381_jpg, billboard).
holds(s_9381_jpg, porch).
holds(s_9381_jpg, sign).
holds(s_9381_jpg, tiledrooftop).
holds(s_9381_jpg, pipe).
holds(s_9381_jpg, machine).
holds(s_9381_jpg, commercial).

sample(s_8778_jpg).
holds(s_8778_jpg, building).
holds(s_8778_jpg, feature).
holds(s_8778_jpg, hotel).
holds(s_8778_jpg, door).
holds(s_8778_jpg, awning).
holds(s_8778_jpg, porch).
holds(s_8778_jpg, tiledrooftop).
holds(s_8778_jpg, wallsign).
holds(s_8778_jpg, statue).
holds(s_8778_jpg, chimney).
holds(s_8778_jpg, pipe).
holds(s_8778_jpg, machine).
holds(s_8778_jpg, truck).
holds(s_8778_jpg, commercial).

sample(s_3692_jpg).
holds(s_3692_jpg, building).
holds(s_3692_jpg, feature).
holds(s_3692_jpg, suburban).
holds(s_3692_jpg, door).
holds(s_3692_jpg, window).
holds(s_3692_jpg, awning).
holds(s_3692_jpg, porch).
holds(s_3692_jpg, tiledrooftop).
holds(s_3692_jpg, vendingmachine).
holds(s_3692_jpg, wallsign).
holds(s_3692_jpg, statue).
holds(s_3692_jpg, residential).

sample(s_7252_jpg).
holds(s_7252_jpg, building).
holds(s_7252_jpg, feature).
holds(s_7252_jpg, constructionsite).
holds(s_7252_jpg, awning).
holds(s_7252_jpg, billboard).
holds(s_7252_jpg, porch).
holds(s_7252_jpg, tiledrooftop).
holds(s_7252_jpg, wallsign).
holds(s_7252_jpg, chimney).
holds(s_7252_jpg, pipe).
holds(s_7252_jpg, machine).
holds(s_7252_jpg, industrial).

sample(s_9102_jpg).
holds(s_9102_jpg, building).
holds(s_9102_jpg, feature).
holds(s_9102_jpg, hotel).
holds(s_9102_jpg, door).
holds(s_9102_jpg, awning).
holds(s_9102_jpg, porch).
holds(s_9102_jpg, tiledrooftop).
holds(s_9102_jpg, statue).
holds(s_9102_jpg, chimney).
holds(s_9102_jpg, pipe).
holds(s_9102_jpg, machine).
holds(s_9102_jpg, commercial).

sample(s_4421_jpg).
holds(s_4421_jpg, building).
holds(s_4421_jpg, feature).
holds(s_4421_jpg, suburban).
holds(s_4421_jpg, door).
holds(s_4421_jpg, window).
holds(s_4421_jpg, awning).
holds(s_4421_jpg, porch).
holds(s_4421_jpg, tiledrooftop).
holds(s_4421_jpg, vendingmachine).
holds(s_4421_jpg, statue).
holds(s_4421_jpg, residential).

sample(s_15437_jpg).
holds(s_15437_jpg, building).
holds(s_15437_jpg, feature).
holds(s_15437_jpg, suburban).
holds(s_15437_jpg, door).
holds(s_15437_jpg, window).
holds(s_15437_jpg, awning).
holds(s_15437_jpg, table).
holds(s_15437_jpg, tiledrooftop).
holds(s_15437_jpg, vendingmachine).
holds(s_15437_jpg, wallsign).
holds(s_15437_jpg, statue).
holds(s_15437_jpg, pipe).
holds(s_15437_jpg, residential).

sample(s_6572_jpg).
holds(s_6572_jpg, building).
holds(s_6572_jpg, feature).
holds(s_6572_jpg, suburban).
holds(s_6572_jpg, door).
holds(s_6572_jpg, window).
holds(s_6572_jpg, awning).
holds(s_6572_jpg, porch).
holds(s_6572_jpg, tiledrooftop).
holds(s_6572_jpg, vendingmachine).
holds(s_6572_jpg, wallsign).
holds(s_6572_jpg, statue).
holds(s_6572_jpg, residential).

sample(s_5719_jpg).
holds(s_5719_jpg, building).
holds(s_5719_jpg, feature).
holds(s_5719_jpg, constructionsite).
holds(s_5719_jpg, awning).
holds(s_5719_jpg, billboard).
holds(s_5719_jpg, porch).
holds(s_5719_jpg, tiledrooftop).
holds(s_5719_jpg, wallsign).
holds(s_5719_jpg, chimney).
holds(s_5719_jpg, pipe).
holds(s_5719_jpg, machine).
holds(s_5719_jpg, industrial).

sample(s_8519_jpg).
holds(s_8519_jpg, building).
holds(s_8519_jpg, feature).
holds(s_8519_jpg, suburban).
holds(s_8519_jpg, door).
holds(s_8519_jpg, window).
holds(s_8519_jpg, awning).
holds(s_8519_jpg, porch).
holds(s_8519_jpg, table).
holds(s_8519_jpg, tiledrooftop).
holds(s_8519_jpg, vendingmachine).
holds(s_8519_jpg, wallsign).
holds(s_8519_jpg, statue).
holds(s_8519_jpg, pipe).
holds(s_8519_jpg, car).
holds(s_8519_jpg, residential).

sample(s_11852_jpg).
holds(s_11852_jpg, building).
holds(s_11852_jpg, feature).
holds(s_11852_jpg, suburban).
holds(s_11852_jpg, door).
holds(s_11852_jpg, window).
holds(s_11852_jpg, awning).
holds(s_11852_jpg, porch).
holds(s_11852_jpg, tiledrooftop).
holds(s_11852_jpg, vendingmachine).
holds(s_11852_jpg, statue).
holds(s_11852_jpg, residential).

sample(s_758_jpg).
holds(s_758_jpg, building).
holds(s_758_jpg, feature).
holds(s_758_jpg, suburban).
holds(s_758_jpg, door).
holds(s_758_jpg, window).
holds(s_758_jpg, awning).
holds(s_758_jpg, porch).
holds(s_758_jpg, tiledrooftop).
holds(s_758_jpg, vendingmachine).
holds(s_758_jpg, wallsign).
holds(s_758_jpg, statue).
holds(s_758_jpg, pipe).
holds(s_758_jpg, car).
holds(s_758_jpg, residential).

sample(s_1158_jpg).
holds(s_1158_jpg, building).
holds(s_1158_jpg, feature).
holds(s_1158_jpg, hotel).
holds(s_1158_jpg, door).
holds(s_1158_jpg, awning).
holds(s_1158_jpg, billboard).
holds(s_1158_jpg, porch).
holds(s_1158_jpg, sign).
holds(s_1158_jpg, tiledrooftop).
holds(s_1158_jpg, statue).
holds(s_1158_jpg, chimney).
holds(s_1158_jpg, pipe).
holds(s_1158_jpg, machine).
holds(s_1158_jpg, commercial).

sample(s_5635_jpg).
holds(s_5635_jpg, building).
holds(s_5635_jpg, feature).
holds(s_5635_jpg, constructionsite).
holds(s_5635_jpg, awning).
holds(s_5635_jpg, billboard).
holds(s_5635_jpg, porch).
holds(s_5635_jpg, tiledrooftop).
holds(s_5635_jpg, chimney).
holds(s_5635_jpg, machine).
holds(s_5635_jpg, industrial).

sample(s_861_jpg).
holds(s_861_jpg, building).
holds(s_861_jpg, feature).
holds(s_861_jpg, hotel).
holds(s_861_jpg, door).
holds(s_861_jpg, awning).
holds(s_861_jpg, billboard).
holds(s_861_jpg, porch).
holds(s_861_jpg, sign).
holds(s_861_jpg, tiledrooftop).
holds(s_861_jpg, pipe).
holds(s_861_jpg, machine).
holds(s_861_jpg, commercial).

sample(s_1868_jpg).
holds(s_1868_jpg, building).
holds(s_1868_jpg, feature).
holds(s_1868_jpg, suburban).
holds(s_1868_jpg, door).
holds(s_1868_jpg, window).
holds(s_1868_jpg, awning).
holds(s_1868_jpg, porch).
holds(s_1868_jpg, tiledrooftop).
holds(s_1868_jpg, vendingmachine).
holds(s_1868_jpg, wallsign).
holds(s_1868_jpg, statue).
holds(s_1868_jpg, pipe).
holds(s_1868_jpg, residential).

sample(s_12598_jpg).
holds(s_12598_jpg, building).
holds(s_12598_jpg, feature).
holds(s_12598_jpg, constructionsite).
holds(s_12598_jpg, awning).
holds(s_12598_jpg, billboard).
holds(s_12598_jpg, porch).
holds(s_12598_jpg, tiledrooftop).
holds(s_12598_jpg, vendingmachine).
holds(s_12598_jpg, wallsign).
holds(s_12598_jpg, chimney).
holds(s_12598_jpg, pipe).
holds(s_12598_jpg, machine).
holds(s_12598_jpg, industrial).

sample(s_7927_jpg).
holds(s_7927_jpg, building).
holds(s_7927_jpg, feature).
holds(s_7927_jpg, constructionsite).
holds(s_7927_jpg, awning).
holds(s_7927_jpg, billboard).
holds(s_7927_jpg, porch).
holds(s_7927_jpg, tiledrooftop).
holds(s_7927_jpg, chimney).
holds(s_7927_jpg, machine).
holds(s_7927_jpg, industrial).

sample(s_10751_jpg).
holds(s_10751_jpg, building).
holds(s_10751_jpg, feature).
holds(s_10751_jpg, suburban).
holds(s_10751_jpg, door).
holds(s_10751_jpg, window).
holds(s_10751_jpg, awning).
holds(s_10751_jpg, porch).
holds(s_10751_jpg, table).
holds(s_10751_jpg, tiledrooftop).
holds(s_10751_jpg, vendingmachine).
holds(s_10751_jpg, wallsign).
holds(s_10751_jpg, statue).
holds(s_10751_jpg, pipe).
holds(s_10751_jpg, car).
holds(s_10751_jpg, residential).

sample(s_2090_jpg).
holds(s_2090_jpg, building).
holds(s_2090_jpg, feature).
holds(s_2090_jpg, suburban).
holds(s_2090_jpg, door).
holds(s_2090_jpg, window).
holds(s_2090_jpg, awning).
holds(s_2090_jpg, table).
holds(s_2090_jpg, tiledrooftop).
holds(s_2090_jpg, vendingmachine).
holds(s_2090_jpg, wallsign).
holds(s_2090_jpg, statue).
holds(s_2090_jpg, pipe).
holds(s_2090_jpg, car).
holds(s_2090_jpg, residential).

sample(s_4247_jpg).
holds(s_4247_jpg, building).
holds(s_4247_jpg, feature).
holds(s_4247_jpg, suburban).
holds(s_4247_jpg, door).
holds(s_4247_jpg, awning).
holds(s_4247_jpg, table).
holds(s_4247_jpg, vendingmachine).
holds(s_4247_jpg, wallsign).
holds(s_4247_jpg, statue).
holds(s_4247_jpg, chimney).
holds(s_4247_jpg, pipe).
holds(s_4247_jpg, truck).
holds(s_4247_jpg, car).
holds(s_4247_jpg, residential).

sample(s_1661_jpg).
holds(s_1661_jpg, building).
holds(s_1661_jpg, feature).
holds(s_1661_jpg, suburban).
holds(s_1661_jpg, door).
holds(s_1661_jpg, window).
holds(s_1661_jpg, awning).
holds(s_1661_jpg, porch).
holds(s_1661_jpg, tiledrooftop).
holds(s_1661_jpg, vendingmachine).
holds(s_1661_jpg, wallsign).
holds(s_1661_jpg, statue).
holds(s_1661_jpg, residential).

sample(s_9284_jpg).
holds(s_9284_jpg, building).
holds(s_9284_jpg, feature).
holds(s_9284_jpg, suburban).
holds(s_9284_jpg, door).
holds(s_9284_jpg, window).
holds(s_9284_jpg, awning).
holds(s_9284_jpg, porch).
holds(s_9284_jpg, tiledrooftop).
holds(s_9284_jpg, vendingmachine).
holds(s_9284_jpg, wallsign).
holds(s_9284_jpg, statue).
holds(s_9284_jpg, residential).

sample(s_12765_jpg).
holds(s_12765_jpg, building).
holds(s_12765_jpg, feature).
holds(s_12765_jpg, hotel).
holds(s_12765_jpg, door).
holds(s_12765_jpg, awning).
holds(s_12765_jpg, billboard).
holds(s_12765_jpg, porch).
holds(s_12765_jpg, tiledrooftop).
holds(s_12765_jpg, statue).
holds(s_12765_jpg, chimney).
holds(s_12765_jpg, machine).
holds(s_12765_jpg, commercial).

sample(s_15214_jpg).
holds(s_15214_jpg, building).
holds(s_15214_jpg, feature).
holds(s_15214_jpg, constructionsite).
holds(s_15214_jpg, awning).
holds(s_15214_jpg, billboard).
holds(s_15214_jpg, porch).
holds(s_15214_jpg, tiledrooftop).
holds(s_15214_jpg, wallsign).
holds(s_15214_jpg, chimney).
holds(s_15214_jpg, pipe).
holds(s_15214_jpg, machine).
holds(s_15214_jpg, industrial).

sample(s_9034_jpg).
holds(s_9034_jpg, building).
holds(s_9034_jpg, feature).
holds(s_9034_jpg, constructionsite).
holds(s_9034_jpg, awning).
holds(s_9034_jpg, billboard).
holds(s_9034_jpg, porch).
holds(s_9034_jpg, tiledrooftop).
holds(s_9034_jpg, wallsign).
holds(s_9034_jpg, chimney).
holds(s_9034_jpg, pipe).
holds(s_9034_jpg, machine).
holds(s_9034_jpg, industrial).

sample(s_12761_jpg).
holds(s_12761_jpg, building).
holds(s_12761_jpg, feature).
holds(s_12761_jpg, suburban).
holds(s_12761_jpg, door).
holds(s_12761_jpg, window).
holds(s_12761_jpg, awning).
holds(s_12761_jpg, porch).
holds(s_12761_jpg, tiledrooftop).
holds(s_12761_jpg, vendingmachine).
holds(s_12761_jpg, statue).
holds(s_12761_jpg, pipe).
holds(s_12761_jpg, residential).

sample(s_15851_jpg).
holds(s_15851_jpg, building).
holds(s_15851_jpg, feature).
holds(s_15851_jpg, suburban).
holds(s_15851_jpg, miscresidential).
holds(s_15851_jpg, door).
holds(s_15851_jpg, awning).
holds(s_15851_jpg, table).
holds(s_15851_jpg, vendingmachine).
holds(s_15851_jpg, wallsign).
holds(s_15851_jpg, statue).
holds(s_15851_jpg, pipe).
holds(s_15851_jpg, truck).
holds(s_15851_jpg, car).
holds(s_15851_jpg, residential).

sample(s_10759_jpg).
holds(s_10759_jpg, building).
holds(s_10759_jpg, feature).
holds(s_10759_jpg, constructionsite).
holds(s_10759_jpg, door).
holds(s_10759_jpg, awning).
holds(s_10759_jpg, billboard).
holds(s_10759_jpg, porch).
holds(s_10759_jpg, tiledrooftop).
holds(s_10759_jpg, wallsign).
holds(s_10759_jpg, statue).
holds(s_10759_jpg, chimney).
holds(s_10759_jpg, pipe).
holds(s_10759_jpg, machine).
holds(s_10759_jpg, industrial).

sample(s_14733_jpg).
holds(s_14733_jpg, building).
holds(s_14733_jpg, feature).
holds(s_14733_jpg, hotel).
holds(s_14733_jpg, door).
holds(s_14733_jpg, window).
holds(s_14733_jpg, awning).
holds(s_14733_jpg, porch).
holds(s_14733_jpg, tiledrooftop).
holds(s_14733_jpg, statue).
holds(s_14733_jpg, chimney).
holds(s_14733_jpg, machine).
holds(s_14733_jpg, commercial).

sample(s_4456_jpg).
holds(s_4456_jpg, building).
holds(s_4456_jpg, feature).
holds(s_4456_jpg, constructionsite).
holds(s_4456_jpg, awning).
holds(s_4456_jpg, billboard).
holds(s_4456_jpg, porch).
holds(s_4456_jpg, tiledrooftop).
holds(s_4456_jpg, wallsign).
holds(s_4456_jpg, statue).
holds(s_4456_jpg, chimney).
holds(s_4456_jpg, machine).
holds(s_4456_jpg, industrial).

sample(s_5329_jpg).
holds(s_5329_jpg, building).
holds(s_5329_jpg, feature).
holds(s_5329_jpg, constructionsite).
holds(s_5329_jpg, awning).
holds(s_5329_jpg, billboard).
holds(s_5329_jpg, porch).
holds(s_5329_jpg, tiledrooftop).
holds(s_5329_jpg, wallsign).
holds(s_5329_jpg, chimney).
holds(s_5329_jpg, pipe).
holds(s_5329_jpg, machine).
holds(s_5329_jpg, industrial).

sample(s_7462_jpg).
holds(s_7462_jpg, building).
holds(s_7462_jpg, feature).
holds(s_7462_jpg, constructionsite).
holds(s_7462_jpg, awning).
holds(s_7462_jpg, billboard).
holds(s_7462_jpg, porch).
holds(s_7462_jpg, tiledrooftop).
holds(s_7462_jpg, wallsign).
holds(s_7462_jpg, chimney).
holds(s_7462_jpg, machine).
holds(s_7462_jpg, industrial).

sample(s_4014_jpg).
holds(s_4014_jpg, building).
holds(s_4014_jpg, feature).
holds(s_4014_jpg, hotel).
holds(s_4014_jpg, door).
holds(s_4014_jpg, awning).
holds(s_4014_jpg, billboard).
holds(s_4014_jpg, porch).
holds(s_4014_jpg, tiledrooftop).
holds(s_4014_jpg, statue).
holds(s_4014_jpg, chimney).
holds(s_4014_jpg, machine).
holds(s_4014_jpg, commercial).

sample(s_8660_jpg).
holds(s_8660_jpg, building).
holds(s_8660_jpg, feature).
holds(s_8660_jpg, suburban).
holds(s_8660_jpg, door).
holds(s_8660_jpg, window).
holds(s_8660_jpg, awning).
holds(s_8660_jpg, table).
holds(s_8660_jpg, tiledrooftop).
holds(s_8660_jpg, vendingmachine).
holds(s_8660_jpg, wallsign).
holds(s_8660_jpg, statue).
holds(s_8660_jpg, pipe).
holds(s_8660_jpg, residential).

sample(s_4056_jpg).
holds(s_4056_jpg, building).
holds(s_4056_jpg, feature).
holds(s_4056_jpg, hotel).
holds(s_4056_jpg, door).
holds(s_4056_jpg, awning).
holds(s_4056_jpg, porch).
holds(s_4056_jpg, sign).
holds(s_4056_jpg, tiledrooftop).
holds(s_4056_jpg, statue).
holds(s_4056_jpg, chimney).
holds(s_4056_jpg, pipe).
holds(s_4056_jpg, machine).
holds(s_4056_jpg, commercial).

sample(s_2331_jpg).
holds(s_2331_jpg, building).
holds(s_2331_jpg, feature).
holds(s_2331_jpg, hotel).
holds(s_2331_jpg, door).
holds(s_2331_jpg, awning).
holds(s_2331_jpg, billboard).
holds(s_2331_jpg, porch).
holds(s_2331_jpg, sign).
holds(s_2331_jpg, tiledrooftop).
holds(s_2331_jpg, chimney).
holds(s_2331_jpg, pipe).
holds(s_2331_jpg, machine).
holds(s_2331_jpg, commercial).

sample(s_14613_jpg).
holds(s_14613_jpg, building).
holds(s_14613_jpg, feature).
holds(s_14613_jpg, hotel).
holds(s_14613_jpg, door).
holds(s_14613_jpg, awning).
holds(s_14613_jpg, porch).
holds(s_14613_jpg, tiledrooftop).
holds(s_14613_jpg, statue).
holds(s_14613_jpg, chimney).
holds(s_14613_jpg, pipe).
holds(s_14613_jpg, machine).
holds(s_14613_jpg, commercial).

sample(s_4303_jpg).
holds(s_4303_jpg, building).
holds(s_4303_jpg, feature).
holds(s_4303_jpg, constructionsite).
holds(s_4303_jpg, door).
holds(s_4303_jpg, awning).
holds(s_4303_jpg, billboard).
holds(s_4303_jpg, porch).
holds(s_4303_jpg, tiledrooftop).
holds(s_4303_jpg, vendingmachine).
holds(s_4303_jpg, wallsign).
holds(s_4303_jpg, statue).
holds(s_4303_jpg, chimney).
holds(s_4303_jpg, pipe).
holds(s_4303_jpg, machine).
holds(s_4303_jpg, industrial).

sample(s_11858_jpg).
holds(s_11858_jpg, building).
holds(s_11858_jpg, feature).
holds(s_11858_jpg, suburban).
holds(s_11858_jpg, door).
holds(s_11858_jpg, awning).
holds(s_11858_jpg, table).
holds(s_11858_jpg, tiledrooftop).
holds(s_11858_jpg, vendingmachine).
holds(s_11858_jpg, wallsign).
holds(s_11858_jpg, statue).
holds(s_11858_jpg, chimney).
holds(s_11858_jpg, pipe).
holds(s_11858_jpg, truck).
holds(s_11858_jpg, car).
holds(s_11858_jpg, residential).

sample(s_6946_jpg).
holds(s_6946_jpg, building).
holds(s_6946_jpg, feature).
holds(s_6946_jpg, constructionsite).
holds(s_6946_jpg, awning).
holds(s_6946_jpg, billboard).
holds(s_6946_jpg, porch).
holds(s_6946_jpg, tiledrooftop).
holds(s_6946_jpg, chimney).
holds(s_6946_jpg, machine).
holds(s_6946_jpg, industrial).

sample(s_4033_jpg).
holds(s_4033_jpg, building).
holds(s_4033_jpg, feature).
holds(s_4033_jpg, constructionsite).
holds(s_4033_jpg, door).
holds(s_4033_jpg, awning).
holds(s_4033_jpg, billboard).
holds(s_4033_jpg, porch).
holds(s_4033_jpg, tiledrooftop).
holds(s_4033_jpg, wallsign).
holds(s_4033_jpg, chimney).
holds(s_4033_jpg, pipe).
holds(s_4033_jpg, machine).
holds(s_4033_jpg, industrial).

sample(s_15563_jpg).
holds(s_15563_jpg, building).
holds(s_15563_jpg, feature).
holds(s_15563_jpg, suburban).
holds(s_15563_jpg, door).
holds(s_15563_jpg, window).
holds(s_15563_jpg, awning).
holds(s_15563_jpg, table).
holds(s_15563_jpg, tiledrooftop).
holds(s_15563_jpg, vendingmachine).
holds(s_15563_jpg, wallsign).
holds(s_15563_jpg, statue).
holds(s_15563_jpg, pipe).
holds(s_15563_jpg, car).
holds(s_15563_jpg, residential).

sample(s_9523_jpg).
holds(s_9523_jpg, building).
holds(s_9523_jpg, feature).
holds(s_9523_jpg, constructionsite).
holds(s_9523_jpg, awning).
holds(s_9523_jpg, billboard).
holds(s_9523_jpg, porch).
holds(s_9523_jpg, tiledrooftop).
holds(s_9523_jpg, chimney).
holds(s_9523_jpg, pipe).
holds(s_9523_jpg, machine).
holds(s_9523_jpg, industrial).

sample(s_15456_jpg).
holds(s_15456_jpg, building).
holds(s_15456_jpg, feature).
holds(s_15456_jpg, hotel).
holds(s_15456_jpg, door).
holds(s_15456_jpg, awning).
holds(s_15456_jpg, billboard).
holds(s_15456_jpg, porch).
holds(s_15456_jpg, tiledrooftop).
holds(s_15456_jpg, statue).
holds(s_15456_jpg, chimney).
holds(s_15456_jpg, machine).
holds(s_15456_jpg, commercial).

sample(s_12725_jpg).
holds(s_12725_jpg, building).
holds(s_12725_jpg, feature).
holds(s_12725_jpg, suburban).
holds(s_12725_jpg, door).
holds(s_12725_jpg, window).
holds(s_12725_jpg, awning).
holds(s_12725_jpg, porch).
holds(s_12725_jpg, tiledrooftop).
holds(s_12725_jpg, vendingmachine).
holds(s_12725_jpg, wallsign).
holds(s_12725_jpg, statue).
holds(s_12725_jpg, residential).

sample(s_5342_jpg).
holds(s_5342_jpg, building).
holds(s_5342_jpg, feature).
holds(s_5342_jpg, suburban).
holds(s_5342_jpg, door).
holds(s_5342_jpg, awning).
holds(s_5342_jpg, table).
holds(s_5342_jpg, vendingmachine).
holds(s_5342_jpg, wallsign).
holds(s_5342_jpg, statue).
holds(s_5342_jpg, chimney).
holds(s_5342_jpg, pipe).
holds(s_5342_jpg, truck).
holds(s_5342_jpg, car).
holds(s_5342_jpg, residential).

sample(s_3917_jpg).
holds(s_3917_jpg, building).
holds(s_3917_jpg, feature).
holds(s_3917_jpg, suburban).
holds(s_3917_jpg, door).
holds(s_3917_jpg, window).
holds(s_3917_jpg, awning).
holds(s_3917_jpg, porch).
holds(s_3917_jpg, tiledrooftop).
holds(s_3917_jpg, vendingmachine).
holds(s_3917_jpg, wallsign).
holds(s_3917_jpg, statue).
holds(s_3917_jpg, pipe).
holds(s_3917_jpg, residential).

sample(s_1797_jpg).
holds(s_1797_jpg, building).
holds(s_1797_jpg, feature).
holds(s_1797_jpg, hotel).
holds(s_1797_jpg, door).
holds(s_1797_jpg, awning).
holds(s_1797_jpg, billboard).
holds(s_1797_jpg, porch).
holds(s_1797_jpg, sign).
holds(s_1797_jpg, tiledrooftop).
holds(s_1797_jpg, pipe).
holds(s_1797_jpg, machine).
holds(s_1797_jpg, commercial).

sample(s_13707_jpg).
holds(s_13707_jpg, building).
holds(s_13707_jpg, feature).
holds(s_13707_jpg, hotel).
holds(s_13707_jpg, door).
holds(s_13707_jpg, awning).
holds(s_13707_jpg, porch).
holds(s_13707_jpg, tiledrooftop).
holds(s_13707_jpg, statue).
holds(s_13707_jpg, chimney).
holds(s_13707_jpg, machine).
holds(s_13707_jpg, commercial).

sample(s_13603_jpg).
holds(s_13603_jpg, building).
holds(s_13603_jpg, feature).
holds(s_13603_jpg, constructionsite).
holds(s_13603_jpg, awning).
holds(s_13603_jpg, billboard).
holds(s_13603_jpg, porch).
holds(s_13603_jpg, tiledrooftop).
holds(s_13603_jpg, wallsign).
holds(s_13603_jpg, chimney).
holds(s_13603_jpg, pipe).
holds(s_13603_jpg, machine).
holds(s_13603_jpg, industrial).

sample(s_15107_jpg).
holds(s_15107_jpg, building).
holds(s_15107_jpg, feature).
holds(s_15107_jpg, suburban).
holds(s_15107_jpg, door).
holds(s_15107_jpg, awning).
holds(s_15107_jpg, porch).
holds(s_15107_jpg, tiledrooftop).
holds(s_15107_jpg, vendingmachine).
holds(s_15107_jpg, wallsign).
holds(s_15107_jpg, statue).
holds(s_15107_jpg, chimney).
holds(s_15107_jpg, pipe).
holds(s_15107_jpg, truck).
holds(s_15107_jpg, car).
holds(s_15107_jpg, residential).

sample(s_2145_jpg).
holds(s_2145_jpg, building).
holds(s_2145_jpg, feature).
holds(s_2145_jpg, hotel).
holds(s_2145_jpg, door).
holds(s_2145_jpg, awning).
holds(s_2145_jpg, billboard).
holds(s_2145_jpg, porch).
holds(s_2145_jpg, sign).
holds(s_2145_jpg, tiledrooftop).
holds(s_2145_jpg, statue).
holds(s_2145_jpg, chimney).
holds(s_2145_jpg, pipe).
holds(s_2145_jpg, machine).
holds(s_2145_jpg, commercial).

sample(s_8269_jpg).
holds(s_8269_jpg, building).
holds(s_8269_jpg, feature).
holds(s_8269_jpg, constructionsite).
holds(s_8269_jpg, door).
holds(s_8269_jpg, awning).
holds(s_8269_jpg, billboard).
holds(s_8269_jpg, porch).
holds(s_8269_jpg, tiledrooftop).
holds(s_8269_jpg, vendingmachine).
holds(s_8269_jpg, wallsign).
holds(s_8269_jpg, statue).
holds(s_8269_jpg, chimney).
holds(s_8269_jpg, pipe).
holds(s_8269_jpg, machine).
holds(s_8269_jpg, industrial).

sample(s_10052_jpg).
holds(s_10052_jpg, building).
holds(s_10052_jpg, feature).
holds(s_10052_jpg, suburban).
holds(s_10052_jpg, door).
holds(s_10052_jpg, window).
holds(s_10052_jpg, awning).
holds(s_10052_jpg, porch).
holds(s_10052_jpg, table).
holds(s_10052_jpg, tiledrooftop).
holds(s_10052_jpg, vendingmachine).
holds(s_10052_jpg, wallsign).
holds(s_10052_jpg, statue).
holds(s_10052_jpg, pipe).
holds(s_10052_jpg, residential).

sample(s_8444_jpg).
holds(s_8444_jpg, building).
holds(s_8444_jpg, feature).
holds(s_8444_jpg, suburban).
holds(s_8444_jpg, door).
holds(s_8444_jpg, awning).
holds(s_8444_jpg, table).
holds(s_8444_jpg, vendingmachine).
holds(s_8444_jpg, wallsign).
holds(s_8444_jpg, statue).
holds(s_8444_jpg, chimney).
holds(s_8444_jpg, pipe).
holds(s_8444_jpg, truck).
holds(s_8444_jpg, car).
holds(s_8444_jpg, residential).

sample(s_8402_jpg).
holds(s_8402_jpg, building).
holds(s_8402_jpg, feature).
holds(s_8402_jpg, suburban).
holds(s_8402_jpg, door).
holds(s_8402_jpg, window).
holds(s_8402_jpg, awning).
holds(s_8402_jpg, porch).
holds(s_8402_jpg, tiledrooftop).
holds(s_8402_jpg, vendingmachine).
holds(s_8402_jpg, wallsign).
holds(s_8402_jpg, statue).
holds(s_8402_jpg, pipe).
holds(s_8402_jpg, residential).

sample(s_8834_jpg).
holds(s_8834_jpg, building).
holds(s_8834_jpg, feature).
holds(s_8834_jpg, suburban).
holds(s_8834_jpg, door).
holds(s_8834_jpg, window).
holds(s_8834_jpg, awning).
holds(s_8834_jpg, porch).
holds(s_8834_jpg, table).
holds(s_8834_jpg, tiledrooftop).
holds(s_8834_jpg, vendingmachine).
holds(s_8834_jpg, wallsign).
holds(s_8834_jpg, statue).
holds(s_8834_jpg, pipe).
holds(s_8834_jpg, residential).

sample(s_15751_jpg).
holds(s_15751_jpg, building).
holds(s_15751_jpg, feature).
holds(s_15751_jpg, constructionsite).
holds(s_15751_jpg, awning).
holds(s_15751_jpg, billboard).
holds(s_15751_jpg, porch).
holds(s_15751_jpg, tiledrooftop).
holds(s_15751_jpg, wallsign).
holds(s_15751_jpg, chimney).
holds(s_15751_jpg, pipe).
holds(s_15751_jpg, machine).
holds(s_15751_jpg, industrial).

sample(s_8038_jpg).
holds(s_8038_jpg, building).
holds(s_8038_jpg, feature).
holds(s_8038_jpg, constructionsite).
holds(s_8038_jpg, awning).
holds(s_8038_jpg, billboard).
holds(s_8038_jpg, porch).
holds(s_8038_jpg, tiledrooftop).
holds(s_8038_jpg, vendingmachine).
holds(s_8038_jpg, wallsign).
holds(s_8038_jpg, statue).
holds(s_8038_jpg, chimney).
holds(s_8038_jpg, machine).
holds(s_8038_jpg, industrial).

sample(s_4510_jpg).
holds(s_4510_jpg, building).
holds(s_4510_jpg, feature).
holds(s_4510_jpg, constructionsite).
holds(s_4510_jpg, door).
holds(s_4510_jpg, awning).
holds(s_4510_jpg, billboard).
holds(s_4510_jpg, porch).
holds(s_4510_jpg, tiledrooftop).
holds(s_4510_jpg, vendingmachine).
holds(s_4510_jpg, wallsign).
holds(s_4510_jpg, statue).
holds(s_4510_jpg, chimney).
holds(s_4510_jpg, pipe).
holds(s_4510_jpg, machine).
holds(s_4510_jpg, industrial).

sample(s_1072_jpg).
holds(s_1072_jpg, building).
holds(s_1072_jpg, feature).
holds(s_1072_jpg, constructionsite).
holds(s_1072_jpg, awning).
holds(s_1072_jpg, billboard).
holds(s_1072_jpg, porch).
holds(s_1072_jpg, tiledrooftop).
holds(s_1072_jpg, wallsign).
holds(s_1072_jpg, chimney).
holds(s_1072_jpg, pipe).
holds(s_1072_jpg, machine).
holds(s_1072_jpg, industrial).

sample(s_1498_jpg).
holds(s_1498_jpg, building).
holds(s_1498_jpg, feature).
holds(s_1498_jpg, constructionsite).
holds(s_1498_jpg, door).
holds(s_1498_jpg, awning).
holds(s_1498_jpg, billboard).
holds(s_1498_jpg, porch).
holds(s_1498_jpg, tiledrooftop).
holds(s_1498_jpg, wallsign).
holds(s_1498_jpg, chimney).
holds(s_1498_jpg, pipe).
holds(s_1498_jpg, machine).
holds(s_1498_jpg, industrial).

sample(s_10415_jpg).
holds(s_10415_jpg, building).
holds(s_10415_jpg, feature).
holds(s_10415_jpg, suburban).
holds(s_10415_jpg, door).
holds(s_10415_jpg, window).
holds(s_10415_jpg, awning).
holds(s_10415_jpg, porch).
holds(s_10415_jpg, tiledrooftop).
holds(s_10415_jpg, vendingmachine).
holds(s_10415_jpg, statue).
holds(s_10415_jpg, residential).

sample(s_7502_jpg).
holds(s_7502_jpg, building).
holds(s_7502_jpg, feature).
holds(s_7502_jpg, suburban).
holds(s_7502_jpg, door).
holds(s_7502_jpg, awning).
holds(s_7502_jpg, porch).
holds(s_7502_jpg, tiledrooftop).
holds(s_7502_jpg, vendingmachine).
holds(s_7502_jpg, wallsign).
holds(s_7502_jpg, statue).
holds(s_7502_jpg, chimney).
holds(s_7502_jpg, pipe).
holds(s_7502_jpg, machine).
holds(s_7502_jpg, truck).
holds(s_7502_jpg, car).
holds(s_7502_jpg, residential).

sample(s_3770_jpg).
holds(s_3770_jpg, building).
holds(s_3770_jpg, feature).
holds(s_3770_jpg, suburban).
holds(s_3770_jpg, door).
holds(s_3770_jpg, window).
holds(s_3770_jpg, awning).
holds(s_3770_jpg, porch).
holds(s_3770_jpg, table).
holds(s_3770_jpg, tiledrooftop).
holds(s_3770_jpg, vendingmachine).
holds(s_3770_jpg, wallsign).
holds(s_3770_jpg, statue).
holds(s_3770_jpg, pipe).
holds(s_3770_jpg, residential).

sample(s_3909_jpg).
holds(s_3909_jpg, building).
holds(s_3909_jpg, feature).
holds(s_3909_jpg, hotel).
holds(s_3909_jpg, door).
holds(s_3909_jpg, window).
holds(s_3909_jpg, awning).
holds(s_3909_jpg, porch).
holds(s_3909_jpg, tiledrooftop).
holds(s_3909_jpg, vendingmachine).
holds(s_3909_jpg, statue).
holds(s_3909_jpg, chimney).
holds(s_3909_jpg, machine).
holds(s_3909_jpg, commercial).

sample(s_15738_jpg).
holds(s_15738_jpg, building).
holds(s_15738_jpg, feature).
holds(s_15738_jpg, hotel).
holds(s_15738_jpg, door).
holds(s_15738_jpg, awning).
holds(s_15738_jpg, billboard).
holds(s_15738_jpg, porch).
holds(s_15738_jpg, sign).
holds(s_15738_jpg, tiledrooftop).
holds(s_15738_jpg, statue).
holds(s_15738_jpg, chimney).
holds(s_15738_jpg, machine).
holds(s_15738_jpg, commercial).

sample(s_1502_jpg).
holds(s_1502_jpg, building).
holds(s_1502_jpg, feature).
holds(s_1502_jpg, suburban).
holds(s_1502_jpg, door).
holds(s_1502_jpg, window).
holds(s_1502_jpg, awning).
holds(s_1502_jpg, porch).
holds(s_1502_jpg, tiledrooftop).
holds(s_1502_jpg, vendingmachine).
holds(s_1502_jpg, wallsign).
holds(s_1502_jpg, statue).
holds(s_1502_jpg, residential).

sample(s_865_jpg).
holds(s_865_jpg, building).
holds(s_865_jpg, feature).
holds(s_865_jpg, constructionsite).
holds(s_865_jpg, awning).
holds(s_865_jpg, billboard).
holds(s_865_jpg, porch).
holds(s_865_jpg, tiledrooftop).
holds(s_865_jpg, wallsign).
holds(s_865_jpg, chimney).
holds(s_865_jpg, machine).
holds(s_865_jpg, industrial).

sample(s_6064_jpg).
holds(s_6064_jpg, building).
holds(s_6064_jpg, feature).
holds(s_6064_jpg, constructionsite).
holds(s_6064_jpg, awning).
holds(s_6064_jpg, billboard).
holds(s_6064_jpg, porch).
holds(s_6064_jpg, tiledrooftop).
holds(s_6064_jpg, wallsign).
holds(s_6064_jpg, chimney).
holds(s_6064_jpg, pipe).
holds(s_6064_jpg, machine).
holds(s_6064_jpg, industrial).

sample(s_1149_jpg).
holds(s_1149_jpg, building).
holds(s_1149_jpg, feature).
holds(s_1149_jpg, hotel).
holds(s_1149_jpg, door).
holds(s_1149_jpg, awning).
holds(s_1149_jpg, billboard).
holds(s_1149_jpg, porch).
holds(s_1149_jpg, sign).
holds(s_1149_jpg, tiledrooftop).
holds(s_1149_jpg, statue).
holds(s_1149_jpg, machine).
holds(s_1149_jpg, commercial).

sample(s_883_jpg).
holds(s_883_jpg, building).
holds(s_883_jpg, feature).
holds(s_883_jpg, constructionsite).
holds(s_883_jpg, awning).
holds(s_883_jpg, billboard).
holds(s_883_jpg, porch).
holds(s_883_jpg, tiledrooftop).
holds(s_883_jpg, wallsign).
holds(s_883_jpg, chimney).
holds(s_883_jpg, machine).
holds(s_883_jpg, industrial).

sample(s_1510_jpg).
holds(s_1510_jpg, building).
holds(s_1510_jpg, feature).
holds(s_1510_jpg, constructionsite).
holds(s_1510_jpg, door).
holds(s_1510_jpg, awning).
holds(s_1510_jpg, billboard).
holds(s_1510_jpg, porch).
holds(s_1510_jpg, tiledrooftop).
holds(s_1510_jpg, vendingmachine).
holds(s_1510_jpg, wallsign).
holds(s_1510_jpg, statue).
holds(s_1510_jpg, chimney).
holds(s_1510_jpg, pipe).
holds(s_1510_jpg, machine).
holds(s_1510_jpg, industrial).

sample(s_12800_jpg).
holds(s_12800_jpg, building).
holds(s_12800_jpg, feature).
holds(s_12800_jpg, suburban).
holds(s_12800_jpg, door).
holds(s_12800_jpg, window).
holds(s_12800_jpg, awning).
holds(s_12800_jpg, porch).
holds(s_12800_jpg, tiledrooftop).
holds(s_12800_jpg, vendingmachine).
holds(s_12800_jpg, wallsign).
holds(s_12800_jpg, statue).
holds(s_12800_jpg, pipe).
holds(s_12800_jpg, residential).

sample(s_7047_jpg).
holds(s_7047_jpg, building).
holds(s_7047_jpg, feature).
holds(s_7047_jpg, hotel).
holds(s_7047_jpg, door).
holds(s_7047_jpg, awning).
holds(s_7047_jpg, billboard).
holds(s_7047_jpg, porch).
holds(s_7047_jpg, sign).
holds(s_7047_jpg, tiledrooftop).
holds(s_7047_jpg, chimney).
holds(s_7047_jpg, pipe).
holds(s_7047_jpg, machine).
holds(s_7047_jpg, commercial).

sample(s_13061_jpg).
holds(s_13061_jpg, building).
holds(s_13061_jpg, feature).
holds(s_13061_jpg, suburban).
holds(s_13061_jpg, door).
holds(s_13061_jpg, awning).
holds(s_13061_jpg, porch).
holds(s_13061_jpg, table).
holds(s_13061_jpg, tiledrooftop).
holds(s_13061_jpg, vendingmachine).
holds(s_13061_jpg, wallsign).
holds(s_13061_jpg, statue).
holds(s_13061_jpg, chimney).
holds(s_13061_jpg, pipe).
holds(s_13061_jpg, truck).
holds(s_13061_jpg, car).
holds(s_13061_jpg, residential).

sample(s_3457_jpg).
holds(s_3457_jpg, building).
holds(s_3457_jpg, feature).
holds(s_3457_jpg, constructionsite).
holds(s_3457_jpg, door).
holds(s_3457_jpg, awning).
holds(s_3457_jpg, billboard).
holds(s_3457_jpg, porch).
holds(s_3457_jpg, tiledrooftop).
holds(s_3457_jpg, wallsign).
holds(s_3457_jpg, chimney).
holds(s_3457_jpg, pipe).
holds(s_3457_jpg, machine).
holds(s_3457_jpg, industrial).

sample(s_10251_jpg).
holds(s_10251_jpg, building).
holds(s_10251_jpg, feature).
holds(s_10251_jpg, hotel).
holds(s_10251_jpg, door).
holds(s_10251_jpg, awning).
holds(s_10251_jpg, billboard).
holds(s_10251_jpg, porch).
holds(s_10251_jpg, sign).
holds(s_10251_jpg, tiledrooftop).
holds(s_10251_jpg, chimney).
holds(s_10251_jpg, pipe).
holds(s_10251_jpg, machine).
holds(s_10251_jpg, commercial).

sample(s_15461_jpg).
holds(s_15461_jpg, building).
holds(s_15461_jpg, feature).
holds(s_15461_jpg, suburban).
holds(s_15461_jpg, door).
holds(s_15461_jpg, awning).
holds(s_15461_jpg, porch).
holds(s_15461_jpg, table).
holds(s_15461_jpg, tiledrooftop).
holds(s_15461_jpg, vendingmachine).
holds(s_15461_jpg, wallsign).
holds(s_15461_jpg, statue).
holds(s_15461_jpg, chimney).
holds(s_15461_jpg, pipe).
holds(s_15461_jpg, machine).
holds(s_15461_jpg, truck).
holds(s_15461_jpg, car).
holds(s_15461_jpg, residential).

sample(s_7820_jpg).
holds(s_7820_jpg, building).
holds(s_7820_jpg, feature).
holds(s_7820_jpg, suburban).
holds(s_7820_jpg, door).
holds(s_7820_jpg, awning).
holds(s_7820_jpg, billboard).
holds(s_7820_jpg, vendingmachine).
holds(s_7820_jpg, wallsign).
holds(s_7820_jpg, statue).
holds(s_7820_jpg, chimney).
holds(s_7820_jpg, pipe).
holds(s_7820_jpg, truck).
holds(s_7820_jpg, car).
holds(s_7820_jpg, residential).

sample(s_8087_jpg).
holds(s_8087_jpg, building).
holds(s_8087_jpg, feature).
holds(s_8087_jpg, suburban).
holds(s_8087_jpg, door).
holds(s_8087_jpg, window).
holds(s_8087_jpg, awning).
holds(s_8087_jpg, table).
holds(s_8087_jpg, tiledrooftop).
holds(s_8087_jpg, vendingmachine).
holds(s_8087_jpg, wallsign).
holds(s_8087_jpg, statue).
holds(s_8087_jpg, pipe).
holds(s_8087_jpg, residential).

sample(s_1372_jpg).
holds(s_1372_jpg, building).
holds(s_1372_jpg, feature).
holds(s_1372_jpg, constructionsite).
holds(s_1372_jpg, awning).
holds(s_1372_jpg, billboard).
holds(s_1372_jpg, porch).
holds(s_1372_jpg, tiledrooftop).
holds(s_1372_jpg, wallsign).
holds(s_1372_jpg, chimney).
holds(s_1372_jpg, pipe).
holds(s_1372_jpg, machine).
holds(s_1372_jpg, industrial).

sample(s_15637_jpg).
holds(s_15637_jpg, building).
holds(s_15637_jpg, feature).
holds(s_15637_jpg, constructionsite).
holds(s_15637_jpg, awning).
holds(s_15637_jpg, billboard).
holds(s_15637_jpg, porch).
holds(s_15637_jpg, tiledrooftop).
holds(s_15637_jpg, wallsign).
holds(s_15637_jpg, chimney).
holds(s_15637_jpg, pipe).
holds(s_15637_jpg, machine).
holds(s_15637_jpg, industrial).

sample(s_2367_jpg).
holds(s_2367_jpg, building).
holds(s_2367_jpg, feature).
holds(s_2367_jpg, hotel).
holds(s_2367_jpg, door).
holds(s_2367_jpg, awning).
holds(s_2367_jpg, billboard).
holds(s_2367_jpg, porch).
holds(s_2367_jpg, sign).
holds(s_2367_jpg, tiledrooftop).
holds(s_2367_jpg, chimney).
holds(s_2367_jpg, pipe).
holds(s_2367_jpg, machine).
holds(s_2367_jpg, commercial).

sample(s_3922_jpg).
holds(s_3922_jpg, building).
holds(s_3922_jpg, feature).
holds(s_3922_jpg, constructionsite).
holds(s_3922_jpg, door).
holds(s_3922_jpg, awning).
holds(s_3922_jpg, billboard).
holds(s_3922_jpg, porch).
holds(s_3922_jpg, tiledrooftop).
holds(s_3922_jpg, vendingmachine).
holds(s_3922_jpg, wallsign).
holds(s_3922_jpg, chimney).
holds(s_3922_jpg, pipe).
holds(s_3922_jpg, machine).
holds(s_3922_jpg, industrial).

sample(s_10298_jpg).
holds(s_10298_jpg, building).
holds(s_10298_jpg, feature).
holds(s_10298_jpg, suburban).
holds(s_10298_jpg, door).
holds(s_10298_jpg, window).
holds(s_10298_jpg, awning).
holds(s_10298_jpg, porch).
holds(s_10298_jpg, tiledrooftop).
holds(s_10298_jpg, vendingmachine).
holds(s_10298_jpg, wallsign).
holds(s_10298_jpg, statue).
holds(s_10298_jpg, pipe).
holds(s_10298_jpg, residential).

sample(s_14268_jpg).
holds(s_14268_jpg, building).
holds(s_14268_jpg, feature).
holds(s_14268_jpg, hotel).
holds(s_14268_jpg, door).
holds(s_14268_jpg, awning).
holds(s_14268_jpg, porch).
holds(s_14268_jpg, sign).
holds(s_14268_jpg, tiledrooftop).
holds(s_14268_jpg, statue).
holds(s_14268_jpg, pipe).
holds(s_14268_jpg, machine).
holds(s_14268_jpg, commercial).

sample(s_2043_jpg).
holds(s_2043_jpg, building).
holds(s_2043_jpg, feature).
holds(s_2043_jpg, hotel).
holds(s_2043_jpg, door).
holds(s_2043_jpg, awning).
holds(s_2043_jpg, billboard).
holds(s_2043_jpg, porch).
holds(s_2043_jpg, sign).
holds(s_2043_jpg, tiledrooftop).
holds(s_2043_jpg, chimney).
holds(s_2043_jpg, pipe).
holds(s_2043_jpg, machine).
holds(s_2043_jpg, commercial).

sample(s_11331_jpg).
holds(s_11331_jpg, building).
holds(s_11331_jpg, feature).
holds(s_11331_jpg, hotel).
holds(s_11331_jpg, door).
holds(s_11331_jpg, awning).
holds(s_11331_jpg, porch).
holds(s_11331_jpg, tiledrooftop).
holds(s_11331_jpg, statue).
holds(s_11331_jpg, chimney).
holds(s_11331_jpg, pipe).
holds(s_11331_jpg, machine).
holds(s_11331_jpg, commercial).

sample(s_9866_jpg).
holds(s_9866_jpg, building).
holds(s_9866_jpg, feature).
holds(s_9866_jpg, suburban).
holds(s_9866_jpg, door).
holds(s_9866_jpg, awning).
holds(s_9866_jpg, porch).
holds(s_9866_jpg, tiledrooftop).
holds(s_9866_jpg, vendingmachine).
holds(s_9866_jpg, wallsign).
holds(s_9866_jpg, statue).
holds(s_9866_jpg, chimney).
holds(s_9866_jpg, pipe).
holds(s_9866_jpg, machine).
holds(s_9866_jpg, truck).
holds(s_9866_jpg, car).
holds(s_9866_jpg, residential).

sample(s_11365_jpg).
holds(s_11365_jpg, building).
holds(s_11365_jpg, feature).
holds(s_11365_jpg, constructionsite).
holds(s_11365_jpg, awning).
holds(s_11365_jpg, billboard).
holds(s_11365_jpg, porch).
holds(s_11365_jpg, tiledrooftop).
holds(s_11365_jpg, wallsign).
holds(s_11365_jpg, chimney).
holds(s_11365_jpg, pipe).
holds(s_11365_jpg, machine).
holds(s_11365_jpg, industrial).

sample(s_14863_jpg).
holds(s_14863_jpg, building).
holds(s_14863_jpg, feature).
holds(s_14863_jpg, constructionsite).
holds(s_14863_jpg, awning).
holds(s_14863_jpg, billboard).
holds(s_14863_jpg, porch).
holds(s_14863_jpg, tiledrooftop).
holds(s_14863_jpg, wallsign).
holds(s_14863_jpg, chimney).
holds(s_14863_jpg, pipe).
holds(s_14863_jpg, machine).
holds(s_14863_jpg, industrial).

sample(s_10412_jpg).
holds(s_10412_jpg, building).
holds(s_10412_jpg, feature).
holds(s_10412_jpg, suburban).
holds(s_10412_jpg, door).
holds(s_10412_jpg, window).
holds(s_10412_jpg, awning).
holds(s_10412_jpg, porch).
holds(s_10412_jpg, table).
holds(s_10412_jpg, tiledrooftop).
holds(s_10412_jpg, vendingmachine).
holds(s_10412_jpg, wallsign).
holds(s_10412_jpg, statue).
holds(s_10412_jpg, pipe).
holds(s_10412_jpg, car).
holds(s_10412_jpg, residential).

sample(s_4871_jpg).
holds(s_4871_jpg, building).
holds(s_4871_jpg, feature).
holds(s_4871_jpg, suburban).
holds(s_4871_jpg, door).
holds(s_4871_jpg, awning).
holds(s_4871_jpg, billboard).
holds(s_4871_jpg, vendingmachine).
holds(s_4871_jpg, wallsign).
holds(s_4871_jpg, statue).
holds(s_4871_jpg, chimney).
holds(s_4871_jpg, pipe).
holds(s_4871_jpg, machine).
holds(s_4871_jpg, truck).
holds(s_4871_jpg, car).
holds(s_4871_jpg, residential).

sample(s_7919_jpg).
holds(s_7919_jpg, building).
holds(s_7919_jpg, feature).
holds(s_7919_jpg, suburban).
holds(s_7919_jpg, door).
holds(s_7919_jpg, window).
holds(s_7919_jpg, awning).
holds(s_7919_jpg, porch).
holds(s_7919_jpg, tiledrooftop).
holds(s_7919_jpg, vendingmachine).
holds(s_7919_jpg, wallsign).
holds(s_7919_jpg, statue).
holds(s_7919_jpg, pipe).
holds(s_7919_jpg, residential).

sample(s_21_jpg).
holds(s_21_jpg, building).
holds(s_21_jpg, feature).
holds(s_21_jpg, hotel).
holds(s_21_jpg, door).
holds(s_21_jpg, awning).
holds(s_21_jpg, porch).
holds(s_21_jpg, sign).
holds(s_21_jpg, tiledrooftop).
holds(s_21_jpg, statue).
holds(s_21_jpg, pipe).
holds(s_21_jpg, machine).
holds(s_21_jpg, commercial).

sample(s_435_jpg).
holds(s_435_jpg, building).
holds(s_435_jpg, feature).
holds(s_435_jpg, hotel).
holds(s_435_jpg, door).
holds(s_435_jpg, window).
holds(s_435_jpg, awning).
holds(s_435_jpg, porch).
holds(s_435_jpg, sign).
holds(s_435_jpg, tiledrooftop).
holds(s_435_jpg, statue).
holds(s_435_jpg, pipe).
holds(s_435_jpg, machine).
holds(s_435_jpg, commercial).

sample(s_5186_jpg).
holds(s_5186_jpg, building).
holds(s_5186_jpg, feature).
holds(s_5186_jpg, suburban).
holds(s_5186_jpg, door).
holds(s_5186_jpg, window).
holds(s_5186_jpg, awning).
holds(s_5186_jpg, porch).
holds(s_5186_jpg, tiledrooftop).
holds(s_5186_jpg, vendingmachine).
holds(s_5186_jpg, statue).
holds(s_5186_jpg, residential).

sample(s_10118_jpg).
holds(s_10118_jpg, building).
holds(s_10118_jpg, feature).
holds(s_10118_jpg, suburban).
holds(s_10118_jpg, door).
holds(s_10118_jpg, window).
holds(s_10118_jpg, awning).
holds(s_10118_jpg, porch).
holds(s_10118_jpg, table).
holds(s_10118_jpg, tiledrooftop).
holds(s_10118_jpg, vendingmachine).
holds(s_10118_jpg, wallsign).
holds(s_10118_jpg, statue).
holds(s_10118_jpg, pipe).
holds(s_10118_jpg, car).
holds(s_10118_jpg, residential).

sample(s_13993_jpg).
holds(s_13993_jpg, building).
holds(s_13993_jpg, feature).
holds(s_13993_jpg, constructionsite).
holds(s_13993_jpg, door).
holds(s_13993_jpg, awning).
holds(s_13993_jpg, billboard).
holds(s_13993_jpg, porch).
holds(s_13993_jpg, tiledrooftop).
holds(s_13993_jpg, vendingmachine).
holds(s_13993_jpg, wallsign).
holds(s_13993_jpg, statue).
holds(s_13993_jpg, chimney).
holds(s_13993_jpg, pipe).
holds(s_13993_jpg, machine).
holds(s_13993_jpg, truck).
holds(s_13993_jpg, industrial).

sample(s_2487_jpg).
holds(s_2487_jpg, building).
holds(s_2487_jpg, feature).
holds(s_2487_jpg, hotel).
holds(s_2487_jpg, door).
holds(s_2487_jpg, awning).
holds(s_2487_jpg, billboard).
holds(s_2487_jpg, porch).
holds(s_2487_jpg, tiledrooftop).
holds(s_2487_jpg, vendingmachine).
holds(s_2487_jpg, wallsign).
holds(s_2487_jpg, statue).
holds(s_2487_jpg, chimney).
holds(s_2487_jpg, pipe).
holds(s_2487_jpg, machine).
holds(s_2487_jpg, truck).
holds(s_2487_jpg, commercial).

sample(s_7549_jpg).
holds(s_7549_jpg, building).
holds(s_7549_jpg, feature).
holds(s_7549_jpg, constructionsite).
holds(s_7549_jpg, awning).
holds(s_7549_jpg, billboard).
holds(s_7549_jpg, porch).
holds(s_7549_jpg, tiledrooftop).
holds(s_7549_jpg, wallsign).
holds(s_7549_jpg, chimney).
holds(s_7549_jpg, machine).
holds(s_7549_jpg, industrial).

sample(s_11548_jpg).
holds(s_11548_jpg, building).
holds(s_11548_jpg, feature).
holds(s_11548_jpg, constructionsite).
holds(s_11548_jpg, awning).
holds(s_11548_jpg, billboard).
holds(s_11548_jpg, porch).
holds(s_11548_jpg, tiledrooftop).
holds(s_11548_jpg, chimney).
holds(s_11548_jpg, machine).
holds(s_11548_jpg, industrial).

sample(s_12536_jpg).
holds(s_12536_jpg, building).
holds(s_12536_jpg, feature).
holds(s_12536_jpg, suburban).
holds(s_12536_jpg, door).
holds(s_12536_jpg, window).
holds(s_12536_jpg, awning).
holds(s_12536_jpg, porch).
holds(s_12536_jpg, tiledrooftop).
holds(s_12536_jpg, vendingmachine).
holds(s_12536_jpg, statue).
holds(s_12536_jpg, residential).

sample(s_3950_jpg).
holds(s_3950_jpg, building).
holds(s_3950_jpg, feature).
holds(s_3950_jpg, suburban).
holds(s_3950_jpg, door).
holds(s_3950_jpg, awning).
holds(s_3950_jpg, porch).
holds(s_3950_jpg, table).
holds(s_3950_jpg, tiledrooftop).
holds(s_3950_jpg, vendingmachine).
holds(s_3950_jpg, wallsign).
holds(s_3950_jpg, statue).
holds(s_3950_jpg, chimney).
holds(s_3950_jpg, pipe).
holds(s_3950_jpg, truck).
holds(s_3950_jpg, car).
holds(s_3950_jpg, residential).

sample(s_3599_jpg).
holds(s_3599_jpg, building).
holds(s_3599_jpg, feature).
holds(s_3599_jpg, suburban).
holds(s_3599_jpg, door).
holds(s_3599_jpg, window).
holds(s_3599_jpg, awning).
holds(s_3599_jpg, porch).
holds(s_3599_jpg, tiledrooftop).
holds(s_3599_jpg, vendingmachine).
holds(s_3599_jpg, wallsign).
holds(s_3599_jpg, statue).
holds(s_3599_jpg, pipe).
holds(s_3599_jpg, residential).

sample(s_12184_jpg).
holds(s_12184_jpg, building).
holds(s_12184_jpg, feature).
holds(s_12184_jpg, constructionsite).
holds(s_12184_jpg, awning).
holds(s_12184_jpg, billboard).
holds(s_12184_jpg, porch).
holds(s_12184_jpg, tiledrooftop).
holds(s_12184_jpg, wallsign).
holds(s_12184_jpg, chimney).
holds(s_12184_jpg, pipe).
holds(s_12184_jpg, machine).
holds(s_12184_jpg, industrial).

sample(s_12183_jpg).
holds(s_12183_jpg, building).
holds(s_12183_jpg, feature).
holds(s_12183_jpg, hotel).
holds(s_12183_jpg, awning).
holds(s_12183_jpg, porch).
holds(s_12183_jpg, sign).
holds(s_12183_jpg, tiledrooftop).
holds(s_12183_jpg, chimney).
holds(s_12183_jpg, machine).
holds(s_12183_jpg, commercial).

sample(s_3657_jpg).
holds(s_3657_jpg, building).
holds(s_3657_jpg, feature).
holds(s_3657_jpg, hotel).
holds(s_3657_jpg, door).
holds(s_3657_jpg, awning).
holds(s_3657_jpg, porch).
holds(s_3657_jpg, sign).
holds(s_3657_jpg, tiledrooftop).
holds(s_3657_jpg, pipe).
holds(s_3657_jpg, machine).
holds(s_3657_jpg, commercial).

sample(s_3920_jpg).
holds(s_3920_jpg, building).
holds(s_3920_jpg, feature).
holds(s_3920_jpg, suburban).
holds(s_3920_jpg, door).
holds(s_3920_jpg, window).
holds(s_3920_jpg, awning).
holds(s_3920_jpg, porch).
holds(s_3920_jpg, tiledrooftop).
holds(s_3920_jpg, vendingmachine).
holds(s_3920_jpg, wallsign).
holds(s_3920_jpg, statue).
holds(s_3920_jpg, pipe).
holds(s_3920_jpg, truck).
holds(s_3920_jpg, car).
holds(s_3920_jpg, residential).

sample(s_10121_jpg).
holds(s_10121_jpg, building).
holds(s_10121_jpg, feature).
holds(s_10121_jpg, suburban).
holds(s_10121_jpg, door).
holds(s_10121_jpg, window).
holds(s_10121_jpg, awning).
holds(s_10121_jpg, porch).
holds(s_10121_jpg, tiledrooftop).
holds(s_10121_jpg, vendingmachine).
holds(s_10121_jpg, wallsign).
holds(s_10121_jpg, statue).
holds(s_10121_jpg, residential).

sample(s_7620_jpg).
holds(s_7620_jpg, building).
holds(s_7620_jpg, feature).
holds(s_7620_jpg, hotel).
holds(s_7620_jpg, door).
holds(s_7620_jpg, awning).
holds(s_7620_jpg, billboard).
holds(s_7620_jpg, porch).
holds(s_7620_jpg, sign).
holds(s_7620_jpg, tiledrooftop).
holds(s_7620_jpg, chimney).
holds(s_7620_jpg, pipe).
holds(s_7620_jpg, machine).
holds(s_7620_jpg, commercial).

sample(s_5630_jpg).
holds(s_5630_jpg, building).
holds(s_5630_jpg, feature).
holds(s_5630_jpg, suburban).
holds(s_5630_jpg, door).
holds(s_5630_jpg, window).
holds(s_5630_jpg, awning).
holds(s_5630_jpg, porch).
holds(s_5630_jpg, table).
holds(s_5630_jpg, tiledrooftop).
holds(s_5630_jpg, vendingmachine).
holds(s_5630_jpg, wallsign).
holds(s_5630_jpg, statue).
holds(s_5630_jpg, pipe).
holds(s_5630_jpg, truck).
holds(s_5630_jpg, car).
holds(s_5630_jpg, residential).

sample(s_11873_jpg).
holds(s_11873_jpg, building).
holds(s_11873_jpg, feature).
holds(s_11873_jpg, suburban).
holds(s_11873_jpg, door).
holds(s_11873_jpg, window).
holds(s_11873_jpg, awning).
holds(s_11873_jpg, porch).
holds(s_11873_jpg, table).
holds(s_11873_jpg, tiledrooftop).
holds(s_11873_jpg, vendingmachine).
holds(s_11873_jpg, wallsign).
holds(s_11873_jpg, statue).
holds(s_11873_jpg, pipe).
holds(s_11873_jpg, truck).
holds(s_11873_jpg, car).
holds(s_11873_jpg, residential).

sample(s_3280_jpg).
holds(s_3280_jpg, building).
holds(s_3280_jpg, feature).
holds(s_3280_jpg, constructionsite).
holds(s_3280_jpg, awning).
holds(s_3280_jpg, billboard).
holds(s_3280_jpg, porch).
holds(s_3280_jpg, tiledrooftop).
holds(s_3280_jpg, wallsign).
holds(s_3280_jpg, chimney).
holds(s_3280_jpg, pipe).
holds(s_3280_jpg, machine).
holds(s_3280_jpg, industrial).

sample(s_11606_jpg).
holds(s_11606_jpg, building).
holds(s_11606_jpg, feature).
holds(s_11606_jpg, suburban).
holds(s_11606_jpg, door).
holds(s_11606_jpg, window).
holds(s_11606_jpg, awning).
holds(s_11606_jpg, porch).
holds(s_11606_jpg, tiledrooftop).
holds(s_11606_jpg, vendingmachine).
holds(s_11606_jpg, statue).
holds(s_11606_jpg, pipe).
holds(s_11606_jpg, truck).
holds(s_11606_jpg, residential).

sample(s_6912_jpg).
holds(s_6912_jpg, building).
holds(s_6912_jpg, feature).
holds(s_6912_jpg, hotel).
holds(s_6912_jpg, door).
holds(s_6912_jpg, awning).
holds(s_6912_jpg, billboard).
holds(s_6912_jpg, porch).
holds(s_6912_jpg, sign).
holds(s_6912_jpg, tiledrooftop).
holds(s_6912_jpg, chimney).
holds(s_6912_jpg, pipe).
holds(s_6912_jpg, machine).
holds(s_6912_jpg, commercial).

sample(s_9297_jpg).
holds(s_9297_jpg, building).
holds(s_9297_jpg, feature).
holds(s_9297_jpg, hotel).
holds(s_9297_jpg, door).
holds(s_9297_jpg, awning).
holds(s_9297_jpg, billboard).
holds(s_9297_jpg, porch).
holds(s_9297_jpg, sign).
holds(s_9297_jpg, tiledrooftop).
holds(s_9297_jpg, pipe).
holds(s_9297_jpg, machine).
holds(s_9297_jpg, commercial).

sample(s_14877_jpg).
holds(s_14877_jpg, building).
holds(s_14877_jpg, feature).
holds(s_14877_jpg, hotel).
holds(s_14877_jpg, door).
holds(s_14877_jpg, awning).
holds(s_14877_jpg, billboard).
holds(s_14877_jpg, porch).
holds(s_14877_jpg, sign).
holds(s_14877_jpg, tiledrooftop).
holds(s_14877_jpg, chimney).
holds(s_14877_jpg, pipe).
holds(s_14877_jpg, machine).
holds(s_14877_jpg, commercial).

sample(s_11532_jpg).
holds(s_11532_jpg, building).
holds(s_11532_jpg, feature).
holds(s_11532_jpg, hotel).
holds(s_11532_jpg, door).
holds(s_11532_jpg, awning).
holds(s_11532_jpg, billboard).
holds(s_11532_jpg, porch).
holds(s_11532_jpg, sign).
holds(s_11532_jpg, tiledrooftop).
holds(s_11532_jpg, chimney).
holds(s_11532_jpg, pipe).
holds(s_11532_jpg, machine).
holds(s_11532_jpg, commercial).

sample(s_4250_jpg).
holds(s_4250_jpg, building).
holds(s_4250_jpg, feature).
holds(s_4250_jpg, suburban).
holds(s_4250_jpg, door).
holds(s_4250_jpg, window).
holds(s_4250_jpg, awning).
holds(s_4250_jpg, porch).
holds(s_4250_jpg, tiledrooftop).
holds(s_4250_jpg, vendingmachine).
holds(s_4250_jpg, wallsign).
holds(s_4250_jpg, statue).
holds(s_4250_jpg, pipe).
holds(s_4250_jpg, machine).
holds(s_4250_jpg, truck).
holds(s_4250_jpg, residential).

sample(s_12136_jpg).
holds(s_12136_jpg, building).
holds(s_12136_jpg, feature).
holds(s_12136_jpg, constructionsite).
holds(s_12136_jpg, awning).
holds(s_12136_jpg, billboard).
holds(s_12136_jpg, porch).
holds(s_12136_jpg, tiledrooftop).
holds(s_12136_jpg, wallsign).
holds(s_12136_jpg, chimney).
holds(s_12136_jpg, pipe).
holds(s_12136_jpg, machine).
holds(s_12136_jpg, industrial).

sample(s_1156_jpg).
holds(s_1156_jpg, building).
holds(s_1156_jpg, feature).
holds(s_1156_jpg, constructionsite).
holds(s_1156_jpg, awning).
holds(s_1156_jpg, billboard).
holds(s_1156_jpg, porch).
holds(s_1156_jpg, tiledrooftop).
holds(s_1156_jpg, wallsign).
holds(s_1156_jpg, chimney).
holds(s_1156_jpg, pipe).
holds(s_1156_jpg, machine).
holds(s_1156_jpg, industrial).

sample(s_9478_jpg).
holds(s_9478_jpg, building).
holds(s_9478_jpg, feature).
holds(s_9478_jpg, constructionsite).
holds(s_9478_jpg, door).
holds(s_9478_jpg, awning).
holds(s_9478_jpg, billboard).
holds(s_9478_jpg, porch).
holds(s_9478_jpg, tiledrooftop).
holds(s_9478_jpg, vendingmachine).
holds(s_9478_jpg, wallsign).
holds(s_9478_jpg, statue).
holds(s_9478_jpg, chimney).
holds(s_9478_jpg, pipe).
holds(s_9478_jpg, machine).
holds(s_9478_jpg, industrial).

sample(s_9362_jpg).
holds(s_9362_jpg, building).
holds(s_9362_jpg, feature).
holds(s_9362_jpg, suburban).
holds(s_9362_jpg, door).
holds(s_9362_jpg, window).
holds(s_9362_jpg, awning).
holds(s_9362_jpg, porch).
holds(s_9362_jpg, tiledrooftop).
holds(s_9362_jpg, vendingmachine).
holds(s_9362_jpg, wallsign).
holds(s_9362_jpg, statue).
holds(s_9362_jpg, pipe).
holds(s_9362_jpg, car).
holds(s_9362_jpg, residential).

sample(s_12012_jpg).
holds(s_12012_jpg, building).
holds(s_12012_jpg, feature).
holds(s_12012_jpg, hotel).
holds(s_12012_jpg, door).
holds(s_12012_jpg, awning).
holds(s_12012_jpg, billboard).
holds(s_12012_jpg, porch).
holds(s_12012_jpg, sign).
holds(s_12012_jpg, tiledrooftop).
holds(s_12012_jpg, pipe).
holds(s_12012_jpg, machine).
holds(s_12012_jpg, commercial).

sample(s_13249_jpg).
holds(s_13249_jpg, building).
holds(s_13249_jpg, feature).
holds(s_13249_jpg, constructionsite).
holds(s_13249_jpg, awning).
holds(s_13249_jpg, billboard).
holds(s_13249_jpg, porch).
holds(s_13249_jpg, tiledrooftop).
holds(s_13249_jpg, wallsign).
holds(s_13249_jpg, chimney).
holds(s_13249_jpg, pipe).
holds(s_13249_jpg, machine).
holds(s_13249_jpg, industrial).

sample(s_9045_jpg).
holds(s_9045_jpg, building).
holds(s_9045_jpg, feature).
holds(s_9045_jpg, hotel).
holds(s_9045_jpg, door).
holds(s_9045_jpg, awning).
holds(s_9045_jpg, billboard).
holds(s_9045_jpg, porch).
holds(s_9045_jpg, tiledrooftop).
holds(s_9045_jpg, statue).
holds(s_9045_jpg, chimney).
holds(s_9045_jpg, machine).
holds(s_9045_jpg, truck).
holds(s_9045_jpg, commercial).

sample(s_13183_jpg).
holds(s_13183_jpg, building).
holds(s_13183_jpg, feature).
holds(s_13183_jpg, constructionsite).
holds(s_13183_jpg, awning).
holds(s_13183_jpg, billboard).
holds(s_13183_jpg, porch).
holds(s_13183_jpg, tiledrooftop).
holds(s_13183_jpg, chimney).
holds(s_13183_jpg, machine).
holds(s_13183_jpg, industrial).

sample(s_11032_jpg).
holds(s_11032_jpg, building).
holds(s_11032_jpg, feature).
holds(s_11032_jpg, constructionsite).
holds(s_11032_jpg, awning).
holds(s_11032_jpg, billboard).
holds(s_11032_jpg, porch).
holds(s_11032_jpg, tiledrooftop).
holds(s_11032_jpg, vendingmachine).
holds(s_11032_jpg, wallsign).
holds(s_11032_jpg, statue).
holds(s_11032_jpg, chimney).
holds(s_11032_jpg, pipe).
holds(s_11032_jpg, machine).
holds(s_11032_jpg, industrial).

sample(s_2609_jpg).
holds(s_2609_jpg, building).
holds(s_2609_jpg, feature).
holds(s_2609_jpg, suburban).
holds(s_2609_jpg, door).
holds(s_2609_jpg, window).
holds(s_2609_jpg, awning).
holds(s_2609_jpg, table).
holds(s_2609_jpg, tiledrooftop).
holds(s_2609_jpg, vendingmachine).
holds(s_2609_jpg, wallsign).
holds(s_2609_jpg, statue).
holds(s_2609_jpg, pipe).
holds(s_2609_jpg, residential).

sample(s_1047_jpg).
holds(s_1047_jpg, building).
holds(s_1047_jpg, feature).
holds(s_1047_jpg, hotel).
holds(s_1047_jpg, door).
holds(s_1047_jpg, awning).
holds(s_1047_jpg, billboard).
holds(s_1047_jpg, porch).
holds(s_1047_jpg, sign).
holds(s_1047_jpg, tiledrooftop).
holds(s_1047_jpg, statue).
holds(s_1047_jpg, chimney).
holds(s_1047_jpg, pipe).
holds(s_1047_jpg, machine).
holds(s_1047_jpg, commercial).

sample(s_2931_jpg).
holds(s_2931_jpg, building).
holds(s_2931_jpg, feature).
holds(s_2931_jpg, hotel).
holds(s_2931_jpg, door).
holds(s_2931_jpg, awning).
holds(s_2931_jpg, billboard).
holds(s_2931_jpg, porch).
holds(s_2931_jpg, sign).
holds(s_2931_jpg, tiledrooftop).
holds(s_2931_jpg, statue).
holds(s_2931_jpg, chimney).
holds(s_2931_jpg, pipe).
holds(s_2931_jpg, machine).
holds(s_2931_jpg, commercial).

sample(s_10629_jpg).
holds(s_10629_jpg, building).
holds(s_10629_jpg, feature).
holds(s_10629_jpg, hotel).
holds(s_10629_jpg, door).
holds(s_10629_jpg, awning).
holds(s_10629_jpg, porch).
holds(s_10629_jpg, tiledrooftop).
holds(s_10629_jpg, statue).
holds(s_10629_jpg, chimney).
holds(s_10629_jpg, pipe).
holds(s_10629_jpg, machine).
holds(s_10629_jpg, commercial).

sample(s_10111_jpg).
holds(s_10111_jpg, building).
holds(s_10111_jpg, feature).
holds(s_10111_jpg, constructionsite).
holds(s_10111_jpg, awning).
holds(s_10111_jpg, billboard).
holds(s_10111_jpg, porch).
holds(s_10111_jpg, tiledrooftop).
holds(s_10111_jpg, chimney).
holds(s_10111_jpg, pipe).
holds(s_10111_jpg, machine).
holds(s_10111_jpg, industrial).

sample(s_13152_jpg).
holds(s_13152_jpg, building).
holds(s_13152_jpg, feature).
holds(s_13152_jpg, hotel).
holds(s_13152_jpg, door).
holds(s_13152_jpg, awning).
holds(s_13152_jpg, billboard).
holds(s_13152_jpg, porch).
holds(s_13152_jpg, sign).
holds(s_13152_jpg, tiledrooftop).
holds(s_13152_jpg, chimney).
holds(s_13152_jpg, pipe).
holds(s_13152_jpg, machine).
holds(s_13152_jpg, commercial).

sample(s_15019_jpg).
holds(s_15019_jpg, building).
holds(s_15019_jpg, feature).
holds(s_15019_jpg, constructionsite).
holds(s_15019_jpg, awning).
holds(s_15019_jpg, billboard).
holds(s_15019_jpg, porch).
holds(s_15019_jpg, tiledrooftop).
holds(s_15019_jpg, wallsign).
holds(s_15019_jpg, chimney).
holds(s_15019_jpg, machine).
holds(s_15019_jpg, industrial).

sample(s_5994_jpg).
holds(s_5994_jpg, building).
holds(s_5994_jpg, feature).
holds(s_5994_jpg, hotel).
holds(s_5994_jpg, door).
holds(s_5994_jpg, awning).
holds(s_5994_jpg, billboard).
holds(s_5994_jpg, porch).
holds(s_5994_jpg, tiledrooftop).
holds(s_5994_jpg, statue).
holds(s_5994_jpg, chimney).
holds(s_5994_jpg, pipe).
holds(s_5994_jpg, machine).
holds(s_5994_jpg, truck).
holds(s_5994_jpg, commercial).

sample(s_15526_jpg).
holds(s_15526_jpg, building).
holds(s_15526_jpg, feature).
holds(s_15526_jpg, constructionsite).
holds(s_15526_jpg, awning).
holds(s_15526_jpg, billboard).
holds(s_15526_jpg, porch).
holds(s_15526_jpg, tiledrooftop).
holds(s_15526_jpg, chimney).
holds(s_15526_jpg, pipe).
holds(s_15526_jpg, machine).
holds(s_15526_jpg, industrial).

sample(s_15168_jpg).
holds(s_15168_jpg, building).
holds(s_15168_jpg, feature).
holds(s_15168_jpg, hotel).
holds(s_15168_jpg, door).
holds(s_15168_jpg, awning).
holds(s_15168_jpg, billboard).
holds(s_15168_jpg, porch).
holds(s_15168_jpg, sign).
holds(s_15168_jpg, tiledrooftop).
holds(s_15168_jpg, statue).
holds(s_15168_jpg, chimney).
holds(s_15168_jpg, machine).
holds(s_15168_jpg, commercial).

sample(s_15468_jpg).
holds(s_15468_jpg, building).
holds(s_15468_jpg, feature).
holds(s_15468_jpg, hotel).
holds(s_15468_jpg, door).
holds(s_15468_jpg, awning).
holds(s_15468_jpg, porch).
holds(s_15468_jpg, sign).
holds(s_15468_jpg, tiledrooftop).
holds(s_15468_jpg, statue).
holds(s_15468_jpg, pipe).
holds(s_15468_jpg, machine).
holds(s_15468_jpg, commercial).

sample(s_14930_jpg).
holds(s_14930_jpg, building).
holds(s_14930_jpg, feature).
holds(s_14930_jpg, suburban).
holds(s_14930_jpg, door).
holds(s_14930_jpg, window).
holds(s_14930_jpg, awning).
holds(s_14930_jpg, porch).
holds(s_14930_jpg, tiledrooftop).
holds(s_14930_jpg, vendingmachine).
holds(s_14930_jpg, wallsign).
holds(s_14930_jpg, statue).
holds(s_14930_jpg, residential).

sample(s_14894_jpg).
holds(s_14894_jpg, building).
holds(s_14894_jpg, feature).
holds(s_14894_jpg, suburban).
holds(s_14894_jpg, door).
holds(s_14894_jpg, window).
holds(s_14894_jpg, awning).
holds(s_14894_jpg, porch).
holds(s_14894_jpg, tiledrooftop).
holds(s_14894_jpg, vendingmachine).
holds(s_14894_jpg, wallsign).
holds(s_14894_jpg, statue).
holds(s_14894_jpg, residential).

sample(s_4191_jpg).
holds(s_4191_jpg, building).
holds(s_4191_jpg, feature).
holds(s_4191_jpg, hotel).
holds(s_4191_jpg, door).
holds(s_4191_jpg, awning).
holds(s_4191_jpg, billboard).
holds(s_4191_jpg, porch).
holds(s_4191_jpg, tiledrooftop).
holds(s_4191_jpg, wallsign).
holds(s_4191_jpg, statue).
holds(s_4191_jpg, chimney).
holds(s_4191_jpg, pipe).
holds(s_4191_jpg, machine).
holds(s_4191_jpg, commercial).

sample(s_10410_jpg).
holds(s_10410_jpg, building).
holds(s_10410_jpg, feature).
holds(s_10410_jpg, hotel).
holds(s_10410_jpg, door).
holds(s_10410_jpg, awning).
holds(s_10410_jpg, billboard).
holds(s_10410_jpg, porch).
holds(s_10410_jpg, sign).
holds(s_10410_jpg, tiledrooftop).
holds(s_10410_jpg, pipe).
holds(s_10410_jpg, machine).
holds(s_10410_jpg, commercial).

sample(s_14806_jpg).
holds(s_14806_jpg, building).
holds(s_14806_jpg, feature).
holds(s_14806_jpg, constructionsite).
holds(s_14806_jpg, awning).
holds(s_14806_jpg, billboard).
holds(s_14806_jpg, porch).
holds(s_14806_jpg, tiledrooftop).
holds(s_14806_jpg, wallsign).
holds(s_14806_jpg, chimney).
holds(s_14806_jpg, pipe).
holds(s_14806_jpg, machine).
holds(s_14806_jpg, industrial).

sample(s_5262_jpg).
holds(s_5262_jpg, building).
holds(s_5262_jpg, feature).
holds(s_5262_jpg, hotel).
holds(s_5262_jpg, door).
holds(s_5262_jpg, awning).
holds(s_5262_jpg, billboard).
holds(s_5262_jpg, porch).
holds(s_5262_jpg, sign).
holds(s_5262_jpg, tiledrooftop).
holds(s_5262_jpg, pipe).
holds(s_5262_jpg, machine).
holds(s_5262_jpg, commercial).

sample(s_10055_jpg).
holds(s_10055_jpg, building).
holds(s_10055_jpg, feature).
holds(s_10055_jpg, suburban).
holds(s_10055_jpg, door).
holds(s_10055_jpg, window).
holds(s_10055_jpg, awning).
holds(s_10055_jpg, porch).
holds(s_10055_jpg, tiledrooftop).
holds(s_10055_jpg, vendingmachine).
holds(s_10055_jpg, wallsign).
holds(s_10055_jpg, statue).
holds(s_10055_jpg, residential).

sample(s_13037_jpg).
holds(s_13037_jpg, building).
holds(s_13037_jpg, feature).
holds(s_13037_jpg, suburban).
holds(s_13037_jpg, door).
holds(s_13037_jpg, window).
holds(s_13037_jpg, awning).
holds(s_13037_jpg, porch).
holds(s_13037_jpg, tiledrooftop).
holds(s_13037_jpg, vendingmachine).
holds(s_13037_jpg, statue).
holds(s_13037_jpg, pipe).
holds(s_13037_jpg, residential).

sample(s_12531_jpg).
holds(s_12531_jpg, building).
holds(s_12531_jpg, feature).
holds(s_12531_jpg, hotel).
holds(s_12531_jpg, door).
holds(s_12531_jpg, awning).
holds(s_12531_jpg, billboard).
holds(s_12531_jpg, porch).
holds(s_12531_jpg, sign).
holds(s_12531_jpg, tiledrooftop).
holds(s_12531_jpg, chimney).
holds(s_12531_jpg, pipe).
holds(s_12531_jpg, machine).
holds(s_12531_jpg, commercial).

sample(s_6939_jpg).
holds(s_6939_jpg, building).
holds(s_6939_jpg, feature).
holds(s_6939_jpg, hotel).
holds(s_6939_jpg, door).
holds(s_6939_jpg, awning).
holds(s_6939_jpg, porch).
holds(s_6939_jpg, sign).
holds(s_6939_jpg, tiledrooftop).
holds(s_6939_jpg, statue).
holds(s_6939_jpg, chimney).
holds(s_6939_jpg, pipe).
holds(s_6939_jpg, machine).
holds(s_6939_jpg, commercial).

sample(s_8347_jpg).
holds(s_8347_jpg, building).
holds(s_8347_jpg, feature).
holds(s_8347_jpg, constructionsite).
holds(s_8347_jpg, awning).
holds(s_8347_jpg, billboard).
holds(s_8347_jpg, porch).
holds(s_8347_jpg, tiledrooftop).
holds(s_8347_jpg, wallsign).
holds(s_8347_jpg, chimney).
holds(s_8347_jpg, pipe).
holds(s_8347_jpg, machine).
holds(s_8347_jpg, industrial).

sample(s_4202_jpg).
holds(s_4202_jpg, building).
holds(s_4202_jpg, feature).
holds(s_4202_jpg, suburban).
holds(s_4202_jpg, door).
holds(s_4202_jpg, window).
holds(s_4202_jpg, awning).
holds(s_4202_jpg, porch).
holds(s_4202_jpg, tiledrooftop).
holds(s_4202_jpg, vendingmachine).
holds(s_4202_jpg, wallsign).
holds(s_4202_jpg, statue).
holds(s_4202_jpg, residential).

sample(s_12386_jpg).
holds(s_12386_jpg, building).
holds(s_12386_jpg, feature).
holds(s_12386_jpg, suburban).
holds(s_12386_jpg, door).
holds(s_12386_jpg, window).
holds(s_12386_jpg, awning).
holds(s_12386_jpg, porch).
holds(s_12386_jpg, table).
holds(s_12386_jpg, tiledrooftop).
holds(s_12386_jpg, vendingmachine).
holds(s_12386_jpg, wallsign).
holds(s_12386_jpg, statue).
holds(s_12386_jpg, pipe).
holds(s_12386_jpg, car).
holds(s_12386_jpg, residential).

sample(s_10438_jpg).
holds(s_10438_jpg, building).
holds(s_10438_jpg, feature).
holds(s_10438_jpg, constructionsite).
holds(s_10438_jpg, awning).
holds(s_10438_jpg, billboard).
holds(s_10438_jpg, porch).
holds(s_10438_jpg, tiledrooftop).
holds(s_10438_jpg, chimney).
holds(s_10438_jpg, pipe).
holds(s_10438_jpg, machine).
holds(s_10438_jpg, industrial).

sample(s_57_jpg).
holds(s_57_jpg, building).
holds(s_57_jpg, feature).
holds(s_57_jpg, hotel).
holds(s_57_jpg, door).
holds(s_57_jpg, awning).
holds(s_57_jpg, porch).
holds(s_57_jpg, tiledrooftop).
holds(s_57_jpg, statue).
holds(s_57_jpg, chimney).
holds(s_57_jpg, pipe).
holds(s_57_jpg, machine).
holds(s_57_jpg, commercial).

sample(s_955_jpg).
holds(s_955_jpg, building).
holds(s_955_jpg, feature).
holds(s_955_jpg, constructionsite).
holds(s_955_jpg, awning).
holds(s_955_jpg, billboard).
holds(s_955_jpg, porch).
holds(s_955_jpg, tiledrooftop).
holds(s_955_jpg, wallsign).
holds(s_955_jpg, chimney).
holds(s_955_jpg, machine).
holds(s_955_jpg, industrial).

sample(s_1901_jpg).
holds(s_1901_jpg, building).
holds(s_1901_jpg, feature).
holds(s_1901_jpg, suburban).
holds(s_1901_jpg, door).
holds(s_1901_jpg, window).
holds(s_1901_jpg, awning).
holds(s_1901_jpg, porch).
holds(s_1901_jpg, tiledrooftop).
holds(s_1901_jpg, vendingmachine).
holds(s_1901_jpg, wallsign).
holds(s_1901_jpg, statue).
holds(s_1901_jpg, residential).

sample(s_15598_jpg).
holds(s_15598_jpg, building).
holds(s_15598_jpg, feature).
holds(s_15598_jpg, constructionsite).
holds(s_15598_jpg, awning).
holds(s_15598_jpg, billboard).
holds(s_15598_jpg, porch).
holds(s_15598_jpg, tiledrooftop).
holds(s_15598_jpg, wallsign).
holds(s_15598_jpg, chimney).
holds(s_15598_jpg, pipe).
holds(s_15598_jpg, machine).
holds(s_15598_jpg, industrial).

sample(s_178_jpg).
holds(s_178_jpg, building).
holds(s_178_jpg, feature).
holds(s_178_jpg, constructionsite).
holds(s_178_jpg, awning).
holds(s_178_jpg, billboard).
holds(s_178_jpg, porch).
holds(s_178_jpg, tiledrooftop).
holds(s_178_jpg, wallsign).
holds(s_178_jpg, chimney).
holds(s_178_jpg, pipe).
holds(s_178_jpg, machine).
holds(s_178_jpg, industrial).

sample(s_9256_jpg).
holds(s_9256_jpg, building).
holds(s_9256_jpg, feature).
holds(s_9256_jpg, constructionsite).
holds(s_9256_jpg, door).
holds(s_9256_jpg, awning).
holds(s_9256_jpg, billboard).
holds(s_9256_jpg, porch).
holds(s_9256_jpg, tiledrooftop).
holds(s_9256_jpg, vendingmachine).
holds(s_9256_jpg, wallsign).
holds(s_9256_jpg, statue).
holds(s_9256_jpg, chimney).
holds(s_9256_jpg, pipe).
holds(s_9256_jpg, machine).
holds(s_9256_jpg, industrial).

sample(s_8315_jpg).
holds(s_8315_jpg, building).
holds(s_8315_jpg, feature).
holds(s_8315_jpg, suburban).
holds(s_8315_jpg, door).
holds(s_8315_jpg, awning).
holds(s_8315_jpg, billboard).
holds(s_8315_jpg, porch).
holds(s_8315_jpg, tiledrooftop).
holds(s_8315_jpg, vendingmachine).
holds(s_8315_jpg, wallsign).
holds(s_8315_jpg, statue).
holds(s_8315_jpg, chimney).
holds(s_8315_jpg, pipe).
holds(s_8315_jpg, machine).
holds(s_8315_jpg, truck).
holds(s_8315_jpg, car).
holds(s_8315_jpg, residential).

sample(s_4006_jpg).
holds(s_4006_jpg, building).
holds(s_4006_jpg, feature).
holds(s_4006_jpg, constructionsite).
holds(s_4006_jpg, awning).
holds(s_4006_jpg, billboard).
holds(s_4006_jpg, porch).
holds(s_4006_jpg, tiledrooftop).
holds(s_4006_jpg, wallsign).
holds(s_4006_jpg, chimney).
holds(s_4006_jpg, pipe).
holds(s_4006_jpg, machine).
holds(s_4006_jpg, industrial).

sample(s_9408_jpg).
holds(s_9408_jpg, building).
holds(s_9408_jpg, feature).
holds(s_9408_jpg, hotel).
holds(s_9408_jpg, door).
holds(s_9408_jpg, awning).
holds(s_9408_jpg, billboard).
holds(s_9408_jpg, porch).
holds(s_9408_jpg, sign).
holds(s_9408_jpg, tiledrooftop).
holds(s_9408_jpg, pipe).
holds(s_9408_jpg, machine).
holds(s_9408_jpg, commercial).

sample(s_9860_jpg).
holds(s_9860_jpg, building).
holds(s_9860_jpg, feature).
holds(s_9860_jpg, suburban).
holds(s_9860_jpg, door).
holds(s_9860_jpg, window).
holds(s_9860_jpg, awning).
holds(s_9860_jpg, porch).
holds(s_9860_jpg, tiledrooftop).
holds(s_9860_jpg, vendingmachine).
holds(s_9860_jpg, statue).
holds(s_9860_jpg, residential).

sample(s_10171_jpg).
holds(s_10171_jpg, building).
holds(s_10171_jpg, feature).
holds(s_10171_jpg, constructionsite).
holds(s_10171_jpg, awning).
holds(s_10171_jpg, billboard).
holds(s_10171_jpg, porch).
holds(s_10171_jpg, tiledrooftop).
holds(s_10171_jpg, wallsign).
holds(s_10171_jpg, chimney).
holds(s_10171_jpg, pipe).
holds(s_10171_jpg, machine).
holds(s_10171_jpg, industrial).

sample(s_6762_jpg).
holds(s_6762_jpg, building).
holds(s_6762_jpg, feature).
holds(s_6762_jpg, hotel).
holds(s_6762_jpg, door).
holds(s_6762_jpg, awning).
holds(s_6762_jpg, billboard).
holds(s_6762_jpg, porch).
holds(s_6762_jpg, sign).
holds(s_6762_jpg, tiledrooftop).
holds(s_6762_jpg, pipe).
holds(s_6762_jpg, machine).
holds(s_6762_jpg, commercial).

sample(s_11073_jpg).
holds(s_11073_jpg, building).
holds(s_11073_jpg, feature).
holds(s_11073_jpg, hotel).
holds(s_11073_jpg, door).
holds(s_11073_jpg, awning).
holds(s_11073_jpg, billboard).
holds(s_11073_jpg, porch).
holds(s_11073_jpg, sign).
holds(s_11073_jpg, tiledrooftop).
holds(s_11073_jpg, chimney).
holds(s_11073_jpg, pipe).
holds(s_11073_jpg, machine).
holds(s_11073_jpg, commercial).

sample(s_1299_jpg).
holds(s_1299_jpg, building).
holds(s_1299_jpg, feature).
holds(s_1299_jpg, hotel).
holds(s_1299_jpg, door).
holds(s_1299_jpg, awning).
holds(s_1299_jpg, billboard).
holds(s_1299_jpg, porch).
holds(s_1299_jpg, sign).
holds(s_1299_jpg, tiledrooftop).
holds(s_1299_jpg, chimney).
holds(s_1299_jpg, pipe).
holds(s_1299_jpg, machine).
holds(s_1299_jpg, commercial).

sample(s_10276_jpg).
holds(s_10276_jpg, building).
holds(s_10276_jpg, feature).
holds(s_10276_jpg, constructionsite).
holds(s_10276_jpg, awning).
holds(s_10276_jpg, billboard).
holds(s_10276_jpg, porch).
holds(s_10276_jpg, tiledrooftop).
holds(s_10276_jpg, chimney).
holds(s_10276_jpg, machine).
holds(s_10276_jpg, industrial).

sample(s_1697_jpg).
holds(s_1697_jpg, building).
holds(s_1697_jpg, feature).
holds(s_1697_jpg, suburban).
holds(s_1697_jpg, door).
holds(s_1697_jpg, awning).
holds(s_1697_jpg, billboard).
holds(s_1697_jpg, porch).
holds(s_1697_jpg, sign).
holds(s_1697_jpg, tiledrooftop).
holds(s_1697_jpg, wallsign).
holds(s_1697_jpg, statue).
holds(s_1697_jpg, chimney).
holds(s_1697_jpg, pipe).
holds(s_1697_jpg, machine).
holds(s_1697_jpg, truck).
holds(s_1697_jpg, car).
holds(s_1697_jpg, residential).

sample(s_2623_jpg).
holds(s_2623_jpg, building).
holds(s_2623_jpg, feature).
holds(s_2623_jpg, constructionsite).
holds(s_2623_jpg, awning).
holds(s_2623_jpg, billboard).
holds(s_2623_jpg, porch).
holds(s_2623_jpg, tiledrooftop).
holds(s_2623_jpg, wallsign).
holds(s_2623_jpg, chimney).
holds(s_2623_jpg, pipe).
holds(s_2623_jpg, machine).
holds(s_2623_jpg, industrial).

sample(s_2207_jpg).
holds(s_2207_jpg, building).
holds(s_2207_jpg, feature).
holds(s_2207_jpg, suburban).
holds(s_2207_jpg, door).
holds(s_2207_jpg, window).
holds(s_2207_jpg, awning).
holds(s_2207_jpg, porch).
holds(s_2207_jpg, tiledrooftop).
holds(s_2207_jpg, vendingmachine).
holds(s_2207_jpg, statue).
holds(s_2207_jpg, residential).

sample(s_14106_jpg).
holds(s_14106_jpg, building).
holds(s_14106_jpg, feature).
holds(s_14106_jpg, hotel).
holds(s_14106_jpg, door).
holds(s_14106_jpg, awning).
holds(s_14106_jpg, billboard).
holds(s_14106_jpg, porch).
holds(s_14106_jpg, sign).
holds(s_14106_jpg, tiledrooftop).
holds(s_14106_jpg, statue).
holds(s_14106_jpg, chimney).
holds(s_14106_jpg, pipe).
holds(s_14106_jpg, machine).
holds(s_14106_jpg, truck).
holds(s_14106_jpg, commercial).

sample(s_8176_jpg).
holds(s_8176_jpg, building).
holds(s_8176_jpg, feature).
holds(s_8176_jpg, constructionsite).
holds(s_8176_jpg, awning).
holds(s_8176_jpg, billboard).
holds(s_8176_jpg, porch).
holds(s_8176_jpg, tiledrooftop).
holds(s_8176_jpg, chimney).
holds(s_8176_jpg, pipe).
holds(s_8176_jpg, machine).
holds(s_8176_jpg, industrial).

sample(s_12125_jpg).
holds(s_12125_jpg, building).
holds(s_12125_jpg, feature).
holds(s_12125_jpg, suburban).
holds(s_12125_jpg, door).
holds(s_12125_jpg, window).
holds(s_12125_jpg, awning).
holds(s_12125_jpg, table).
holds(s_12125_jpg, tiledrooftop).
holds(s_12125_jpg, vendingmachine).
holds(s_12125_jpg, wallsign).
holds(s_12125_jpg, statue).
holds(s_12125_jpg, pipe).
holds(s_12125_jpg, car).
holds(s_12125_jpg, residential).

sample(s_9505_jpg).
holds(s_9505_jpg, building).
holds(s_9505_jpg, feature).
holds(s_9505_jpg, constructionsite).
holds(s_9505_jpg, door).
holds(s_9505_jpg, awning).
holds(s_9505_jpg, billboard).
holds(s_9505_jpg, porch).
holds(s_9505_jpg, tiledrooftop).
holds(s_9505_jpg, vendingmachine).
holds(s_9505_jpg, wallsign).
holds(s_9505_jpg, chimney).
holds(s_9505_jpg, pipe).
holds(s_9505_jpg, machine).
holds(s_9505_jpg, industrial).

sample(s_7393_jpg).
holds(s_7393_jpg, building).
holds(s_7393_jpg, feature).
holds(s_7393_jpg, constructionsite).
holds(s_7393_jpg, awning).
holds(s_7393_jpg, billboard).
holds(s_7393_jpg, porch).
holds(s_7393_jpg, tiledrooftop).
holds(s_7393_jpg, wallsign).
holds(s_7393_jpg, chimney).
holds(s_7393_jpg, pipe).
holds(s_7393_jpg, machine).
holds(s_7393_jpg, industrial).

sample(s_12939_jpg).
holds(s_12939_jpg, building).
holds(s_12939_jpg, feature).
holds(s_12939_jpg, hotel).
holds(s_12939_jpg, door).
holds(s_12939_jpg, awning).
holds(s_12939_jpg, billboard).
holds(s_12939_jpg, porch).
holds(s_12939_jpg, sign).
holds(s_12939_jpg, tiledrooftop).
holds(s_12939_jpg, pipe).
holds(s_12939_jpg, machine).
holds(s_12939_jpg, commercial).

sample(s_5113_jpg).
holds(s_5113_jpg, building).
holds(s_5113_jpg, feature).
holds(s_5113_jpg, constructionsite).
holds(s_5113_jpg, awning).
holds(s_5113_jpg, billboard).
holds(s_5113_jpg, porch).
holds(s_5113_jpg, tiledrooftop).
holds(s_5113_jpg, wallsign).
holds(s_5113_jpg, chimney).
holds(s_5113_jpg, pipe).
holds(s_5113_jpg, machine).
holds(s_5113_jpg, industrial).

sample(s_219_jpg).
holds(s_219_jpg, building).
holds(s_219_jpg, feature).
holds(s_219_jpg, hotel).
holds(s_219_jpg, door).
holds(s_219_jpg, awning).
holds(s_219_jpg, billboard).
holds(s_219_jpg, porch).
holds(s_219_jpg, sign).
holds(s_219_jpg, tiledrooftop).
holds(s_219_jpg, chimney).
holds(s_219_jpg, pipe).
holds(s_219_jpg, machine).
holds(s_219_jpg, commercial).

sample(s_965_jpg).
holds(s_965_jpg, building).
holds(s_965_jpg, feature).
holds(s_965_jpg, suburban).
holds(s_965_jpg, door).
holds(s_965_jpg, window).
holds(s_965_jpg, awning).
holds(s_965_jpg, porch).
holds(s_965_jpg, tiledrooftop).
holds(s_965_jpg, vendingmachine).
holds(s_965_jpg, statue).
holds(s_965_jpg, residential).

sample(s_10179_jpg).
holds(s_10179_jpg, building).
holds(s_10179_jpg, feature).
holds(s_10179_jpg, hotel).
holds(s_10179_jpg, door).
holds(s_10179_jpg, awning).
holds(s_10179_jpg, billboard).
holds(s_10179_jpg, porch).
holds(s_10179_jpg, sign).
holds(s_10179_jpg, tiledrooftop).
holds(s_10179_jpg, chimney).
holds(s_10179_jpg, pipe).
holds(s_10179_jpg, machine).
holds(s_10179_jpg, commercial).

sample(s_14257_jpg).
holds(s_14257_jpg, building).
holds(s_14257_jpg, feature).
holds(s_14257_jpg, constructionsite).
holds(s_14257_jpg, door).
holds(s_14257_jpg, awning).
holds(s_14257_jpg, billboard).
holds(s_14257_jpg, porch).
holds(s_14257_jpg, tiledrooftop).
holds(s_14257_jpg, wallsign).
holds(s_14257_jpg, chimney).
holds(s_14257_jpg, pipe).
holds(s_14257_jpg, machine).
holds(s_14257_jpg, industrial).

sample(s_1571_jpg).
holds(s_1571_jpg, building).
holds(s_1571_jpg, feature).
holds(s_1571_jpg, suburban).
holds(s_1571_jpg, door).
holds(s_1571_jpg, window).
holds(s_1571_jpg, awning).
holds(s_1571_jpg, porch).
holds(s_1571_jpg, tiledrooftop).
holds(s_1571_jpg, vendingmachine).
holds(s_1571_jpg, statue).
holds(s_1571_jpg, pipe).
holds(s_1571_jpg, machine).
holds(s_1571_jpg, residential).

sample(s_15064_jpg).
holds(s_15064_jpg, building).
holds(s_15064_jpg, feature).
holds(s_15064_jpg, constructionsite).
holds(s_15064_jpg, awning).
holds(s_15064_jpg, billboard).
holds(s_15064_jpg, porch).
holds(s_15064_jpg, tiledrooftop).
holds(s_15064_jpg, wallsign).
holds(s_15064_jpg, chimney).
holds(s_15064_jpg, pipe).
holds(s_15064_jpg, machine).
holds(s_15064_jpg, industrial).

sample(s_9192_jpg).
holds(s_9192_jpg, building).
holds(s_9192_jpg, feature).
holds(s_9192_jpg, hotel).
holds(s_9192_jpg, door).
holds(s_9192_jpg, awning).
holds(s_9192_jpg, billboard).
holds(s_9192_jpg, porch).
holds(s_9192_jpg, sign).
holds(s_9192_jpg, tiledrooftop).
holds(s_9192_jpg, pipe).
holds(s_9192_jpg, machine).
holds(s_9192_jpg, commercial).

sample(s_15164_jpg).
holds(s_15164_jpg, building).
holds(s_15164_jpg, feature).
holds(s_15164_jpg, suburban).
holds(s_15164_jpg, door).
holds(s_15164_jpg, window).
holds(s_15164_jpg, awning).
holds(s_15164_jpg, porch).
holds(s_15164_jpg, tiledrooftop).
holds(s_15164_jpg, vendingmachine).
holds(s_15164_jpg, statue).
holds(s_15164_jpg, residential).

sample(s_10479_jpg).
holds(s_10479_jpg, building).
holds(s_10479_jpg, feature).
holds(s_10479_jpg, hotel).
holds(s_10479_jpg, door).
holds(s_10479_jpg, awning).
holds(s_10479_jpg, billboard).
holds(s_10479_jpg, porch).
holds(s_10479_jpg, sign).
holds(s_10479_jpg, tiledrooftop).
holds(s_10479_jpg, statue).
holds(s_10479_jpg, chimney).
holds(s_10479_jpg, pipe).
holds(s_10479_jpg, machine).
holds(s_10479_jpg, commercial).

sample(s_7167_jpg).
holds(s_7167_jpg, building).
holds(s_7167_jpg, feature).
holds(s_7167_jpg, hotel).
holds(s_7167_jpg, door).
holds(s_7167_jpg, awning).
holds(s_7167_jpg, billboard).
holds(s_7167_jpg, porch).
holds(s_7167_jpg, tiledrooftop).
holds(s_7167_jpg, statue).
holds(s_7167_jpg, chimney).
holds(s_7167_jpg, pipe).
holds(s_7167_jpg, machine).
holds(s_7167_jpg, commercial).

sample(s_4589_jpg).
holds(s_4589_jpg, building).
holds(s_4589_jpg, feature).
holds(s_4589_jpg, suburban).
holds(s_4589_jpg, door).
holds(s_4589_jpg, window).
holds(s_4589_jpg, awning).
holds(s_4589_jpg, porch).
holds(s_4589_jpg, tiledrooftop).
holds(s_4589_jpg, vendingmachine).
holds(s_4589_jpg, wallsign).
holds(s_4589_jpg, statue).
holds(s_4589_jpg, pipe).
holds(s_4589_jpg, residential).

sample(s_13451_jpg).
holds(s_13451_jpg, building).
holds(s_13451_jpg, feature).
holds(s_13451_jpg, suburban).
holds(s_13451_jpg, door).
holds(s_13451_jpg, window).
holds(s_13451_jpg, awning).
holds(s_13451_jpg, porch).
holds(s_13451_jpg, tiledrooftop).
holds(s_13451_jpg, vendingmachine).
holds(s_13451_jpg, wallsign).
holds(s_13451_jpg, statue).
holds(s_13451_jpg, residential).

sample(s_7723_jpg).
holds(s_7723_jpg, building).
holds(s_7723_jpg, feature).
holds(s_7723_jpg, constructionsite).
holds(s_7723_jpg, awning).
holds(s_7723_jpg, billboard).
holds(s_7723_jpg, porch).
holds(s_7723_jpg, tiledrooftop).
holds(s_7723_jpg, wallsign).
holds(s_7723_jpg, chimney).
holds(s_7723_jpg, pipe).
holds(s_7723_jpg, machine).
holds(s_7723_jpg, industrial).

sample(s_11292_jpg).
holds(s_11292_jpg, building).
holds(s_11292_jpg, feature).
holds(s_11292_jpg, hotel).
holds(s_11292_jpg, door).
holds(s_11292_jpg, awning).
holds(s_11292_jpg, billboard).
holds(s_11292_jpg, porch).
holds(s_11292_jpg, sign).
holds(s_11292_jpg, tiledrooftop).
holds(s_11292_jpg, pipe).
holds(s_11292_jpg, machine).
holds(s_11292_jpg, commercial).

sample(s_8797_jpg).
holds(s_8797_jpg, building).
holds(s_8797_jpg, feature).
holds(s_8797_jpg, constructionsite).
holds(s_8797_jpg, awning).
holds(s_8797_jpg, billboard).
holds(s_8797_jpg, porch).
holds(s_8797_jpg, tiledrooftop).
holds(s_8797_jpg, wallsign).
holds(s_8797_jpg, chimney).
holds(s_8797_jpg, pipe).
holds(s_8797_jpg, machine).
holds(s_8797_jpg, industrial).

sample(s_5378_jpg).
holds(s_5378_jpg, building).
holds(s_5378_jpg, feature).
holds(s_5378_jpg, suburban).
holds(s_5378_jpg, door).
holds(s_5378_jpg, window).
holds(s_5378_jpg, awning).
holds(s_5378_jpg, porch).
holds(s_5378_jpg, tiledrooftop).
holds(s_5378_jpg, vendingmachine).
holds(s_5378_jpg, wallsign).
holds(s_5378_jpg, statue).
holds(s_5378_jpg, residential).

sample(s_15073_jpg).
holds(s_15073_jpg, building).
holds(s_15073_jpg, feature).
holds(s_15073_jpg, constructionsite).
holds(s_15073_jpg, awning).
holds(s_15073_jpg, billboard).
holds(s_15073_jpg, porch).
holds(s_15073_jpg, tiledrooftop).
holds(s_15073_jpg, wallsign).
holds(s_15073_jpg, chimney).
holds(s_15073_jpg, pipe).
holds(s_15073_jpg, machine).
holds(s_15073_jpg, industrial).

sample(s_11689_jpg).
holds(s_11689_jpg, building).
holds(s_11689_jpg, feature).
holds(s_11689_jpg, constructionsite).
holds(s_11689_jpg, awning).
holds(s_11689_jpg, billboard).
holds(s_11689_jpg, porch).
holds(s_11689_jpg, tiledrooftop).
holds(s_11689_jpg, wallsign).
holds(s_11689_jpg, chimney).
holds(s_11689_jpg, pipe).
holds(s_11689_jpg, machine).
holds(s_11689_jpg, industrial).

sample(s_6642_jpg).
holds(s_6642_jpg, building).
holds(s_6642_jpg, feature).
holds(s_6642_jpg, hotel).
holds(s_6642_jpg, door).
holds(s_6642_jpg, awning).
holds(s_6642_jpg, porch).
holds(s_6642_jpg, tiledrooftop).
holds(s_6642_jpg, statue).
holds(s_6642_jpg, chimney).
holds(s_6642_jpg, pipe).
holds(s_6642_jpg, machine).
holds(s_6642_jpg, truck).
holds(s_6642_jpg, commercial).

sample(s_8662_jpg).
holds(s_8662_jpg, building).
holds(s_8662_jpg, feature).
holds(s_8662_jpg, constructionsite).
holds(s_8662_jpg, door).
holds(s_8662_jpg, awning).
holds(s_8662_jpg, billboard).
holds(s_8662_jpg, porch).
holds(s_8662_jpg, tiledrooftop).
holds(s_8662_jpg, wallsign).
holds(s_8662_jpg, chimney).
holds(s_8662_jpg, pipe).
holds(s_8662_jpg, machine).
holds(s_8662_jpg, industrial).

sample(s_5745_jpg).
holds(s_5745_jpg, building).
holds(s_5745_jpg, feature).
holds(s_5745_jpg, hotel).
holds(s_5745_jpg, door).
holds(s_5745_jpg, awning).
holds(s_5745_jpg, billboard).
holds(s_5745_jpg, porch).
holds(s_5745_jpg, sign).
holds(s_5745_jpg, tiledrooftop).
holds(s_5745_jpg, chimney).
holds(s_5745_jpg, pipe).
holds(s_5745_jpg, machine).
holds(s_5745_jpg, truck).
holds(s_5745_jpg, commercial).

sample(s_11786_jpg).
holds(s_11786_jpg, building).
holds(s_11786_jpg, feature).
holds(s_11786_jpg, suburban).
holds(s_11786_jpg, door).
holds(s_11786_jpg, window).
holds(s_11786_jpg, awning).
holds(s_11786_jpg, porch).
holds(s_11786_jpg, tiledrooftop).
holds(s_11786_jpg, vendingmachine).
holds(s_11786_jpg, statue).
holds(s_11786_jpg, residential).

sample(s_12677_jpg).
holds(s_12677_jpg, building).
holds(s_12677_jpg, feature).
holds(s_12677_jpg, suburban).
holds(s_12677_jpg, door).
holds(s_12677_jpg, window).
holds(s_12677_jpg, awning).
holds(s_12677_jpg, porch).
holds(s_12677_jpg, tiledrooftop).
holds(s_12677_jpg, vendingmachine).
holds(s_12677_jpg, wallsign).
holds(s_12677_jpg, statue).
holds(s_12677_jpg, pipe).
holds(s_12677_jpg, residential).

sample(s_4149_jpg).
holds(s_4149_jpg, building).
holds(s_4149_jpg, feature).
holds(s_4149_jpg, hotel).
holds(s_4149_jpg, door).
holds(s_4149_jpg, awning).
holds(s_4149_jpg, billboard).
holds(s_4149_jpg, porch).
holds(s_4149_jpg, tiledrooftop).
holds(s_4149_jpg, statue).
holds(s_4149_jpg, chimney).
holds(s_4149_jpg, machine).
holds(s_4149_jpg, commercial).

sample(s_6161_jpg).
holds(s_6161_jpg, building).
holds(s_6161_jpg, feature).
holds(s_6161_jpg, suburban).
holds(s_6161_jpg, door).
holds(s_6161_jpg, window).
holds(s_6161_jpg, awning).
holds(s_6161_jpg, porch).
holds(s_6161_jpg, table).
holds(s_6161_jpg, tiledrooftop).
holds(s_6161_jpg, vendingmachine).
holds(s_6161_jpg, wallsign).
holds(s_6161_jpg, statue).
holds(s_6161_jpg, pipe).
holds(s_6161_jpg, car).
holds(s_6161_jpg, residential).

sample(s_3559_jpg).
holds(s_3559_jpg, building).
holds(s_3559_jpg, feature).
holds(s_3559_jpg, constructionsite).
holds(s_3559_jpg, awning).
holds(s_3559_jpg, billboard).
holds(s_3559_jpg, porch).
holds(s_3559_jpg, tiledrooftop).
holds(s_3559_jpg, wallsign).
holds(s_3559_jpg, chimney).
holds(s_3559_jpg, pipe).
holds(s_3559_jpg, machine).
holds(s_3559_jpg, industrial).

sample(s_3094_jpg).
holds(s_3094_jpg, building).
holds(s_3094_jpg, feature).
holds(s_3094_jpg, constructionsite).
holds(s_3094_jpg, door).
holds(s_3094_jpg, awning).
holds(s_3094_jpg, billboard).
holds(s_3094_jpg, porch).
holds(s_3094_jpg, tiledrooftop).
holds(s_3094_jpg, wallsign).
holds(s_3094_jpg, statue).
holds(s_3094_jpg, chimney).
holds(s_3094_jpg, pipe).
holds(s_3094_jpg, machine).
holds(s_3094_jpg, industrial).

sample(s_5709_jpg).
holds(s_5709_jpg, building).
holds(s_5709_jpg, feature).
holds(s_5709_jpg, hotel).
holds(s_5709_jpg, door).
holds(s_5709_jpg, awning).
holds(s_5709_jpg, billboard).
holds(s_5709_jpg, porch).
holds(s_5709_jpg, tiledrooftop).
holds(s_5709_jpg, statue).
holds(s_5709_jpg, chimney).
holds(s_5709_jpg, pipe).
holds(s_5709_jpg, machine).
holds(s_5709_jpg, truck).
holds(s_5709_jpg, commercial).

sample(s_7613_jpg).
holds(s_7613_jpg, building).
holds(s_7613_jpg, feature).
holds(s_7613_jpg, suburban).
holds(s_7613_jpg, door).
holds(s_7613_jpg, window).
holds(s_7613_jpg, awning).
holds(s_7613_jpg, porch).
holds(s_7613_jpg, table).
holds(s_7613_jpg, tiledrooftop).
holds(s_7613_jpg, vendingmachine).
holds(s_7613_jpg, wallsign).
holds(s_7613_jpg, statue).
holds(s_7613_jpg, pipe).
holds(s_7613_jpg, truck).
holds(s_7613_jpg, car).
holds(s_7613_jpg, residential).

sample(s_9781_jpg).
holds(s_9781_jpg, building).
holds(s_9781_jpg, feature).
holds(s_9781_jpg, constructionsite).
holds(s_9781_jpg, awning).
holds(s_9781_jpg, billboard).
holds(s_9781_jpg, porch).
holds(s_9781_jpg, tiledrooftop).
holds(s_9781_jpg, wallsign).
holds(s_9781_jpg, chimney).
holds(s_9781_jpg, pipe).
holds(s_9781_jpg, machine).
holds(s_9781_jpg, industrial).

sample(s_11354_jpg).
holds(s_11354_jpg, building).
holds(s_11354_jpg, feature).
holds(s_11354_jpg, suburban).
holds(s_11354_jpg, door).
holds(s_11354_jpg, window).
holds(s_11354_jpg, awning).
holds(s_11354_jpg, porch).
holds(s_11354_jpg, table).
holds(s_11354_jpg, tiledrooftop).
holds(s_11354_jpg, vendingmachine).
holds(s_11354_jpg, wallsign).
holds(s_11354_jpg, statue).
holds(s_11354_jpg, pipe).
holds(s_11354_jpg, car).
holds(s_11354_jpg, residential).

sample(s_8151_jpg).
holds(s_8151_jpg, building).
holds(s_8151_jpg, feature).
holds(s_8151_jpg, hotel).
holds(s_8151_jpg, door).
holds(s_8151_jpg, awning).
holds(s_8151_jpg, billboard).
holds(s_8151_jpg, porch).
holds(s_8151_jpg, tiledrooftop).
holds(s_8151_jpg, statue).
holds(s_8151_jpg, chimney).
holds(s_8151_jpg, machine).
holds(s_8151_jpg, commercial).

sample(s_15384_jpg).
holds(s_15384_jpg, building).
holds(s_15384_jpg, feature).
holds(s_15384_jpg, hotel).
holds(s_15384_jpg, door).
holds(s_15384_jpg, awning).
holds(s_15384_jpg, billboard).
holds(s_15384_jpg, porch).
holds(s_15384_jpg, tiledrooftop).
holds(s_15384_jpg, statue).
holds(s_15384_jpg, chimney).
holds(s_15384_jpg, machine).
holds(s_15384_jpg, commercial).

sample(s_8990_jpg).
holds(s_8990_jpg, building).
holds(s_8990_jpg, feature).
holds(s_8990_jpg, suburban).
holds(s_8990_jpg, door).
holds(s_8990_jpg, window).
holds(s_8990_jpg, awning).
holds(s_8990_jpg, porch).
holds(s_8990_jpg, tiledrooftop).
holds(s_8990_jpg, vendingmachine).
holds(s_8990_jpg, statue).
holds(s_8990_jpg, residential).

sample(s_14671_jpg).
holds(s_14671_jpg, building).
holds(s_14671_jpg, feature).
holds(s_14671_jpg, constructionsite).
holds(s_14671_jpg, awning).
holds(s_14671_jpg, billboard).
holds(s_14671_jpg, porch).
holds(s_14671_jpg, tiledrooftop).
holds(s_14671_jpg, statue).
holds(s_14671_jpg, chimney).
holds(s_14671_jpg, machine).
holds(s_14671_jpg, industrial).

sample(s_13764_jpg).
holds(s_13764_jpg, building).
holds(s_13764_jpg, feature).
holds(s_13764_jpg, hotel).
holds(s_13764_jpg, door).
holds(s_13764_jpg, awning).
holds(s_13764_jpg, billboard).
holds(s_13764_jpg, porch).
holds(s_13764_jpg, sign).
holds(s_13764_jpg, tiledrooftop).
holds(s_13764_jpg, chimney).
holds(s_13764_jpg, pipe).
holds(s_13764_jpg, machine).
holds(s_13764_jpg, commercial).

sample(s_12964_jpg).
holds(s_12964_jpg, building).
holds(s_12964_jpg, feature).
holds(s_12964_jpg, constructionsite).
holds(s_12964_jpg, door).
holds(s_12964_jpg, awning).
holds(s_12964_jpg, billboard).
holds(s_12964_jpg, porch).
holds(s_12964_jpg, tiledrooftop).
holds(s_12964_jpg, vendingmachine).
holds(s_12964_jpg, wallsign).
holds(s_12964_jpg, statue).
holds(s_12964_jpg, chimney).
holds(s_12964_jpg, pipe).
holds(s_12964_jpg, machine).
holds(s_12964_jpg, industrial).

sample(s_12436_jpg).
holds(s_12436_jpg, building).
holds(s_12436_jpg, feature).
holds(s_12436_jpg, constructionsite).
holds(s_12436_jpg, awning).
holds(s_12436_jpg, billboard).
holds(s_12436_jpg, porch).
holds(s_12436_jpg, tiledrooftop).
holds(s_12436_jpg, wallsign).
holds(s_12436_jpg, chimney).
holds(s_12436_jpg, pipe).
holds(s_12436_jpg, machine).
holds(s_12436_jpg, industrial).

sample(s_5273_jpg).
holds(s_5273_jpg, building).
holds(s_5273_jpg, feature).
holds(s_5273_jpg, door).
holds(s_5273_jpg, awning).
holds(s_5273_jpg, porch).
holds(s_5273_jpg, tiledrooftop).
holds(s_5273_jpg, vendingmachine).
holds(s_5273_jpg, wallsign).
holds(s_5273_jpg, statue).
holds(s_5273_jpg, chimney).
holds(s_5273_jpg, pipe).
holds(s_5273_jpg, machine).
holds(s_5273_jpg, truck).

sample(s_8246_jpg).
holds(s_8246_jpg, building).
holds(s_8246_jpg, feature).
holds(s_8246_jpg, suburban).
holds(s_8246_jpg, door).
holds(s_8246_jpg, window).
holds(s_8246_jpg, awning).
holds(s_8246_jpg, table).
holds(s_8246_jpg, tiledrooftop).
holds(s_8246_jpg, vendingmachine).
holds(s_8246_jpg, wallsign).
holds(s_8246_jpg, statue).
holds(s_8246_jpg, pipe).
holds(s_8246_jpg, residential).

sample(s_3415_jpg).
holds(s_3415_jpg, building).
holds(s_3415_jpg, feature).
holds(s_3415_jpg, constructionsite).
holds(s_3415_jpg, awning).
holds(s_3415_jpg, billboard).
holds(s_3415_jpg, porch).
holds(s_3415_jpg, tiledrooftop).
holds(s_3415_jpg, wallsign).
holds(s_3415_jpg, chimney).
holds(s_3415_jpg, pipe).
holds(s_3415_jpg, machine).
holds(s_3415_jpg, industrial).

sample(s_5656_jpg).
holds(s_5656_jpg, building).
holds(s_5656_jpg, feature).
holds(s_5656_jpg, constructionsite).
holds(s_5656_jpg, awning).
holds(s_5656_jpg, billboard).
holds(s_5656_jpg, porch).
holds(s_5656_jpg, sign).
holds(s_5656_jpg, tiledrooftop).
holds(s_5656_jpg, chimney).
holds(s_5656_jpg, pipe).
holds(s_5656_jpg, machine).
holds(s_5656_jpg, industrial).

sample(s_15702_jpg).
holds(s_15702_jpg, building).
holds(s_15702_jpg, feature).
holds(s_15702_jpg, hotel).
holds(s_15702_jpg, door).
holds(s_15702_jpg, awning).
holds(s_15702_jpg, billboard).
holds(s_15702_jpg, porch).
holds(s_15702_jpg, tiledrooftop).
holds(s_15702_jpg, statue).
holds(s_15702_jpg, chimney).
holds(s_15702_jpg, machine).
holds(s_15702_jpg, commercial).

sample(s_10302_jpg).
holds(s_10302_jpg, building).
holds(s_10302_jpg, feature).
holds(s_10302_jpg, hotel).
holds(s_10302_jpg, door).
holds(s_10302_jpg, awning).
holds(s_10302_jpg, billboard).
holds(s_10302_jpg, porch).
holds(s_10302_jpg, tiledrooftop).
holds(s_10302_jpg, statue).
holds(s_10302_jpg, chimney).
holds(s_10302_jpg, pipe).
holds(s_10302_jpg, machine).
holds(s_10302_jpg, commercial).

sample(s_1593_jpg).
holds(s_1593_jpg, building).
holds(s_1593_jpg, feature).
holds(s_1593_jpg, hotel).
holds(s_1593_jpg, door).
holds(s_1593_jpg, awning).
holds(s_1593_jpg, billboard).
holds(s_1593_jpg, porch).
holds(s_1593_jpg, sign).
holds(s_1593_jpg, tiledrooftop).
holds(s_1593_jpg, statue).
holds(s_1593_jpg, chimney).
holds(s_1593_jpg, machine).
holds(s_1593_jpg, commercial).

sample(s_13773_jpg).
holds(s_13773_jpg, building).
holds(s_13773_jpg, feature).
holds(s_13773_jpg, hotel).
holds(s_13773_jpg, door).
holds(s_13773_jpg, awning).
holds(s_13773_jpg, billboard).
holds(s_13773_jpg, porch).
holds(s_13773_jpg, tiledrooftop).
holds(s_13773_jpg, statue).
holds(s_13773_jpg, chimney).
holds(s_13773_jpg, pipe).
holds(s_13773_jpg, machine).
holds(s_13773_jpg, truck).
holds(s_13773_jpg, commercial).

sample(s_10214_jpg).
holds(s_10214_jpg, building).
holds(s_10214_jpg, feature).
holds(s_10214_jpg, suburban).
holds(s_10214_jpg, door).
holds(s_10214_jpg, awning).
holds(s_10214_jpg, billboard).
holds(s_10214_jpg, porch).
holds(s_10214_jpg, tiledrooftop).
holds(s_10214_jpg, vendingmachine).
holds(s_10214_jpg, wallsign).
holds(s_10214_jpg, statue).
holds(s_10214_jpg, chimney).
holds(s_10214_jpg, pipe).
holds(s_10214_jpg, machine).
holds(s_10214_jpg, truck).
holds(s_10214_jpg, car).
holds(s_10214_jpg, residential).

sample(s_4918_jpg).
holds(s_4918_jpg, building).
holds(s_4918_jpg, feature).
holds(s_4918_jpg, constructionsite).
holds(s_4918_jpg, awning).
holds(s_4918_jpg, billboard).
holds(s_4918_jpg, porch).
holds(s_4918_jpg, tiledrooftop).
holds(s_4918_jpg, vendingmachine).
holds(s_4918_jpg, wallsign).
holds(s_4918_jpg, chimney).
holds(s_4918_jpg, pipe).
holds(s_4918_jpg, machine).
holds(s_4918_jpg, industrial).

sample(s_13971_jpg).
holds(s_13971_jpg, building).
holds(s_13971_jpg, feature).
holds(s_13971_jpg, hotel).
holds(s_13971_jpg, door).
holds(s_13971_jpg, awning).
holds(s_13971_jpg, billboard).
holds(s_13971_jpg, porch).
holds(s_13971_jpg, sign).
holds(s_13971_jpg, tiledrooftop).
holds(s_13971_jpg, pipe).
holds(s_13971_jpg, machine).
holds(s_13971_jpg, commercial).

sample(s_7910_jpg).
holds(s_7910_jpg, building).
holds(s_7910_jpg, feature).
holds(s_7910_jpg, suburban).
holds(s_7910_jpg, door).
holds(s_7910_jpg, window).
holds(s_7910_jpg, awning).
holds(s_7910_jpg, porch).
holds(s_7910_jpg, tiledrooftop).
holds(s_7910_jpg, vendingmachine).
holds(s_7910_jpg, wallsign).
holds(s_7910_jpg, statue).
holds(s_7910_jpg, residential).

sample(s_12601_jpg).
holds(s_12601_jpg, building).
holds(s_12601_jpg, feature).
holds(s_12601_jpg, constructionsite).
holds(s_12601_jpg, awning).
holds(s_12601_jpg, billboard).
holds(s_12601_jpg, porch).
holds(s_12601_jpg, tiledrooftop).
holds(s_12601_jpg, wallsign).
holds(s_12601_jpg, chimney).
holds(s_12601_jpg, pipe).
holds(s_12601_jpg, machine).
holds(s_12601_jpg, industrial).

sample(s_13381_jpg).
holds(s_13381_jpg, building).
holds(s_13381_jpg, feature).
holds(s_13381_jpg, constructionsite).
holds(s_13381_jpg, awning).
holds(s_13381_jpg, billboard).
holds(s_13381_jpg, porch).
holds(s_13381_jpg, tiledrooftop).
holds(s_13381_jpg, wallsign).
holds(s_13381_jpg, chimney).
holds(s_13381_jpg, pipe).
holds(s_13381_jpg, machine).
holds(s_13381_jpg, industrial).

sample(s_3837_jpg).
holds(s_3837_jpg, building).
holds(s_3837_jpg, feature).
holds(s_3837_jpg, hotel).
holds(s_3837_jpg, door).
holds(s_3837_jpg, awning).
holds(s_3837_jpg, porch).
holds(s_3837_jpg, sign).
holds(s_3837_jpg, tiledrooftop).
holds(s_3837_jpg, statue).
holds(s_3837_jpg, pipe).
holds(s_3837_jpg, machine).
holds(s_3837_jpg, commercial).

sample(s_8382_jpg).
holds(s_8382_jpg, building).
holds(s_8382_jpg, feature).
holds(s_8382_jpg, hotel).
holds(s_8382_jpg, door).
holds(s_8382_jpg, awning).
holds(s_8382_jpg, billboard).
holds(s_8382_jpg, porch).
holds(s_8382_jpg, sign).
holds(s_8382_jpg, tiledrooftop).
holds(s_8382_jpg, pipe).
holds(s_8382_jpg, machine).
holds(s_8382_jpg, commercial).

sample(s_6661_jpg).
holds(s_6661_jpg, building).
holds(s_6661_jpg, feature).
holds(s_6661_jpg, constructionsite).
holds(s_6661_jpg, awning).
holds(s_6661_jpg, billboard).
holds(s_6661_jpg, porch).
holds(s_6661_jpg, tiledrooftop).
holds(s_6661_jpg, wallsign).
holds(s_6661_jpg, chimney).
holds(s_6661_jpg, pipe).
holds(s_6661_jpg, machine).
holds(s_6661_jpg, industrial).

sample(s_2866_jpg).
holds(s_2866_jpg, building).
holds(s_2866_jpg, feature).
holds(s_2866_jpg, constructionsite).
holds(s_2866_jpg, awning).
holds(s_2866_jpg, billboard).
holds(s_2866_jpg, porch).
holds(s_2866_jpg, tiledrooftop).
holds(s_2866_jpg, wallsign).
holds(s_2866_jpg, chimney).
holds(s_2866_jpg, pipe).
holds(s_2866_jpg, machine).
holds(s_2866_jpg, industrial).

sample(s_2433_jpg).
holds(s_2433_jpg, building).
holds(s_2433_jpg, feature).
holds(s_2433_jpg, hotel).
holds(s_2433_jpg, door).
holds(s_2433_jpg, awning).
holds(s_2433_jpg, billboard).
holds(s_2433_jpg, porch).
holds(s_2433_jpg, sign).
holds(s_2433_jpg, tiledrooftop).
holds(s_2433_jpg, statue).
holds(s_2433_jpg, chimney).
holds(s_2433_jpg, pipe).
holds(s_2433_jpg, machine).
holds(s_2433_jpg, commercial).

sample(s_2365_jpg).
holds(s_2365_jpg, building).
holds(s_2365_jpg, feature).
holds(s_2365_jpg, constructionsite).
holds(s_2365_jpg, awning).
holds(s_2365_jpg, billboard).
holds(s_2365_jpg, porch).
holds(s_2365_jpg, tiledrooftop).
holds(s_2365_jpg, wallsign).
holds(s_2365_jpg, chimney).
holds(s_2365_jpg, pipe).
holds(s_2365_jpg, machine).
holds(s_2365_jpg, industrial).

sample(s_9902_jpg).
holds(s_9902_jpg, building).
holds(s_9902_jpg, feature).
holds(s_9902_jpg, suburban).
holds(s_9902_jpg, door).
holds(s_9902_jpg, awning).
holds(s_9902_jpg, porch).
holds(s_9902_jpg, tiledrooftop).
holds(s_9902_jpg, vendingmachine).
holds(s_9902_jpg, wallsign).
holds(s_9902_jpg, statue).
holds(s_9902_jpg, chimney).
holds(s_9902_jpg, pipe).
holds(s_9902_jpg, machine).
holds(s_9902_jpg, truck).
holds(s_9902_jpg, car).
holds(s_9902_jpg, residential).

sample(s_3129_jpg).
holds(s_3129_jpg, building).
holds(s_3129_jpg, feature).
holds(s_3129_jpg, hotel).
holds(s_3129_jpg, door).
holds(s_3129_jpg, awning).
holds(s_3129_jpg, billboard).
holds(s_3129_jpg, porch).
holds(s_3129_jpg, sign).
holds(s_3129_jpg, tiledrooftop).
holds(s_3129_jpg, pipe).
holds(s_3129_jpg, machine).
holds(s_3129_jpg, commercial).

sample(s_14625_jpg).
holds(s_14625_jpg, building).
holds(s_14625_jpg, feature).
holds(s_14625_jpg, hotel).
holds(s_14625_jpg, door).
holds(s_14625_jpg, awning).
holds(s_14625_jpg, billboard).
holds(s_14625_jpg, porch).
holds(s_14625_jpg, tiledrooftop).
holds(s_14625_jpg, statue).
holds(s_14625_jpg, chimney).
holds(s_14625_jpg, machine).
holds(s_14625_jpg, commercial).

sample(s_15678_jpg).
holds(s_15678_jpg, building).
holds(s_15678_jpg, feature).
holds(s_15678_jpg, hotel).
holds(s_15678_jpg, door).
holds(s_15678_jpg, awning).
holds(s_15678_jpg, billboard).
holds(s_15678_jpg, porch).
holds(s_15678_jpg, sign).
holds(s_15678_jpg, tiledrooftop).
holds(s_15678_jpg, wallsign).
holds(s_15678_jpg, statue).
holds(s_15678_jpg, chimney).
holds(s_15678_jpg, pipe).
holds(s_15678_jpg, machine).
holds(s_15678_jpg, truck).
holds(s_15678_jpg, car).
holds(s_15678_jpg, commercial).

sample(s_1663_jpg).
holds(s_1663_jpg, building).
holds(s_1663_jpg, feature).
holds(s_1663_jpg, constructionsite).
holds(s_1663_jpg, door).
holds(s_1663_jpg, awning).
holds(s_1663_jpg, billboard).
holds(s_1663_jpg, porch).
holds(s_1663_jpg, tiledrooftop).
holds(s_1663_jpg, vendingmachine).
holds(s_1663_jpg, wallsign).
holds(s_1663_jpg, statue).
holds(s_1663_jpg, chimney).
holds(s_1663_jpg, pipe).
holds(s_1663_jpg, machine).
holds(s_1663_jpg, industrial).

sample(s_9465_jpg).
holds(s_9465_jpg, building).
holds(s_9465_jpg, feature).
holds(s_9465_jpg, hotel).
holds(s_9465_jpg, door).
holds(s_9465_jpg, awning).
holds(s_9465_jpg, billboard).
holds(s_9465_jpg, porch).
holds(s_9465_jpg, sign).
holds(s_9465_jpg, tiledrooftop).
holds(s_9465_jpg, statue).
holds(s_9465_jpg, chimney).
holds(s_9465_jpg, pipe).
holds(s_9465_jpg, machine).
holds(s_9465_jpg, truck).
holds(s_9465_jpg, commercial).

sample(s_13500_jpg).
holds(s_13500_jpg, building).
holds(s_13500_jpg, feature).
holds(s_13500_jpg, hotel).
holds(s_13500_jpg, door).
holds(s_13500_jpg, awning).
holds(s_13500_jpg, billboard).
holds(s_13500_jpg, porch).
holds(s_13500_jpg, sign).
holds(s_13500_jpg, tiledrooftop).
holds(s_13500_jpg, pipe).
holds(s_13500_jpg, machine).
holds(s_13500_jpg, commercial).

sample(s_12610_jpg).
holds(s_12610_jpg, building).
holds(s_12610_jpg, feature).
holds(s_12610_jpg, constructionsite).
holds(s_12610_jpg, awning).
holds(s_12610_jpg, billboard).
holds(s_12610_jpg, porch).
holds(s_12610_jpg, tiledrooftop).
holds(s_12610_jpg, wallsign).
holds(s_12610_jpg, chimney).
holds(s_12610_jpg, pipe).
holds(s_12610_jpg, machine).
holds(s_12610_jpg, industrial).

sample(s_3864_jpg).
holds(s_3864_jpg, building).
holds(s_3864_jpg, feature).
holds(s_3864_jpg, hotel).
holds(s_3864_jpg, door).
holds(s_3864_jpg, awning).
holds(s_3864_jpg, billboard).
holds(s_3864_jpg, porch).
holds(s_3864_jpg, sign).
holds(s_3864_jpg, tiledrooftop).
holds(s_3864_jpg, pipe).
holds(s_3864_jpg, machine).
holds(s_3864_jpg, commercial).

sample(s_4568_jpg).
holds(s_4568_jpg, building).
holds(s_4568_jpg, feature).
holds(s_4568_jpg, suburban).
holds(s_4568_jpg, door).
holds(s_4568_jpg, window).
holds(s_4568_jpg, awning).
holds(s_4568_jpg, table).
holds(s_4568_jpg, tiledrooftop).
holds(s_4568_jpg, vendingmachine).
holds(s_4568_jpg, wallsign).
holds(s_4568_jpg, statue).
holds(s_4568_jpg, pipe).
holds(s_4568_jpg, residential).

sample(s_12565_jpg).
holds(s_12565_jpg, building).
holds(s_12565_jpg, feature).
holds(s_12565_jpg, constructionsite).
holds(s_12565_jpg, awning).
holds(s_12565_jpg, billboard).
holds(s_12565_jpg, porch).
holds(s_12565_jpg, tiledrooftop).
holds(s_12565_jpg, wallsign).
holds(s_12565_jpg, chimney).
holds(s_12565_jpg, machine).
holds(s_12565_jpg, industrial).

sample(s_5784_jpg).
holds(s_5784_jpg, building).
holds(s_5784_jpg, feature).
holds(s_5784_jpg, hotel).
holds(s_5784_jpg, door).
holds(s_5784_jpg, awning).
holds(s_5784_jpg, porch).
holds(s_5784_jpg, tiledrooftop).
holds(s_5784_jpg, statue).
holds(s_5784_jpg, chimney).
holds(s_5784_jpg, machine).
holds(s_5784_jpg, commercial).

sample(s_4651_jpg).
holds(s_4651_jpg, building).
holds(s_4651_jpg, feature).
holds(s_4651_jpg, constructionsite).
holds(s_4651_jpg, awning).
holds(s_4651_jpg, billboard).
holds(s_4651_jpg, porch).
holds(s_4651_jpg, tiledrooftop).
holds(s_4651_jpg, wallsign).
holds(s_4651_jpg, chimney).
holds(s_4651_jpg, pipe).
holds(s_4651_jpg, machine).
holds(s_4651_jpg, industrial).

sample(s_8415_jpg).
holds(s_8415_jpg, building).
holds(s_8415_jpg, feature).
holds(s_8415_jpg, hotel).
holds(s_8415_jpg, door).
holds(s_8415_jpg, awning).
holds(s_8415_jpg, porch).
holds(s_8415_jpg, sign).
holds(s_8415_jpg, tiledrooftop).
holds(s_8415_jpg, statue).
holds(s_8415_jpg, pipe).
holds(s_8415_jpg, machine).
holds(s_8415_jpg, commercial).

sample(s_5685_jpg).
holds(s_5685_jpg, building).
holds(s_5685_jpg, feature).
holds(s_5685_jpg, hotel).
holds(s_5685_jpg, door).
holds(s_5685_jpg, awning).
holds(s_5685_jpg, billboard).
holds(s_5685_jpg, porch).
holds(s_5685_jpg, sign).
holds(s_5685_jpg, tiledrooftop).
holds(s_5685_jpg, chimney).
holds(s_5685_jpg, pipe).
holds(s_5685_jpg, machine).
holds(s_5685_jpg, commercial).

sample(s_11315_jpg).
holds(s_11315_jpg, building).
holds(s_11315_jpg, feature).
holds(s_11315_jpg, suburban).
holds(s_11315_jpg, door).
holds(s_11315_jpg, awning).
holds(s_11315_jpg, table).
holds(s_11315_jpg, vendingmachine).
holds(s_11315_jpg, wallsign).
holds(s_11315_jpg, statue).
holds(s_11315_jpg, chimney).
holds(s_11315_jpg, pipe).
holds(s_11315_jpg, truck).
holds(s_11315_jpg, car).
holds(s_11315_jpg, residential).

sample(s_15804_jpg).
holds(s_15804_jpg, building).
holds(s_15804_jpg, feature).
holds(s_15804_jpg, hotel).
holds(s_15804_jpg, door).
holds(s_15804_jpg, awning).
holds(s_15804_jpg, porch).
holds(s_15804_jpg, tiledrooftop).
holds(s_15804_jpg, statue).
holds(s_15804_jpg, chimney).
holds(s_15804_jpg, machine).
holds(s_15804_jpg, commercial).

sample(s_3945_jpg).
holds(s_3945_jpg, building).
holds(s_3945_jpg, feature).
holds(s_3945_jpg, hotel).
holds(s_3945_jpg, door).
holds(s_3945_jpg, awning).
holds(s_3945_jpg, billboard).
holds(s_3945_jpg, porch).
holds(s_3945_jpg, sign).
holds(s_3945_jpg, tiledrooftop).
holds(s_3945_jpg, statue).
holds(s_3945_jpg, chimney).
holds(s_3945_jpg, pipe).
holds(s_3945_jpg, machine).
holds(s_3945_jpg, truck).
holds(s_3945_jpg, commercial).

sample(s_14044_jpg).
holds(s_14044_jpg, building).
holds(s_14044_jpg, feature).
holds(s_14044_jpg, constructionsite).
holds(s_14044_jpg, door).
holds(s_14044_jpg, awning).
holds(s_14044_jpg, billboard).
holds(s_14044_jpg, porch).
holds(s_14044_jpg, tiledrooftop).
holds(s_14044_jpg, wallsign).
holds(s_14044_jpg, statue).
holds(s_14044_jpg, chimney).
holds(s_14044_jpg, pipe).
holds(s_14044_jpg, machine).
holds(s_14044_jpg, industrial).

sample(s_8212_jpg).
holds(s_8212_jpg, building).
holds(s_8212_jpg, feature).
holds(s_8212_jpg, constructionsite).
holds(s_8212_jpg, awning).
holds(s_8212_jpg, billboard).
holds(s_8212_jpg, porch).
holds(s_8212_jpg, tiledrooftop).
holds(s_8212_jpg, wallsign).
holds(s_8212_jpg, chimney).
holds(s_8212_jpg, pipe).
holds(s_8212_jpg, machine).
holds(s_8212_jpg, industrial).

sample(s_8674_jpg).
holds(s_8674_jpg, building).
holds(s_8674_jpg, feature).
holds(s_8674_jpg, constructionsite).
holds(s_8674_jpg, door).
holds(s_8674_jpg, awning).
holds(s_8674_jpg, billboard).
holds(s_8674_jpg, porch).
holds(s_8674_jpg, tiledrooftop).
holds(s_8674_jpg, vendingmachine).
holds(s_8674_jpg, wallsign).
holds(s_8674_jpg, chimney).
holds(s_8674_jpg, pipe).
holds(s_8674_jpg, machine).
holds(s_8674_jpg, industrial).

sample(s_3778_jpg).
holds(s_3778_jpg, building).
holds(s_3778_jpg, feature).
holds(s_3778_jpg, constructionsite).
holds(s_3778_jpg, awning).
holds(s_3778_jpg, billboard).
holds(s_3778_jpg, porch).
holds(s_3778_jpg, tiledrooftop).
holds(s_3778_jpg, wallsign).
holds(s_3778_jpg, chimney).
holds(s_3778_jpg, pipe).
holds(s_3778_jpg, machine).
holds(s_3778_jpg, industrial).

sample(s_9061_jpg).
holds(s_9061_jpg, building).
holds(s_9061_jpg, feature).
holds(s_9061_jpg, constructionsite).
holds(s_9061_jpg, awning).
holds(s_9061_jpg, billboard).
holds(s_9061_jpg, porch).
holds(s_9061_jpg, tiledrooftop).
holds(s_9061_jpg, wallsign).
holds(s_9061_jpg, chimney).
holds(s_9061_jpg, pipe).
holds(s_9061_jpg, machine).
holds(s_9061_jpg, industrial).

sample(s_11785_jpg).
holds(s_11785_jpg, building).
holds(s_11785_jpg, feature).
holds(s_11785_jpg, constructionsite).
holds(s_11785_jpg, awning).
holds(s_11785_jpg, billboard).
holds(s_11785_jpg, porch).
holds(s_11785_jpg, tiledrooftop).
holds(s_11785_jpg, vendingmachine).
holds(s_11785_jpg, wallsign).
holds(s_11785_jpg, statue).
holds(s_11785_jpg, chimney).
holds(s_11785_jpg, pipe).
holds(s_11785_jpg, machine).
holds(s_11785_jpg, industrial).

sample(s_8368_jpg).
holds(s_8368_jpg, building).
holds(s_8368_jpg, feature).
holds(s_8368_jpg, constructionsite).
holds(s_8368_jpg, door).
holds(s_8368_jpg, awning).
holds(s_8368_jpg, billboard).
holds(s_8368_jpg, porch).
holds(s_8368_jpg, tiledrooftop).
holds(s_8368_jpg, wallsign).
holds(s_8368_jpg, chimney).
holds(s_8368_jpg, pipe).
holds(s_8368_jpg, machine).
holds(s_8368_jpg, industrial).

sample(s_12609_jpg).
holds(s_12609_jpg, building).
holds(s_12609_jpg, feature).
holds(s_12609_jpg, hotel).
holds(s_12609_jpg, door).
holds(s_12609_jpg, awning).
holds(s_12609_jpg, porch).
holds(s_12609_jpg, sign).
holds(s_12609_jpg, tiledrooftop).
holds(s_12609_jpg, statue).
holds(s_12609_jpg, pipe).
holds(s_12609_jpg, machine).
holds(s_12609_jpg, commercial).

sample(s_8409_jpg).
holds(s_8409_jpg, building).
holds(s_8409_jpg, feature).
holds(s_8409_jpg, hotel).
holds(s_8409_jpg, door).
holds(s_8409_jpg, awning).
holds(s_8409_jpg, porch).
holds(s_8409_jpg, tiledrooftop).
holds(s_8409_jpg, vendingmachine).
holds(s_8409_jpg, statue).
holds(s_8409_jpg, chimney).
holds(s_8409_jpg, machine).
holds(s_8409_jpg, commercial).

sample(s_9097_jpg).
holds(s_9097_jpg, building).
holds(s_9097_jpg, feature).
holds(s_9097_jpg, constructionsite).
holds(s_9097_jpg, awning).
holds(s_9097_jpg, billboard).
holds(s_9097_jpg, porch).
holds(s_9097_jpg, tiledrooftop).
holds(s_9097_jpg, wallsign).
holds(s_9097_jpg, chimney).
holds(s_9097_jpg, pipe).
holds(s_9097_jpg, machine).
holds(s_9097_jpg, industrial).

sample(s_3679_jpg).
holds(s_3679_jpg, building).
holds(s_3679_jpg, feature).
holds(s_3679_jpg, constructionsite).
holds(s_3679_jpg, awning).
holds(s_3679_jpg, billboard).
holds(s_3679_jpg, porch).
holds(s_3679_jpg, tiledrooftop).
holds(s_3679_jpg, chimney).
holds(s_3679_jpg, machine).
holds(s_3679_jpg, industrial).

sample(s_4459_jpg).
holds(s_4459_jpg, building).
holds(s_4459_jpg, feature).
holds(s_4459_jpg, constructionsite).
holds(s_4459_jpg, door).
holds(s_4459_jpg, awning).
holds(s_4459_jpg, billboard).
holds(s_4459_jpg, porch).
holds(s_4459_jpg, tiledrooftop).
holds(s_4459_jpg, vendingmachine).
holds(s_4459_jpg, wallsign).
holds(s_4459_jpg, statue).
holds(s_4459_jpg, chimney).
holds(s_4459_jpg, pipe).
holds(s_4459_jpg, machine).
holds(s_4459_jpg, industrial).

sample(s_7246_jpg).
holds(s_7246_jpg, building).
holds(s_7246_jpg, feature).
holds(s_7246_jpg, constructionsite).
holds(s_7246_jpg, awning).
holds(s_7246_jpg, billboard).
holds(s_7246_jpg, porch).
holds(s_7246_jpg, tiledrooftop).
holds(s_7246_jpg, vendingmachine).
holds(s_7246_jpg, wallsign).
holds(s_7246_jpg, chimney).
holds(s_7246_jpg, pipe).
holds(s_7246_jpg, machine).
holds(s_7246_jpg, industrial).

sample(s_1040_jpg).
holds(s_1040_jpg, building).
holds(s_1040_jpg, feature).
holds(s_1040_jpg, suburban).
holds(s_1040_jpg, door).
holds(s_1040_jpg, window).
holds(s_1040_jpg, awning).
holds(s_1040_jpg, porch).
holds(s_1040_jpg, tiledrooftop).
holds(s_1040_jpg, vendingmachine).
holds(s_1040_jpg, statue).
holds(s_1040_jpg, residential).

sample(s_11328_jpg).
holds(s_11328_jpg, building).
holds(s_11328_jpg, feature).
holds(s_11328_jpg, hotel).
holds(s_11328_jpg, door).
holds(s_11328_jpg, awning).
holds(s_11328_jpg, billboard).
holds(s_11328_jpg, porch).
holds(s_11328_jpg, sign).
holds(s_11328_jpg, tiledrooftop).
holds(s_11328_jpg, statue).
holds(s_11328_jpg, chimney).
holds(s_11328_jpg, pipe).
holds(s_11328_jpg, machine).
holds(s_11328_jpg, truck).
holds(s_11328_jpg, commercial).

sample(s_4809_jpg).
holds(s_4809_jpg, building).
holds(s_4809_jpg, feature).
holds(s_4809_jpg, hotel).
holds(s_4809_jpg, door).
holds(s_4809_jpg, awning).
holds(s_4809_jpg, billboard).
holds(s_4809_jpg, porch).
holds(s_4809_jpg, sign).
holds(s_4809_jpg, tiledrooftop).
holds(s_4809_jpg, chimney).
holds(s_4809_jpg, pipe).
holds(s_4809_jpg, machine).
holds(s_4809_jpg, commercial).

sample(s_639_jpg).
holds(s_639_jpg, building).
holds(s_639_jpg, feature).
holds(s_639_jpg, hotel).
holds(s_639_jpg, door).
holds(s_639_jpg, awning).
holds(s_639_jpg, billboard).
holds(s_639_jpg, porch).
holds(s_639_jpg, tiledrooftop).
holds(s_639_jpg, statue).
holds(s_639_jpg, chimney).
holds(s_639_jpg, pipe).
holds(s_639_jpg, machine).
holds(s_639_jpg, truck).
holds(s_639_jpg, commercial).

sample(s_5104_jpg).
holds(s_5104_jpg, building).
holds(s_5104_jpg, feature).
holds(s_5104_jpg, constructionsite).
holds(s_5104_jpg, awning).
holds(s_5104_jpg, billboard).
holds(s_5104_jpg, porch).
holds(s_5104_jpg, tiledrooftop).
holds(s_5104_jpg, wallsign).
holds(s_5104_jpg, chimney).
holds(s_5104_jpg, pipe).
holds(s_5104_jpg, machine).
holds(s_5104_jpg, industrial).

sample(s_2229_jpg).
holds(s_2229_jpg, building).
holds(s_2229_jpg, feature).
holds(s_2229_jpg, hotel).
holds(s_2229_jpg, door).
holds(s_2229_jpg, awning).
holds(s_2229_jpg, billboard).
holds(s_2229_jpg, porch).
holds(s_2229_jpg, sign).
holds(s_2229_jpg, tiledrooftop).
holds(s_2229_jpg, pipe).
holds(s_2229_jpg, machine).
holds(s_2229_jpg, commercial).

sample(s_2853_jpg).
holds(s_2853_jpg, building).
holds(s_2853_jpg, feature).
holds(s_2853_jpg, hotel).
holds(s_2853_jpg, door).
holds(s_2853_jpg, awning).
holds(s_2853_jpg, billboard).
holds(s_2853_jpg, porch).
holds(s_2853_jpg, sign).
holds(s_2853_jpg, tiledrooftop).
holds(s_2853_jpg, chimney).
holds(s_2853_jpg, pipe).
holds(s_2853_jpg, machine).
holds(s_2853_jpg, commercial).

sample(s_1063_jpg).
holds(s_1063_jpg, building).
holds(s_1063_jpg, feature).
holds(s_1063_jpg, constructionsite).
holds(s_1063_jpg, awning).
holds(s_1063_jpg, billboard).
holds(s_1063_jpg, porch).
holds(s_1063_jpg, tiledrooftop).
holds(s_1063_jpg, wallsign).
holds(s_1063_jpg, chimney).
holds(s_1063_jpg, pipe).
holds(s_1063_jpg, machine).
holds(s_1063_jpg, industrial).

sample(s_15895_jpg).
holds(s_15895_jpg, building).
holds(s_15895_jpg, feature).
holds(s_15895_jpg, constructionsite).
holds(s_15895_jpg, door).
holds(s_15895_jpg, awning).
holds(s_15895_jpg, porch).
holds(s_15895_jpg, tiledrooftop).
holds(s_15895_jpg, wallsign).
holds(s_15895_jpg, statue).
holds(s_15895_jpg, chimney).
holds(s_15895_jpg, pipe).
holds(s_15895_jpg, machine).
holds(s_15895_jpg, industrial).

sample(s_3041_jpg).
holds(s_3041_jpg, building).
holds(s_3041_jpg, feature).
holds(s_3041_jpg, suburban).
holds(s_3041_jpg, door).
holds(s_3041_jpg, awning).
holds(s_3041_jpg, table).
holds(s_3041_jpg, vendingmachine).
holds(s_3041_jpg, wallsign).
holds(s_3041_jpg, statue).
holds(s_3041_jpg, chimney).
holds(s_3041_jpg, pipe).
holds(s_3041_jpg, truck).
holds(s_3041_jpg, car).
holds(s_3041_jpg, residential).

sample(s_4435_jpg).
holds(s_4435_jpg, building).
holds(s_4435_jpg, feature).
holds(s_4435_jpg, constructionsite).
holds(s_4435_jpg, awning).
holds(s_4435_jpg, billboard).
holds(s_4435_jpg, porch).
holds(s_4435_jpg, tiledrooftop).
holds(s_4435_jpg, chimney).
holds(s_4435_jpg, pipe).
holds(s_4435_jpg, machine).
holds(s_4435_jpg, industrial).

sample(s_13449_jpg).
holds(s_13449_jpg, building).
holds(s_13449_jpg, feature).
holds(s_13449_jpg, hotel).
holds(s_13449_jpg, door).
holds(s_13449_jpg, awning).
holds(s_13449_jpg, billboard).
holds(s_13449_jpg, porch).
holds(s_13449_jpg, tiledrooftop).
holds(s_13449_jpg, statue).
holds(s_13449_jpg, chimney).
holds(s_13449_jpg, machine).
holds(s_13449_jpg, commercial).

sample(s_6705_jpg).
holds(s_6705_jpg, building).
holds(s_6705_jpg, feature).
holds(s_6705_jpg, hotel).
holds(s_6705_jpg, door).
holds(s_6705_jpg, awning).
holds(s_6705_jpg, billboard).
holds(s_6705_jpg, porch).
holds(s_6705_jpg, sign).
holds(s_6705_jpg, tiledrooftop).
holds(s_6705_jpg, pipe).
holds(s_6705_jpg, machine).
holds(s_6705_jpg, commercial).

sample(s_8173_jpg).
holds(s_8173_jpg, building).
holds(s_8173_jpg, feature).
holds(s_8173_jpg, constructionsite).
holds(s_8173_jpg, awning).
holds(s_8173_jpg, billboard).
holds(s_8173_jpg, porch).
holds(s_8173_jpg, tiledrooftop).
holds(s_8173_jpg, wallsign).
holds(s_8173_jpg, chimney).
holds(s_8173_jpg, pipe).
holds(s_8173_jpg, machine).
holds(s_8173_jpg, industrial).

sample(s_13661_jpg).
holds(s_13661_jpg, building).
holds(s_13661_jpg, feature).
holds(s_13661_jpg, suburban).
holds(s_13661_jpg, door).
holds(s_13661_jpg, window).
holds(s_13661_jpg, awning).
holds(s_13661_jpg, porch).
holds(s_13661_jpg, tiledrooftop).
holds(s_13661_jpg, vendingmachine).
holds(s_13661_jpg, wallsign).
holds(s_13661_jpg, statue).
holds(s_13661_jpg, residential).

sample(s_12031_jpg).
holds(s_12031_jpg, building).
holds(s_12031_jpg, feature).
holds(s_12031_jpg, constructionsite).
holds(s_12031_jpg, awning).
holds(s_12031_jpg, billboard).
holds(s_12031_jpg, porch).
holds(s_12031_jpg, tiledrooftop).
holds(s_12031_jpg, vendingmachine).
holds(s_12031_jpg, wallsign).
holds(s_12031_jpg, chimney).
holds(s_12031_jpg, pipe).
holds(s_12031_jpg, machine).
holds(s_12031_jpg, industrial).

sample(s_3890_jpg).
holds(s_3890_jpg, building).
holds(s_3890_jpg, feature).
holds(s_3890_jpg, suburban).
holds(s_3890_jpg, door).
holds(s_3890_jpg, window).
holds(s_3890_jpg, awning).
holds(s_3890_jpg, porch).
holds(s_3890_jpg, tiledrooftop).
holds(s_3890_jpg, vendingmachine).
holds(s_3890_jpg, statue).
holds(s_3890_jpg, residential).

sample(s_10085_jpg).
holds(s_10085_jpg, building).
holds(s_10085_jpg, feature).
holds(s_10085_jpg, suburban).
holds(s_10085_jpg, door).
holds(s_10085_jpg, awning).
holds(s_10085_jpg, table).
holds(s_10085_jpg, vendingmachine).
holds(s_10085_jpg, wallsign).
holds(s_10085_jpg, statue).
holds(s_10085_jpg, chimney).
holds(s_10085_jpg, pipe).
holds(s_10085_jpg, truck).
holds(s_10085_jpg, car).
holds(s_10085_jpg, residential).

sample(s_15892_jpg).
holds(s_15892_jpg, building).
holds(s_15892_jpg, feature).
holds(s_15892_jpg, constructionsite).
holds(s_15892_jpg, awning).
holds(s_15892_jpg, billboard).
holds(s_15892_jpg, porch).
holds(s_15892_jpg, tiledrooftop).
holds(s_15892_jpg, wallsign).
holds(s_15892_jpg, chimney).
holds(s_15892_jpg, pipe).
holds(s_15892_jpg, machine).
holds(s_15892_jpg, industrial).

sample(s_8384_jpg).
holds(s_8384_jpg, building).
holds(s_8384_jpg, feature).
holds(s_8384_jpg, suburban).
holds(s_8384_jpg, door).
holds(s_8384_jpg, window).
holds(s_8384_jpg, awning).
holds(s_8384_jpg, table).
holds(s_8384_jpg, tiledrooftop).
holds(s_8384_jpg, vendingmachine).
holds(s_8384_jpg, wallsign).
holds(s_8384_jpg, statue).
holds(s_8384_jpg, pipe).
holds(s_8384_jpg, car).
holds(s_8384_jpg, residential).

sample(s_9228_jpg).
holds(s_9228_jpg, building).
holds(s_9228_jpg, feature).
holds(s_9228_jpg, hotel).
holds(s_9228_jpg, door).
holds(s_9228_jpg, awning).
holds(s_9228_jpg, billboard).
holds(s_9228_jpg, porch).
holds(s_9228_jpg, sign).
holds(s_9228_jpg, tiledrooftop).
holds(s_9228_jpg, pipe).
holds(s_9228_jpg, machine).
holds(s_9228_jpg, commercial).

sample(s_4432_jpg).
holds(s_4432_jpg, building).
holds(s_4432_jpg, feature).
holds(s_4432_jpg, constructionsite).
holds(s_4432_jpg, door).
holds(s_4432_jpg, awning).
holds(s_4432_jpg, billboard).
holds(s_4432_jpg, porch).
holds(s_4432_jpg, tiledrooftop).
holds(s_4432_jpg, vendingmachine).
holds(s_4432_jpg, wallsign).
holds(s_4432_jpg, chimney).
holds(s_4432_jpg, pipe).
holds(s_4432_jpg, machine).
holds(s_4432_jpg, industrial).

sample(s_13403_jpg).
holds(s_13403_jpg, building).
holds(s_13403_jpg, feature).
holds(s_13403_jpg, suburban).
holds(s_13403_jpg, door).
holds(s_13403_jpg, window).
holds(s_13403_jpg, awning).
holds(s_13403_jpg, porch).
holds(s_13403_jpg, tiledrooftop).
holds(s_13403_jpg, vendingmachine).
holds(s_13403_jpg, statue).
holds(s_13403_jpg, residential).

sample(s_8868_jpg).
holds(s_8868_jpg, building).
holds(s_8868_jpg, feature).
holds(s_8868_jpg, hotel).
holds(s_8868_jpg, door).
holds(s_8868_jpg, awning).
holds(s_8868_jpg, billboard).
holds(s_8868_jpg, porch).
holds(s_8868_jpg, sign).
holds(s_8868_jpg, tiledrooftop).
holds(s_8868_jpg, chimney).
holds(s_8868_jpg, pipe).
holds(s_8868_jpg, machine).
holds(s_8868_jpg, commercial).

sample(s_8105_jpg).
holds(s_8105_jpg, building).
holds(s_8105_jpg, feature).
holds(s_8105_jpg, suburban).
holds(s_8105_jpg, door).
holds(s_8105_jpg, window).
holds(s_8105_jpg, awning).
holds(s_8105_jpg, porch).
holds(s_8105_jpg, table).
holds(s_8105_jpg, tiledrooftop).
holds(s_8105_jpg, vendingmachine).
holds(s_8105_jpg, wallsign).
holds(s_8105_jpg, statue).
holds(s_8105_jpg, residential).

sample(s_2279_jpg).
holds(s_2279_jpg, building).
holds(s_2279_jpg, feature).
holds(s_2279_jpg, suburban).
holds(s_2279_jpg, door).
holds(s_2279_jpg, window).
holds(s_2279_jpg, awning).
holds(s_2279_jpg, table).
holds(s_2279_jpg, tiledrooftop).
holds(s_2279_jpg, vendingmachine).
holds(s_2279_jpg, wallsign).
holds(s_2279_jpg, statue).
holds(s_2279_jpg, pipe).
holds(s_2279_jpg, car).
holds(s_2279_jpg, residential).

sample(s_4976_jpg).
holds(s_4976_jpg, building).
holds(s_4976_jpg, feature).
holds(s_4976_jpg, suburban).
holds(s_4976_jpg, door).
holds(s_4976_jpg, awning).
holds(s_4976_jpg, table).
holds(s_4976_jpg, vendingmachine).
holds(s_4976_jpg, wallsign).
holds(s_4976_jpg, statue).
holds(s_4976_jpg, chimney).
holds(s_4976_jpg, pipe).
holds(s_4976_jpg, truck).
holds(s_4976_jpg, car).
holds(s_4976_jpg, residential).

sample(s_12749_jpg).
holds(s_12749_jpg, building).
holds(s_12749_jpg, feature).
holds(s_12749_jpg, suburban).
holds(s_12749_jpg, miscresidential).
holds(s_12749_jpg, door).
holds(s_12749_jpg, awning).
holds(s_12749_jpg, table).
holds(s_12749_jpg, vendingmachine).
holds(s_12749_jpg, wallsign).
holds(s_12749_jpg, statue).
holds(s_12749_jpg, pipe).
holds(s_12749_jpg, truck).
holds(s_12749_jpg, car).
holds(s_12749_jpg, residential).

sample(s_7436_jpg).
holds(s_7436_jpg, building).
holds(s_7436_jpg, feature).
holds(s_7436_jpg, suburban).
holds(s_7436_jpg, door).
holds(s_7436_jpg, window).
holds(s_7436_jpg, awning).
holds(s_7436_jpg, porch).
holds(s_7436_jpg, table).
holds(s_7436_jpg, tiledrooftop).
holds(s_7436_jpg, vendingmachine).
holds(s_7436_jpg, wallsign).
holds(s_7436_jpg, statue).
holds(s_7436_jpg, pipe).
holds(s_7436_jpg, truck).
holds(s_7436_jpg, car).
holds(s_7436_jpg, residential).

sample(s_15029_jpg).
holds(s_15029_jpg, building).
holds(s_15029_jpg, feature).
holds(s_15029_jpg, suburban).
holds(s_15029_jpg, door).
holds(s_15029_jpg, window).
holds(s_15029_jpg, awning).
holds(s_15029_jpg, table).
holds(s_15029_jpg, tiledrooftop).
holds(s_15029_jpg, vendingmachine).
holds(s_15029_jpg, wallsign).
holds(s_15029_jpg, statue).
holds(s_15029_jpg, pipe).
holds(s_15029_jpg, car).
holds(s_15029_jpg, residential).

sample(s_14917_jpg).
holds(s_14917_jpg, building).
holds(s_14917_jpg, feature).
holds(s_14917_jpg, constructionsite).
holds(s_14917_jpg, awning).
holds(s_14917_jpg, billboard).
holds(s_14917_jpg, porch).
holds(s_14917_jpg, tiledrooftop).
holds(s_14917_jpg, chimney).
holds(s_14917_jpg, machine).
holds(s_14917_jpg, industrial).

sample(s_331_jpg).
holds(s_331_jpg, building).
holds(s_331_jpg, feature).
holds(s_331_jpg, constructionsite).
holds(s_331_jpg, awning).
holds(s_331_jpg, billboard).
holds(s_331_jpg, porch).
holds(s_331_jpg, tiledrooftop).
holds(s_331_jpg, wallsign).
holds(s_331_jpg, chimney).
holds(s_331_jpg, pipe).
holds(s_331_jpg, machine).
holds(s_331_jpg, industrial).

sample(s_3724_jpg).
holds(s_3724_jpg, building).
holds(s_3724_jpg, feature).
holds(s_3724_jpg, constructionsite).
holds(s_3724_jpg, awning).
holds(s_3724_jpg, billboard).
holds(s_3724_jpg, porch).
holds(s_3724_jpg, tiledrooftop).
holds(s_3724_jpg, wallsign).
holds(s_3724_jpg, statue).
holds(s_3724_jpg, chimney).
holds(s_3724_jpg, pipe).
holds(s_3724_jpg, machine).
holds(s_3724_jpg, industrial).

sample(s_7904_jpg).
holds(s_7904_jpg, building).
holds(s_7904_jpg, feature).
holds(s_7904_jpg, suburban).
holds(s_7904_jpg, door).
holds(s_7904_jpg, awning).
holds(s_7904_jpg, table).
holds(s_7904_jpg, vendingmachine).
holds(s_7904_jpg, wallsign).
holds(s_7904_jpg, statue).
holds(s_7904_jpg, chimney).
holds(s_7904_jpg, pipe).
holds(s_7904_jpg, truck).
holds(s_7904_jpg, car).
holds(s_7904_jpg, residential).

sample(s_15945_jpg).
holds(s_15945_jpg, building).
holds(s_15945_jpg, feature).
holds(s_15945_jpg, hotel).
holds(s_15945_jpg, door).
holds(s_15945_jpg, awning).
holds(s_15945_jpg, porch).
holds(s_15945_jpg, tiledrooftop).
holds(s_15945_jpg, statue).
holds(s_15945_jpg, chimney).
holds(s_15945_jpg, machine).
holds(s_15945_jpg, commercial).

sample(s_4304_jpg).
holds(s_4304_jpg, building).
holds(s_4304_jpg, feature).
holds(s_4304_jpg, suburban).
holds(s_4304_jpg, door).
holds(s_4304_jpg, window).
holds(s_4304_jpg, awning).
holds(s_4304_jpg, porch).
holds(s_4304_jpg, table).
holds(s_4304_jpg, tiledrooftop).
holds(s_4304_jpg, vendingmachine).
holds(s_4304_jpg, wallsign).
holds(s_4304_jpg, statue).
holds(s_4304_jpg, pipe).
holds(s_4304_jpg, truck).
holds(s_4304_jpg, car).
holds(s_4304_jpg, residential).

sample(s_9268_jpg).
holds(s_9268_jpg, building).
holds(s_9268_jpg, feature).
holds(s_9268_jpg, constructionsite).
holds(s_9268_jpg, awning).
holds(s_9268_jpg, billboard).
holds(s_9268_jpg, porch).
holds(s_9268_jpg, tiledrooftop).
holds(s_9268_jpg, wallsign).
holds(s_9268_jpg, chimney).
holds(s_9268_jpg, machine).
holds(s_9268_jpg, industrial).

sample(s_4746_jpg).
holds(s_4746_jpg, building).
holds(s_4746_jpg, feature).
holds(s_4746_jpg, hotel).
holds(s_4746_jpg, door).
holds(s_4746_jpg, awning).
holds(s_4746_jpg, billboard).
holds(s_4746_jpg, porch).
holds(s_4746_jpg, sign).
holds(s_4746_jpg, tiledrooftop).
holds(s_4746_jpg, chimney).
holds(s_4746_jpg, pipe).
holds(s_4746_jpg, machine).
holds(s_4746_jpg, truck).
holds(s_4746_jpg, commercial).

sample(s_4854_jpg).
holds(s_4854_jpg, building).
holds(s_4854_jpg, feature).
holds(s_4854_jpg, hotel).
holds(s_4854_jpg, door).
holds(s_4854_jpg, awning).
holds(s_4854_jpg, billboard).
holds(s_4854_jpg, porch).
holds(s_4854_jpg, sign).
holds(s_4854_jpg, tiledrooftop).
holds(s_4854_jpg, chimney).
holds(s_4854_jpg, pipe).
holds(s_4854_jpg, machine).
holds(s_4854_jpg, commercial).

sample(s_5534_jpg).
holds(s_5534_jpg, building).
holds(s_5534_jpg, feature).
holds(s_5534_jpg, suburban).
holds(s_5534_jpg, door).
holds(s_5534_jpg, window).
holds(s_5534_jpg, awning).
holds(s_5534_jpg, porch).
holds(s_5534_jpg, tiledrooftop).
holds(s_5534_jpg, vendingmachine).
holds(s_5534_jpg, wallsign).
holds(s_5534_jpg, statue).
holds(s_5534_jpg, residential).

sample(s_12801_jpg).
holds(s_12801_jpg, building).
holds(s_12801_jpg, feature).
holds(s_12801_jpg, hotel).
holds(s_12801_jpg, door).
holds(s_12801_jpg, awning).
holds(s_12801_jpg, porch).
holds(s_12801_jpg, tiledrooftop).
holds(s_12801_jpg, statue).
holds(s_12801_jpg, chimney).
holds(s_12801_jpg, machine).
holds(s_12801_jpg, commercial).

sample(s_275_jpg).
holds(s_275_jpg, building).
holds(s_275_jpg, feature).
holds(s_275_jpg, suburban).
holds(s_275_jpg, door).
holds(s_275_jpg, window).
holds(s_275_jpg, awning).
holds(s_275_jpg, porch).
holds(s_275_jpg, tiledrooftop).
holds(s_275_jpg, vendingmachine).
holds(s_275_jpg, wallsign).
holds(s_275_jpg, statue).
holds(s_275_jpg, pipe).
holds(s_275_jpg, truck).
holds(s_275_jpg, car).
holds(s_275_jpg, residential).

sample(s_11438_jpg).
holds(s_11438_jpg, building).
holds(s_11438_jpg, feature).
holds(s_11438_jpg, suburban).
holds(s_11438_jpg, door).
holds(s_11438_jpg, window).
holds(s_11438_jpg, awning).
holds(s_11438_jpg, porch).
holds(s_11438_jpg, table).
holds(s_11438_jpg, tiledrooftop).
holds(s_11438_jpg, vendingmachine).
holds(s_11438_jpg, wallsign).
holds(s_11438_jpg, statue).
holds(s_11438_jpg, pipe).
holds(s_11438_jpg, truck).
holds(s_11438_jpg, car).
holds(s_11438_jpg, residential).

sample(s_362_jpg).
holds(s_362_jpg, building).
holds(s_362_jpg, feature).
holds(s_362_jpg, suburban).
holds(s_362_jpg, door).
holds(s_362_jpg, window).
holds(s_362_jpg, awning).
holds(s_362_jpg, porch).
holds(s_362_jpg, tiledrooftop).
holds(s_362_jpg, vendingmachine).
holds(s_362_jpg, wallsign).
holds(s_362_jpg, statue).
holds(s_362_jpg, residential).

sample(s_6197_jpg).
holds(s_6197_jpg, building).
holds(s_6197_jpg, feature).
holds(s_6197_jpg, suburban).
holds(s_6197_jpg, door).
holds(s_6197_jpg, window).
holds(s_6197_jpg, awning).
holds(s_6197_jpg, porch).
holds(s_6197_jpg, tiledrooftop).
holds(s_6197_jpg, vendingmachine).
holds(s_6197_jpg, wallsign).
holds(s_6197_jpg, statue).
holds(s_6197_jpg, pipe).
holds(s_6197_jpg, residential).

sample(s_5824_jpg).
holds(s_5824_jpg, building).
holds(s_5824_jpg, feature).
holds(s_5824_jpg, constructionsite).
holds(s_5824_jpg, awning).
holds(s_5824_jpg, billboard).
holds(s_5824_jpg, porch).
holds(s_5824_jpg, tiledrooftop).
holds(s_5824_jpg, wallsign).
holds(s_5824_jpg, chimney).
holds(s_5824_jpg, pipe).
holds(s_5824_jpg, machine).
holds(s_5824_jpg, industrial).

sample(s_30_jpg).
holds(s_30_jpg, building).
holds(s_30_jpg, feature).
holds(s_30_jpg, hotel).
holds(s_30_jpg, door).
holds(s_30_jpg, awning).
holds(s_30_jpg, porch).
holds(s_30_jpg, tiledrooftop).
holds(s_30_jpg, statue).
holds(s_30_jpg, chimney).
holds(s_30_jpg, machine).
holds(s_30_jpg, commercial).

sample(s_7881_jpg).
holds(s_7881_jpg, building).
holds(s_7881_jpg, feature).
holds(s_7881_jpg, hotel).
holds(s_7881_jpg, door).
holds(s_7881_jpg, awning).
holds(s_7881_jpg, porch).
holds(s_7881_jpg, tiledrooftop).
holds(s_7881_jpg, statue).
holds(s_7881_jpg, chimney).
holds(s_7881_jpg, pipe).
holds(s_7881_jpg, machine).
holds(s_7881_jpg, commercial).

sample(s_11040_jpg).
holds(s_11040_jpg, building).
holds(s_11040_jpg, feature).
holds(s_11040_jpg, hotel).
holds(s_11040_jpg, door).
holds(s_11040_jpg, awning).
holds(s_11040_jpg, porch).
holds(s_11040_jpg, tiledrooftop).
holds(s_11040_jpg, statue).
holds(s_11040_jpg, chimney).
holds(s_11040_jpg, machine).
holds(s_11040_jpg, commercial).

sample(s_9576_jpg).
holds(s_9576_jpg, building).
holds(s_9576_jpg, feature).
holds(s_9576_jpg, hotel).
holds(s_9576_jpg, door).
holds(s_9576_jpg, awning).
holds(s_9576_jpg, billboard).
holds(s_9576_jpg, porch).
holds(s_9576_jpg, sign).
holds(s_9576_jpg, tiledrooftop).
holds(s_9576_jpg, statue).
holds(s_9576_jpg, chimney).
holds(s_9576_jpg, pipe).
holds(s_9576_jpg, machine).
holds(s_9576_jpg, commercial).

sample(s_6669_jpg).
holds(s_6669_jpg, building).
holds(s_6669_jpg, feature).
holds(s_6669_jpg, hotel).
holds(s_6669_jpg, door).
holds(s_6669_jpg, awning).
holds(s_6669_jpg, billboard).
holds(s_6669_jpg, porch).
holds(s_6669_jpg, tiledrooftop).
holds(s_6669_jpg, statue).
holds(s_6669_jpg, chimney).
holds(s_6669_jpg, pipe).
holds(s_6669_jpg, machine).
holds(s_6669_jpg, commercial).

sample(s_14320_jpg).
holds(s_14320_jpg, building).
holds(s_14320_jpg, feature).
holds(s_14320_jpg, constructionsite).
holds(s_14320_jpg, door).
holds(s_14320_jpg, awning).
holds(s_14320_jpg, billboard).
holds(s_14320_jpg, porch).
holds(s_14320_jpg, tiledrooftop).
holds(s_14320_jpg, wallsign).
holds(s_14320_jpg, chimney).
holds(s_14320_jpg, pipe).
holds(s_14320_jpg, machine).
holds(s_14320_jpg, industrial).

sample(s_1643_jpg).
holds(s_1643_jpg, building).
holds(s_1643_jpg, feature).
holds(s_1643_jpg, suburban).
holds(s_1643_jpg, door).
holds(s_1643_jpg, window).
holds(s_1643_jpg, awning).
holds(s_1643_jpg, porch).
holds(s_1643_jpg, table).
holds(s_1643_jpg, tiledrooftop).
holds(s_1643_jpg, vendingmachine).
holds(s_1643_jpg, wallsign).
holds(s_1643_jpg, statue).
holds(s_1643_jpg, pipe).
holds(s_1643_jpg, residential).

sample(s_7622_jpg).
holds(s_7622_jpg, building).
holds(s_7622_jpg, feature).
holds(s_7622_jpg, suburban).
holds(s_7622_jpg, door).
holds(s_7622_jpg, window).
holds(s_7622_jpg, awning).
holds(s_7622_jpg, table).
holds(s_7622_jpg, tiledrooftop).
holds(s_7622_jpg, vendingmachine).
holds(s_7622_jpg, wallsign).
holds(s_7622_jpg, statue).
holds(s_7622_jpg, pipe).
holds(s_7622_jpg, residential).

sample(s_13337_jpg).
holds(s_13337_jpg, building).
holds(s_13337_jpg, feature).
holds(s_13337_jpg, suburban).
holds(s_13337_jpg, door).
holds(s_13337_jpg, window).
holds(s_13337_jpg, awning).
holds(s_13337_jpg, porch).
holds(s_13337_jpg, tiledrooftop).
holds(s_13337_jpg, vendingmachine).
holds(s_13337_jpg, wallsign).
holds(s_13337_jpg, statue).
holds(s_13337_jpg, pipe).
holds(s_13337_jpg, residential).

sample(s_1714_jpg).
holds(s_1714_jpg, building).
holds(s_1714_jpg, feature).
holds(s_1714_jpg, constructionsite).
holds(s_1714_jpg, awning).
holds(s_1714_jpg, billboard).
holds(s_1714_jpg, porch).
holds(s_1714_jpg, tiledrooftop).
holds(s_1714_jpg, vendingmachine).
holds(s_1714_jpg, wallsign).
holds(s_1714_jpg, chimney).
holds(s_1714_jpg, pipe).
holds(s_1714_jpg, machine).
holds(s_1714_jpg, industrial).

sample(s_10463_jpg).
holds(s_10463_jpg, building).
holds(s_10463_jpg, feature).
holds(s_10463_jpg, suburban).
holds(s_10463_jpg, door).
holds(s_10463_jpg, window).
holds(s_10463_jpg, awning).
holds(s_10463_jpg, table).
holds(s_10463_jpg, tiledrooftop).
holds(s_10463_jpg, vendingmachine).
holds(s_10463_jpg, wallsign).
holds(s_10463_jpg, statue).
holds(s_10463_jpg, pipe).
holds(s_10463_jpg, truck).
holds(s_10463_jpg, car).
holds(s_10463_jpg, residential).

sample(s_1850_jpg).
holds(s_1850_jpg, building).
holds(s_1850_jpg, feature).
holds(s_1850_jpg, suburban).
holds(s_1850_jpg, door).
holds(s_1850_jpg, window).
holds(s_1850_jpg, awning).
holds(s_1850_jpg, porch).
holds(s_1850_jpg, table).
holds(s_1850_jpg, tiledrooftop).
holds(s_1850_jpg, vendingmachine).
holds(s_1850_jpg, wallsign).
holds(s_1850_jpg, statue).
holds(s_1850_jpg, pipe).
holds(s_1850_jpg, truck).
holds(s_1850_jpg, car).
holds(s_1850_jpg, residential).

sample(s_6899_jpg).
holds(s_6899_jpg, building).
holds(s_6899_jpg, feature).
holds(s_6899_jpg, suburban).
holds(s_6899_jpg, door).
holds(s_6899_jpg, window).
holds(s_6899_jpg, awning).
holds(s_6899_jpg, porch).
holds(s_6899_jpg, tiledrooftop).
holds(s_6899_jpg, vendingmachine).
holds(s_6899_jpg, wallsign).
holds(s_6899_jpg, statue).
holds(s_6899_jpg, pipe).
holds(s_6899_jpg, car).
holds(s_6899_jpg, residential).

sample(s_15630_jpg).
holds(s_15630_jpg, building).
holds(s_15630_jpg, feature).
holds(s_15630_jpg, hotel).
holds(s_15630_jpg, door).
holds(s_15630_jpg, awning).
holds(s_15630_jpg, billboard).
holds(s_15630_jpg, porch).
holds(s_15630_jpg, sign).
holds(s_15630_jpg, tiledrooftop).
holds(s_15630_jpg, statue).
holds(s_15630_jpg, chimney).
holds(s_15630_jpg, pipe).
holds(s_15630_jpg, machine).
holds(s_15630_jpg, truck).
holds(s_15630_jpg, commercial).

sample(s_12766_jpg).
holds(s_12766_jpg, building).
holds(s_12766_jpg, feature).
holds(s_12766_jpg, constructionsite).
holds(s_12766_jpg, awning).
holds(s_12766_jpg, billboard).
holds(s_12766_jpg, porch).
holds(s_12766_jpg, tiledrooftop).
holds(s_12766_jpg, vendingmachine).
holds(s_12766_jpg, wallsign).
holds(s_12766_jpg, chimney).
holds(s_12766_jpg, pipe).
holds(s_12766_jpg, machine).
holds(s_12766_jpg, industrial).

sample(s_9001_jpg).
holds(s_9001_jpg, building).
holds(s_9001_jpg, feature).
holds(s_9001_jpg, constructionsite).
holds(s_9001_jpg, awning).
holds(s_9001_jpg, billboard).
holds(s_9001_jpg, porch).
holds(s_9001_jpg, tiledrooftop).
holds(s_9001_jpg, wallsign).
holds(s_9001_jpg, chimney).
holds(s_9001_jpg, machine).
holds(s_9001_jpg, industrial).

sample(s_15229_jpg).
holds(s_15229_jpg, building).
holds(s_15229_jpg, feature).
holds(s_15229_jpg, constructionsite).
holds(s_15229_jpg, awning).
holds(s_15229_jpg, billboard).
holds(s_15229_jpg, porch).
holds(s_15229_jpg, tiledrooftop).
holds(s_15229_jpg, wallsign).
holds(s_15229_jpg, chimney).
holds(s_15229_jpg, pipe).
holds(s_15229_jpg, machine).
holds(s_15229_jpg, industrial).

sample(s_2742_jpg).
holds(s_2742_jpg, building).
holds(s_2742_jpg, feature).
holds(s_2742_jpg, hotel).
holds(s_2742_jpg, door).
holds(s_2742_jpg, awning).
holds(s_2742_jpg, billboard).
holds(s_2742_jpg, porch).
holds(s_2742_jpg, sign).
holds(s_2742_jpg, tiledrooftop).
holds(s_2742_jpg, chimney).
holds(s_2742_jpg, pipe).
holds(s_2742_jpg, machine).
holds(s_2742_jpg, commercial).

sample(s_13251_jpg).
holds(s_13251_jpg, building).
holds(s_13251_jpg, feature).
holds(s_13251_jpg, hotel).
holds(s_13251_jpg, door).
holds(s_13251_jpg, awning).
holds(s_13251_jpg, billboard).
holds(s_13251_jpg, porch).
holds(s_13251_jpg, sign).
holds(s_13251_jpg, tiledrooftop).
holds(s_13251_jpg, pipe).
holds(s_13251_jpg, machine).
holds(s_13251_jpg, commercial).

sample(s_11383_jpg).
holds(s_11383_jpg, building).
holds(s_11383_jpg, feature).
holds(s_11383_jpg, constructionsite).
holds(s_11383_jpg, awning).
holds(s_11383_jpg, billboard).
holds(s_11383_jpg, porch).
holds(s_11383_jpg, tiledrooftop).
holds(s_11383_jpg, wallsign).
holds(s_11383_jpg, chimney).
holds(s_11383_jpg, pipe).
holds(s_11383_jpg, machine).
holds(s_11383_jpg, industrial).

sample(s_3030_jpg).
holds(s_3030_jpg, building).
holds(s_3030_jpg, feature).
holds(s_3030_jpg, hotel).
holds(s_3030_jpg, door).
holds(s_3030_jpg, awning).
holds(s_3030_jpg, billboard).
holds(s_3030_jpg, porch).
holds(s_3030_jpg, tiledrooftop).
holds(s_3030_jpg, statue).
holds(s_3030_jpg, chimney).
holds(s_3030_jpg, pipe).
holds(s_3030_jpg, machine).
holds(s_3030_jpg, commercial).

sample(s_11631_jpg).
holds(s_11631_jpg, building).
holds(s_11631_jpg, feature).
holds(s_11631_jpg, hotel).
holds(s_11631_jpg, door).
holds(s_11631_jpg, awning).
holds(s_11631_jpg, billboard).
holds(s_11631_jpg, porch).
holds(s_11631_jpg, tiledrooftop).
holds(s_11631_jpg, statue).
holds(s_11631_jpg, chimney).
holds(s_11631_jpg, pipe).
holds(s_11631_jpg, machine).
holds(s_11631_jpg, truck).
holds(s_11631_jpg, commercial).

sample(s_3612_jpg).
holds(s_3612_jpg, building).
holds(s_3612_jpg, feature).
holds(s_3612_jpg, hotel).
holds(s_3612_jpg, door).
holds(s_3612_jpg, awning).
holds(s_3612_jpg, billboard).
holds(s_3612_jpg, porch).
holds(s_3612_jpg, sign).
holds(s_3612_jpg, tiledrooftop).
holds(s_3612_jpg, pipe).
holds(s_3612_jpg, machine).
holds(s_3612_jpg, truck).
holds(s_3612_jpg, commercial).

sample(s_9441_jpg).
holds(s_9441_jpg, building).
holds(s_9441_jpg, feature).
holds(s_9441_jpg, hotel).
holds(s_9441_jpg, door).
holds(s_9441_jpg, awning).
holds(s_9441_jpg, porch).
holds(s_9441_jpg, tiledrooftop).
holds(s_9441_jpg, statue).
holds(s_9441_jpg, chimney).
holds(s_9441_jpg, pipe).
holds(s_9441_jpg, machine).
holds(s_9441_jpg, commercial).

sample(s_12668_jpg).
holds(s_12668_jpg, building).
holds(s_12668_jpg, feature).
holds(s_12668_jpg, suburban).
holds(s_12668_jpg, miscresidential).
holds(s_12668_jpg, door).
holds(s_12668_jpg, awning).
holds(s_12668_jpg, table).
holds(s_12668_jpg, vendingmachine).
holds(s_12668_jpg, wallsign).
holds(s_12668_jpg, statue).
holds(s_12668_jpg, pipe).
holds(s_12668_jpg, truck).
holds(s_12668_jpg, car).
holds(s_12668_jpg, residential).

sample(s_6795_jpg).
holds(s_6795_jpg, building).
holds(s_6795_jpg, feature).
holds(s_6795_jpg, hotel).
holds(s_6795_jpg, door).
holds(s_6795_jpg, awning).
holds(s_6795_jpg, billboard).
holds(s_6795_jpg, porch).
holds(s_6795_jpg, tiledrooftop).
holds(s_6795_jpg, vendingmachine).
holds(s_6795_jpg, wallsign).
holds(s_6795_jpg, statue).
holds(s_6795_jpg, chimney).
holds(s_6795_jpg, pipe).
holds(s_6795_jpg, machine).
holds(s_6795_jpg, commercial).

sample(s_7263_jpg).
holds(s_7263_jpg, building).
holds(s_7263_jpg, feature).
holds(s_7263_jpg, hotel).
holds(s_7263_jpg, door).
holds(s_7263_jpg, awning).
holds(s_7263_jpg, billboard).
holds(s_7263_jpg, porch).
holds(s_7263_jpg, tiledrooftop).
holds(s_7263_jpg, statue).
holds(s_7263_jpg, chimney).
holds(s_7263_jpg, machine).
holds(s_7263_jpg, commercial).

sample(s_2183_jpg).
holds(s_2183_jpg, building).
holds(s_2183_jpg, feature).
holds(s_2183_jpg, suburban).
holds(s_2183_jpg, door).
holds(s_2183_jpg, window).
holds(s_2183_jpg, awning).
holds(s_2183_jpg, porch).
holds(s_2183_jpg, tiledrooftop).
holds(s_2183_jpg, vendingmachine).
holds(s_2183_jpg, statue).
holds(s_2183_jpg, residential).

sample(s_5473_jpg).
holds(s_5473_jpg, building).
holds(s_5473_jpg, feature).
holds(s_5473_jpg, constructionsite).
holds(s_5473_jpg, awning).
holds(s_5473_jpg, billboard).
holds(s_5473_jpg, porch).
holds(s_5473_jpg, tiledrooftop).
holds(s_5473_jpg, wallsign).
holds(s_5473_jpg, chimney).
holds(s_5473_jpg, pipe).
holds(s_5473_jpg, machine).
holds(s_5473_jpg, industrial).

sample(s_1840_jpg).
holds(s_1840_jpg, building).
holds(s_1840_jpg, feature).
holds(s_1840_jpg, constructionsite).
holds(s_1840_jpg, awning).
holds(s_1840_jpg, billboard).
holds(s_1840_jpg, porch).
holds(s_1840_jpg, tiledrooftop).
holds(s_1840_jpg, wallsign).
holds(s_1840_jpg, chimney).
holds(s_1840_jpg, machine).
holds(s_1840_jpg, industrial).

sample(s_70_jpg).
holds(s_70_jpg, building).
holds(s_70_jpg, feature).
holds(s_70_jpg, constructionsite).
holds(s_70_jpg, awning).
holds(s_70_jpg, billboard).
holds(s_70_jpg, porch).
holds(s_70_jpg, tiledrooftop).
holds(s_70_jpg, wallsign).
holds(s_70_jpg, chimney).
holds(s_70_jpg, pipe).
holds(s_70_jpg, machine).
holds(s_70_jpg, industrial).

sample(s_14775_jpg).
holds(s_14775_jpg, building).
holds(s_14775_jpg, feature).
holds(s_14775_jpg, hotel).
holds(s_14775_jpg, awning).
holds(s_14775_jpg, porch).
holds(s_14775_jpg, sign).
holds(s_14775_jpg, tiledrooftop).
holds(s_14775_jpg, statue).
holds(s_14775_jpg, chimney).
holds(s_14775_jpg, machine).
holds(s_14775_jpg, commercial).

sample(s_13899_jpg).
holds(s_13899_jpg, building).
holds(s_13899_jpg, feature).
holds(s_13899_jpg, hotel).
holds(s_13899_jpg, door).
holds(s_13899_jpg, awning).
holds(s_13899_jpg, porch).
holds(s_13899_jpg, tiledrooftop).
holds(s_13899_jpg, statue).
holds(s_13899_jpg, chimney).
holds(s_13899_jpg, machine).
holds(s_13899_jpg, commercial).

sample(s_1631_jpg).
holds(s_1631_jpg, building).
holds(s_1631_jpg, feature).
holds(s_1631_jpg, suburban).
holds(s_1631_jpg, door).
holds(s_1631_jpg, window).
holds(s_1631_jpg, awning).
holds(s_1631_jpg, table).
holds(s_1631_jpg, tiledrooftop).
holds(s_1631_jpg, vendingmachine).
holds(s_1631_jpg, wallsign).
holds(s_1631_jpg, statue).
holds(s_1631_jpg, pipe).
holds(s_1631_jpg, residential).

sample(s_221_jpg).
holds(s_221_jpg, building).
holds(s_221_jpg, feature).
holds(s_221_jpg, suburban).
holds(s_221_jpg, door).
holds(s_221_jpg, window).
holds(s_221_jpg, awning).
holds(s_221_jpg, porch).
holds(s_221_jpg, table).
holds(s_221_jpg, tiledrooftop).
holds(s_221_jpg, vendingmachine).
holds(s_221_jpg, wallsign).
holds(s_221_jpg, statue).
holds(s_221_jpg, pipe).
holds(s_221_jpg, truck).
holds(s_221_jpg, car).
holds(s_221_jpg, residential).

sample(s_3665_jpg).
holds(s_3665_jpg, building).
holds(s_3665_jpg, feature).
holds(s_3665_jpg, suburban).
holds(s_3665_jpg, door).
holds(s_3665_jpg, awning).
holds(s_3665_jpg, billboard).
holds(s_3665_jpg, porch).
holds(s_3665_jpg, tiledrooftop).
holds(s_3665_jpg, vendingmachine).
holds(s_3665_jpg, wallsign).
holds(s_3665_jpg, statue).
holds(s_3665_jpg, chimney).
holds(s_3665_jpg, pipe).
holds(s_3665_jpg, machine).
holds(s_3665_jpg, truck).
holds(s_3665_jpg, car).
holds(s_3665_jpg, residential).

sample(s_7531_jpg).
holds(s_7531_jpg, building).
holds(s_7531_jpg, feature).
holds(s_7531_jpg, constructionsite).
holds(s_7531_jpg, awning).
holds(s_7531_jpg, billboard).
holds(s_7531_jpg, porch).
holds(s_7531_jpg, tiledrooftop).
holds(s_7531_jpg, chimney).
holds(s_7531_jpg, pipe).
holds(s_7531_jpg, machine).
holds(s_7531_jpg, industrial).

sample(s_11302_jpg).
holds(s_11302_jpg, building).
holds(s_11302_jpg, feature).
holds(s_11302_jpg, constructionsite).
holds(s_11302_jpg, awning).
holds(s_11302_jpg, billboard).
holds(s_11302_jpg, porch).
holds(s_11302_jpg, vendingmachine).
holds(s_11302_jpg, wallsign).
holds(s_11302_jpg, chimney).
holds(s_11302_jpg, pipe).
holds(s_11302_jpg, machine).
holds(s_11302_jpg, industrial).

sample(s_1423_jpg).
holds(s_1423_jpg, building).
holds(s_1423_jpg, feature).
holds(s_1423_jpg, constructionsite).
holds(s_1423_jpg, awning).
holds(s_1423_jpg, billboard).
holds(s_1423_jpg, porch).
holds(s_1423_jpg, tiledrooftop).
holds(s_1423_jpg, vendingmachine).
holds(s_1423_jpg, wallsign).
holds(s_1423_jpg, chimney).
holds(s_1423_jpg, pipe).
holds(s_1423_jpg, machine).
holds(s_1423_jpg, industrial).

sample(s_5007_jpg).
holds(s_5007_jpg, building).
holds(s_5007_jpg, feature).
holds(s_5007_jpg, hotel).
holds(s_5007_jpg, door).
holds(s_5007_jpg, awning).
holds(s_5007_jpg, billboard).
holds(s_5007_jpg, porch).
holds(s_5007_jpg, sign).
holds(s_5007_jpg, tiledrooftop).
holds(s_5007_jpg, chimney).
holds(s_5007_jpg, pipe).
holds(s_5007_jpg, machine).
holds(s_5007_jpg, truck).
holds(s_5007_jpg, commercial).

sample(s_4596_jpg).
holds(s_4596_jpg, building).
holds(s_4596_jpg, feature).
holds(s_4596_jpg, hotel).
holds(s_4596_jpg, door).
holds(s_4596_jpg, awning).
holds(s_4596_jpg, porch).
holds(s_4596_jpg, tiledrooftop).
holds(s_4596_jpg, vendingmachine).
holds(s_4596_jpg, wallsign).
holds(s_4596_jpg, statue).
holds(s_4596_jpg, chimney).
holds(s_4596_jpg, pipe).
holds(s_4596_jpg, machine).
holds(s_4596_jpg, commercial).

sample(s_15370_jpg).
holds(s_15370_jpg, building).
holds(s_15370_jpg, feature).
holds(s_15370_jpg, constructionsite).
holds(s_15370_jpg, awning).
holds(s_15370_jpg, billboard).
holds(s_15370_jpg, porch).
holds(s_15370_jpg, tiledrooftop).
holds(s_15370_jpg, wallsign).
holds(s_15370_jpg, chimney).
holds(s_15370_jpg, pipe).
holds(s_15370_jpg, machine).
holds(s_15370_jpg, industrial).

sample(s_7181_jpg).
holds(s_7181_jpg, building).
holds(s_7181_jpg, feature).
holds(s_7181_jpg, suburban).
holds(s_7181_jpg, door).
holds(s_7181_jpg, window).
holds(s_7181_jpg, awning).
holds(s_7181_jpg, porch).
holds(s_7181_jpg, tiledrooftop).
holds(s_7181_jpg, vendingmachine).
holds(s_7181_jpg, statue).
holds(s_7181_jpg, residential).

sample(s_2714_jpg).
holds(s_2714_jpg, building).
holds(s_2714_jpg, feature).
holds(s_2714_jpg, suburban).
holds(s_2714_jpg, door).
holds(s_2714_jpg, window).
holds(s_2714_jpg, awning).
holds(s_2714_jpg, porch).
holds(s_2714_jpg, table).
holds(s_2714_jpg, tiledrooftop).
holds(s_2714_jpg, vendingmachine).
holds(s_2714_jpg, wallsign).
holds(s_2714_jpg, statue).
holds(s_2714_jpg, pipe).
holds(s_2714_jpg, car).
holds(s_2714_jpg, residential).

sample(s_663_jpg).
holds(s_663_jpg, building).
holds(s_663_jpg, feature).
holds(s_663_jpg, hotel).
holds(s_663_jpg, door).
holds(s_663_jpg, awning).
holds(s_663_jpg, billboard).
holds(s_663_jpg, porch).
holds(s_663_jpg, sign).
holds(s_663_jpg, tiledrooftop).
holds(s_663_jpg, statue).
holds(s_663_jpg, pipe).
holds(s_663_jpg, machine).
holds(s_663_jpg, truck).
holds(s_663_jpg, commercial).

sample(s_5403_jpg).
holds(s_5403_jpg, building).
holds(s_5403_jpg, feature).
holds(s_5403_jpg, hotel).
holds(s_5403_jpg, door).
holds(s_5403_jpg, awning).
holds(s_5403_jpg, billboard).
holds(s_5403_jpg, porch).
holds(s_5403_jpg, sign).
holds(s_5403_jpg, tiledrooftop).
holds(s_5403_jpg, statue).
holds(s_5403_jpg, chimney).
holds(s_5403_jpg, pipe).
holds(s_5403_jpg, machine).
holds(s_5403_jpg, truck).
holds(s_5403_jpg, commercial).

sample(s_15925_jpg).
holds(s_15925_jpg, building).
holds(s_15925_jpg, feature).
holds(s_15925_jpg, constructionsite).
holds(s_15925_jpg, awning).
holds(s_15925_jpg, billboard).
holds(s_15925_jpg, porch).
holds(s_15925_jpg, tiledrooftop).
holds(s_15925_jpg, chimney).
holds(s_15925_jpg, pipe).
holds(s_15925_jpg, machine).
holds(s_15925_jpg, industrial).

sample(s_6558_jpg).
holds(s_6558_jpg, building).
holds(s_6558_jpg, feature).
holds(s_6558_jpg, hotel).
holds(s_6558_jpg, door).
holds(s_6558_jpg, awning).
holds(s_6558_jpg, porch).
holds(s_6558_jpg, tiledrooftop).
holds(s_6558_jpg, statue).
holds(s_6558_jpg, chimney).
holds(s_6558_jpg, machine).
holds(s_6558_jpg, commercial).

sample(s_12647_jpg).
holds(s_12647_jpg, building).
holds(s_12647_jpg, feature).
holds(s_12647_jpg, suburban).
holds(s_12647_jpg, door).
holds(s_12647_jpg, awning).
holds(s_12647_jpg, table).
holds(s_12647_jpg, vendingmachine).
holds(s_12647_jpg, wallsign).
holds(s_12647_jpg, statue).
holds(s_12647_jpg, chimney).
holds(s_12647_jpg, pipe).
holds(s_12647_jpg, truck).
holds(s_12647_jpg, car).
holds(s_12647_jpg, residential).

sample(s_14267_jpg).
holds(s_14267_jpg, building).
holds(s_14267_jpg, feature).
holds(s_14267_jpg, suburban).
holds(s_14267_jpg, door).
holds(s_14267_jpg, window).
holds(s_14267_jpg, awning).
holds(s_14267_jpg, porch).
holds(s_14267_jpg, table).
holds(s_14267_jpg, tiledrooftop).
holds(s_14267_jpg, vendingmachine).
holds(s_14267_jpg, wallsign).
holds(s_14267_jpg, statue).
holds(s_14267_jpg, pipe).
holds(s_14267_jpg, residential).

sample(s_4413_jpg).
holds(s_4413_jpg, building).
holds(s_4413_jpg, feature).
holds(s_4413_jpg, hotel).
holds(s_4413_jpg, door).
holds(s_4413_jpg, awning).
holds(s_4413_jpg, billboard).
holds(s_4413_jpg, porch).
holds(s_4413_jpg, sign).
holds(s_4413_jpg, tiledrooftop).
holds(s_4413_jpg, statue).
holds(s_4413_jpg, chimney).
holds(s_4413_jpg, machine).
holds(s_4413_jpg, commercial).

sample(s_5096_jpg).
holds(s_5096_jpg, building).
holds(s_5096_jpg, feature).
holds(s_5096_jpg, suburban).
holds(s_5096_jpg, door).
holds(s_5096_jpg, window).
holds(s_5096_jpg, awning).
holds(s_5096_jpg, porch).
holds(s_5096_jpg, tiledrooftop).
holds(s_5096_jpg, vendingmachine).
holds(s_5096_jpg, wallsign).
holds(s_5096_jpg, statue).
holds(s_5096_jpg, pipe).
holds(s_5096_jpg, residential).

sample(s_15205_jpg).
holds(s_15205_jpg, building).
holds(s_15205_jpg, feature).
holds(s_15205_jpg, constructionsite).
holds(s_15205_jpg, awning).
holds(s_15205_jpg, billboard).
holds(s_15205_jpg, porch).
holds(s_15205_jpg, tiledrooftop).
holds(s_15205_jpg, wallsign).
holds(s_15205_jpg, chimney).
holds(s_15205_jpg, pipe).
holds(s_15205_jpg, machine).
holds(s_15205_jpg, industrial).

sample(s_2033_jpg).
holds(s_2033_jpg, building).
holds(s_2033_jpg, feature).
holds(s_2033_jpg, suburban).
holds(s_2033_jpg, door).
holds(s_2033_jpg, window).
holds(s_2033_jpg, awning).
holds(s_2033_jpg, porch).
holds(s_2033_jpg, tiledrooftop).
holds(s_2033_jpg, vendingmachine).
holds(s_2033_jpg, wallsign).
holds(s_2033_jpg, statue).
holds(s_2033_jpg, pipe).
holds(s_2033_jpg, residential).

sample(s_3878_jpg).
holds(s_3878_jpg, building).
holds(s_3878_jpg, feature).
holds(s_3878_jpg, suburban).
holds(s_3878_jpg, door).
holds(s_3878_jpg, window).
holds(s_3878_jpg, awning).
holds(s_3878_jpg, porch).
holds(s_3878_jpg, tiledrooftop).
holds(s_3878_jpg, vendingmachine).
holds(s_3878_jpg, wallsign).
holds(s_3878_jpg, statue).
holds(s_3878_jpg, pipe).
holds(s_3878_jpg, residential).

sample(s_278_jpg).
holds(s_278_jpg, building).
holds(s_278_jpg, feature).
holds(s_278_jpg, suburban).
holds(s_278_jpg, door).
holds(s_278_jpg, window).
holds(s_278_jpg, awning).
holds(s_278_jpg, porch).
holds(s_278_jpg, tiledrooftop).
holds(s_278_jpg, vendingmachine).
holds(s_278_jpg, statue).
holds(s_278_jpg, residential).

sample(s_3750_jpg).
holds(s_3750_jpg, building).
holds(s_3750_jpg, feature).
holds(s_3750_jpg, hotel).
holds(s_3750_jpg, door).
holds(s_3750_jpg, awning).
holds(s_3750_jpg, billboard).
holds(s_3750_jpg, porch).
holds(s_3750_jpg, sign).
holds(s_3750_jpg, tiledrooftop).
holds(s_3750_jpg, statue).
holds(s_3750_jpg, chimney).
holds(s_3750_jpg, pipe).
holds(s_3750_jpg, machine).
holds(s_3750_jpg, commercial).

sample(s_10454_jpg).
holds(s_10454_jpg, building).
holds(s_10454_jpg, feature).
holds(s_10454_jpg, suburban).
holds(s_10454_jpg, door).
holds(s_10454_jpg, window).
holds(s_10454_jpg, awning).
holds(s_10454_jpg, porch).
holds(s_10454_jpg, table).
holds(s_10454_jpg, tiledrooftop).
holds(s_10454_jpg, vendingmachine).
holds(s_10454_jpg, wallsign).
holds(s_10454_jpg, statue).
holds(s_10454_jpg, pipe).
holds(s_10454_jpg, car).
holds(s_10454_jpg, residential).

sample(s_4036_jpg).
holds(s_4036_jpg, building).
holds(s_4036_jpg, feature).
holds(s_4036_jpg, constructionsite).
holds(s_4036_jpg, door).
holds(s_4036_jpg, awning).
holds(s_4036_jpg, billboard).
holds(s_4036_jpg, porch).
holds(s_4036_jpg, tiledrooftop).
holds(s_4036_jpg, wallsign).
holds(s_4036_jpg, chimney).
holds(s_4036_jpg, pipe).
holds(s_4036_jpg, machine).
holds(s_4036_jpg, industrial).

sample(s_7032_jpg).
holds(s_7032_jpg, building).
holds(s_7032_jpg, feature).
holds(s_7032_jpg, hotel).
holds(s_7032_jpg, door).
holds(s_7032_jpg, awning).
holds(s_7032_jpg, billboard).
holds(s_7032_jpg, porch).
holds(s_7032_jpg, sign).
holds(s_7032_jpg, tiledrooftop).
holds(s_7032_jpg, wallsign).
holds(s_7032_jpg, statue).
holds(s_7032_jpg, chimney).
holds(s_7032_jpg, pipe).
holds(s_7032_jpg, machine).
holds(s_7032_jpg, truck).
holds(s_7032_jpg, car).
holds(s_7032_jpg, commercial).

sample(s_9415_jpg).
holds(s_9415_jpg, building).
holds(s_9415_jpg, feature).
holds(s_9415_jpg, constructionsite).
holds(s_9415_jpg, door).
holds(s_9415_jpg, awning).
holds(s_9415_jpg, billboard).
holds(s_9415_jpg, porch).
holds(s_9415_jpg, tiledrooftop).
holds(s_9415_jpg, vendingmachine).
holds(s_9415_jpg, wallsign).
holds(s_9415_jpg, statue).
holds(s_9415_jpg, chimney).
holds(s_9415_jpg, pipe).
holds(s_9415_jpg, machine).
holds(s_9415_jpg, industrial).

sample(s_5172_jpg).
holds(s_5172_jpg, building).
holds(s_5172_jpg, feature).
holds(s_5172_jpg, hotel).
holds(s_5172_jpg, door).
holds(s_5172_jpg, awning).
holds(s_5172_jpg, porch).
holds(s_5172_jpg, sign).
holds(s_5172_jpg, tiledrooftop).
holds(s_5172_jpg, statue).
holds(s_5172_jpg, pipe).
holds(s_5172_jpg, machine).
holds(s_5172_jpg, commercial).

sample(s_14300_jpg).
holds(s_14300_jpg, building).
holds(s_14300_jpg, feature).
holds(s_14300_jpg, suburban).
holds(s_14300_jpg, door).
holds(s_14300_jpg, window).
holds(s_14300_jpg, awning).
holds(s_14300_jpg, porch).
holds(s_14300_jpg, table).
holds(s_14300_jpg, tiledrooftop).
holds(s_14300_jpg, vendingmachine).
holds(s_14300_jpg, wallsign).
holds(s_14300_jpg, statue).
holds(s_14300_jpg, residential).

sample(s_7105_jpg).
holds(s_7105_jpg, building).
holds(s_7105_jpg, feature).
holds(s_7105_jpg, constructionsite).
holds(s_7105_jpg, awning).
holds(s_7105_jpg, billboard).
holds(s_7105_jpg, porch).
holds(s_7105_jpg, tiledrooftop).
holds(s_7105_jpg, wallsign).
holds(s_7105_jpg, chimney).
holds(s_7105_jpg, pipe).
holds(s_7105_jpg, machine).
holds(s_7105_jpg, industrial).

sample(s_10282_jpg).
holds(s_10282_jpg, building).
holds(s_10282_jpg, feature).
holds(s_10282_jpg, constructionsite).
holds(s_10282_jpg, awning).
holds(s_10282_jpg, billboard).
holds(s_10282_jpg, porch).
holds(s_10282_jpg, tiledrooftop).
holds(s_10282_jpg, vendingmachine).
holds(s_10282_jpg, wallsign).
holds(s_10282_jpg, chimney).
holds(s_10282_jpg, pipe).
holds(s_10282_jpg, machine).
holds(s_10282_jpg, industrial).

sample(s_6709_jpg).
holds(s_6709_jpg, building).
holds(s_6709_jpg, feature).
holds(s_6709_jpg, constructionsite).
holds(s_6709_jpg, awning).
holds(s_6709_jpg, billboard).
holds(s_6709_jpg, porch).
holds(s_6709_jpg, tiledrooftop).
holds(s_6709_jpg, wallsign).
holds(s_6709_jpg, chimney).
holds(s_6709_jpg, pipe).
holds(s_6709_jpg, machine).
holds(s_6709_jpg, industrial).

sample(s_13512_jpg).
holds(s_13512_jpg, building).
holds(s_13512_jpg, feature).
holds(s_13512_jpg, hotel).
holds(s_13512_jpg, door).
holds(s_13512_jpg, awning).
holds(s_13512_jpg, billboard).
holds(s_13512_jpg, porch).
holds(s_13512_jpg, sign).
holds(s_13512_jpg, tiledrooftop).
holds(s_13512_jpg, chimney).
holds(s_13512_jpg, pipe).
holds(s_13512_jpg, machine).
holds(s_13512_jpg, commercial).

sample(s_14633_jpg).
holds(s_14633_jpg, building).
holds(s_14633_jpg, feature).
holds(s_14633_jpg, suburban).
holds(s_14633_jpg, door).
holds(s_14633_jpg, window).
holds(s_14633_jpg, awning).
holds(s_14633_jpg, porch).
holds(s_14633_jpg, table).
holds(s_14633_jpg, tiledrooftop).
holds(s_14633_jpg, vendingmachine).
holds(s_14633_jpg, wallsign).
holds(s_14633_jpg, statue).
holds(s_14633_jpg, pipe).
holds(s_14633_jpg, car).
holds(s_14633_jpg, residential).

sample(s_12914_jpg).
holds(s_12914_jpg, building).
holds(s_12914_jpg, feature).
holds(s_12914_jpg, suburban).
holds(s_12914_jpg, door).
holds(s_12914_jpg, awning).
holds(s_12914_jpg, table).
holds(s_12914_jpg, vendingmachine).
holds(s_12914_jpg, wallsign).
holds(s_12914_jpg, statue).
holds(s_12914_jpg, chimney).
holds(s_12914_jpg, pipe).
holds(s_12914_jpg, truck).
holds(s_12914_jpg, car).
holds(s_12914_jpg, residential).

sample(s_7627_jpg).
holds(s_7627_jpg, building).
holds(s_7627_jpg, feature).
holds(s_7627_jpg, constructionsite).
holds(s_7627_jpg, door).
holds(s_7627_jpg, awning).
holds(s_7627_jpg, billboard).
holds(s_7627_jpg, porch).
holds(s_7627_jpg, tiledrooftop).
holds(s_7627_jpg, wallsign).
holds(s_7627_jpg, chimney).
holds(s_7627_jpg, pipe).
holds(s_7627_jpg, machine).
holds(s_7627_jpg, industrial).

sample(s_2133_jpg).
holds(s_2133_jpg, building).
holds(s_2133_jpg, feature).
holds(s_2133_jpg, hotel).
holds(s_2133_jpg, door).
holds(s_2133_jpg, awning).
holds(s_2133_jpg, billboard).
holds(s_2133_jpg, porch).
holds(s_2133_jpg, tiledrooftop).
holds(s_2133_jpg, statue).
holds(s_2133_jpg, chimney).
holds(s_2133_jpg, pipe).
holds(s_2133_jpg, machine).
holds(s_2133_jpg, truck).
holds(s_2133_jpg, commercial).

sample(s_9318_jpg).
holds(s_9318_jpg, building).
holds(s_9318_jpg, feature).
holds(s_9318_jpg, hotel).
holds(s_9318_jpg, door).
holds(s_9318_jpg, window).
holds(s_9318_jpg, awning).
holds(s_9318_jpg, porch).
holds(s_9318_jpg, tiledrooftop).
holds(s_9318_jpg, vendingmachine).
holds(s_9318_jpg, statue).
holds(s_9318_jpg, pipe).
holds(s_9318_jpg, machine).
holds(s_9318_jpg, commercial).

sample(s_386_jpg).
holds(s_386_jpg, building).
holds(s_386_jpg, feature).
holds(s_386_jpg, suburban).
holds(s_386_jpg, door).
holds(s_386_jpg, window).
holds(s_386_jpg, awning).
holds(s_386_jpg, porch).
holds(s_386_jpg, tiledrooftop).
holds(s_386_jpg, vendingmachine).
holds(s_386_jpg, statue).
holds(s_386_jpg, residential).

sample(s_1449_jpg).
holds(s_1449_jpg, building).
holds(s_1449_jpg, feature).
holds(s_1449_jpg, hotel).
holds(s_1449_jpg, door).
holds(s_1449_jpg, awning).
holds(s_1449_jpg, billboard).
holds(s_1449_jpg, porch).
holds(s_1449_jpg, sign).
holds(s_1449_jpg, tiledrooftop).
holds(s_1449_jpg, chimney).
holds(s_1449_jpg, pipe).
holds(s_1449_jpg, machine).
holds(s_1449_jpg, commercial).

sample(s_6839_jpg).
holds(s_6839_jpg, building).
holds(s_6839_jpg, feature).
holds(s_6839_jpg, suburban).
holds(s_6839_jpg, door).
holds(s_6839_jpg, window).
holds(s_6839_jpg, awning).
holds(s_6839_jpg, porch).
holds(s_6839_jpg, tiledrooftop).
holds(s_6839_jpg, vendingmachine).
holds(s_6839_jpg, statue).
holds(s_6839_jpg, residential).

sample(s_8438_jpg).
holds(s_8438_jpg, building).
holds(s_8438_jpg, feature).
holds(s_8438_jpg, suburban).
holds(s_8438_jpg, door).
holds(s_8438_jpg, window).
holds(s_8438_jpg, awning).
holds(s_8438_jpg, porch).
holds(s_8438_jpg, tiledrooftop).
holds(s_8438_jpg, vendingmachine).
holds(s_8438_jpg, statue).
holds(s_8438_jpg, residential).

sample(s_5111_jpg).
holds(s_5111_jpg, building).
holds(s_5111_jpg, feature).
holds(s_5111_jpg, suburban).
holds(s_5111_jpg, door).
holds(s_5111_jpg, window).
holds(s_5111_jpg, awning).
holds(s_5111_jpg, porch).
holds(s_5111_jpg, tiledrooftop).
holds(s_5111_jpg, vendingmachine).
holds(s_5111_jpg, statue).
holds(s_5111_jpg, residential).

sample(s_11004_jpg).
holds(s_11004_jpg, building).
holds(s_11004_jpg, feature).
holds(s_11004_jpg, hotel).
holds(s_11004_jpg, door).
holds(s_11004_jpg, awning).
holds(s_11004_jpg, billboard).
holds(s_11004_jpg, porch).
holds(s_11004_jpg, sign).
holds(s_11004_jpg, tiledrooftop).
holds(s_11004_jpg, pipe).
holds(s_11004_jpg, machine).
holds(s_11004_jpg, commercial).

sample(s_271_jpg).
holds(s_271_jpg, building).
holds(s_271_jpg, feature).
holds(s_271_jpg, constructionsite).
holds(s_271_jpg, awning).
holds(s_271_jpg, billboard).
holds(s_271_jpg, porch).
holds(s_271_jpg, tiledrooftop).
holds(s_271_jpg, wallsign).
holds(s_271_jpg, statue).
holds(s_271_jpg, chimney).
holds(s_271_jpg, pipe).
holds(s_271_jpg, machine).
holds(s_271_jpg, industrial).

sample(s_8543_jpg).
holds(s_8543_jpg, building).
holds(s_8543_jpg, feature).
holds(s_8543_jpg, suburban).
holds(s_8543_jpg, door).
holds(s_8543_jpg, window).
holds(s_8543_jpg, awning).
holds(s_8543_jpg, porch).
holds(s_8543_jpg, tiledrooftop).
holds(s_8543_jpg, vendingmachine).
holds(s_8543_jpg, statue).
holds(s_8543_jpg, residential).

sample(s_15802_jpg).
holds(s_15802_jpg, building).
holds(s_15802_jpg, feature).
holds(s_15802_jpg, constructionsite).
holds(s_15802_jpg, door).
holds(s_15802_jpg, awning).
holds(s_15802_jpg, billboard).
holds(s_15802_jpg, porch).
holds(s_15802_jpg, tiledrooftop).
holds(s_15802_jpg, vendingmachine).
holds(s_15802_jpg, wallsign).
holds(s_15802_jpg, statue).
holds(s_15802_jpg, chimney).
holds(s_15802_jpg, pipe).
holds(s_15802_jpg, machine).
holds(s_15802_jpg, industrial).

sample(s_13095_jpg).
holds(s_13095_jpg, building).
holds(s_13095_jpg, feature).
holds(s_13095_jpg, hotel).
holds(s_13095_jpg, door).
holds(s_13095_jpg, awning).
holds(s_13095_jpg, billboard).
holds(s_13095_jpg, porch).
holds(s_13095_jpg, tiledrooftop).
holds(s_13095_jpg, wallsign).
holds(s_13095_jpg, statue).
holds(s_13095_jpg, chimney).
holds(s_13095_jpg, pipe).
holds(s_13095_jpg, machine).
holds(s_13095_jpg, truck).
holds(s_13095_jpg, commercial).

sample(s_12582_jpg).
holds(s_12582_jpg, building).
holds(s_12582_jpg, feature).
holds(s_12582_jpg, hotel).
holds(s_12582_jpg, door).
holds(s_12582_jpg, awning).
holds(s_12582_jpg, porch).
holds(s_12582_jpg, tiledrooftop).
holds(s_12582_jpg, statue).
holds(s_12582_jpg, chimney).
holds(s_12582_jpg, pipe).
holds(s_12582_jpg, machine).
holds(s_12582_jpg, commercial).

sample(s_4451_jpg).
holds(s_4451_jpg, building).
holds(s_4451_jpg, feature).
holds(s_4451_jpg, suburban).
holds(s_4451_jpg, door).
holds(s_4451_jpg, awning).
holds(s_4451_jpg, porch).
holds(s_4451_jpg, table).
holds(s_4451_jpg, tiledrooftop).
holds(s_4451_jpg, vendingmachine).
holds(s_4451_jpg, wallsign).
holds(s_4451_jpg, statue).
holds(s_4451_jpg, chimney).
holds(s_4451_jpg, pipe).
holds(s_4451_jpg, machine).
holds(s_4451_jpg, truck).
holds(s_4451_jpg, car).
holds(s_4451_jpg, residential).

sample(s_258_jpg).
holds(s_258_jpg, building).
holds(s_258_jpg, feature).
holds(s_258_jpg, hotel).
holds(s_258_jpg, door).
holds(s_258_jpg, awning).
holds(s_258_jpg, billboard).
holds(s_258_jpg, porch).
holds(s_258_jpg, sign).
holds(s_258_jpg, tiledrooftop).
holds(s_258_jpg, pipe).
holds(s_258_jpg, machine).
holds(s_258_jpg, commercial).

sample(s_11325_jpg).
holds(s_11325_jpg, building).
holds(s_11325_jpg, feature).
holds(s_11325_jpg, hotel).
holds(s_11325_jpg, door).
holds(s_11325_jpg, awning).
holds(s_11325_jpg, billboard).
holds(s_11325_jpg, porch).
holds(s_11325_jpg, tiledrooftop).
holds(s_11325_jpg, statue).
holds(s_11325_jpg, chimney).
holds(s_11325_jpg, machine).
holds(s_11325_jpg, commercial).

sample(s_7762_jpg).
holds(s_7762_jpg, building).
holds(s_7762_jpg, feature).
holds(s_7762_jpg, constructionsite).
holds(s_7762_jpg, awning).
holds(s_7762_jpg, billboard).
holds(s_7762_jpg, porch).
holds(s_7762_jpg, tiledrooftop).
holds(s_7762_jpg, wallsign).
holds(s_7762_jpg, chimney).
holds(s_7762_jpg, pipe).
holds(s_7762_jpg, machine).
holds(s_7762_jpg, industrial).

sample(s_14145_jpg).
holds(s_14145_jpg, building).
holds(s_14145_jpg, feature).
holds(s_14145_jpg, hotel).
holds(s_14145_jpg, door).
holds(s_14145_jpg, awning).
holds(s_14145_jpg, billboard).
holds(s_14145_jpg, porch).
holds(s_14145_jpg, sign).
holds(s_14145_jpg, tiledrooftop).
holds(s_14145_jpg, pipe).
holds(s_14145_jpg, machine).
holds(s_14145_jpg, commercial).

sample(s_130_jpg).
holds(s_130_jpg, building).
holds(s_130_jpg, feature).
holds(s_130_jpg, constructionsite).
holds(s_130_jpg, awning).
holds(s_130_jpg, billboard).
holds(s_130_jpg, porch).
holds(s_130_jpg, tiledrooftop).
holds(s_130_jpg, vendingmachine).
holds(s_130_jpg, wallsign).
holds(s_130_jpg, chimney).
holds(s_130_jpg, pipe).
holds(s_130_jpg, machine).
holds(s_130_jpg, industrial).

sample(s_1942_jpg).
holds(s_1942_jpg, building).
holds(s_1942_jpg, feature).
holds(s_1942_jpg, constructionsite).
holds(s_1942_jpg, awning).
holds(s_1942_jpg, billboard).
holds(s_1942_jpg, porch).
holds(s_1942_jpg, tiledrooftop).
holds(s_1942_jpg, wallsign).
holds(s_1942_jpg, chimney).
holds(s_1942_jpg, pipe).
holds(s_1942_jpg, machine).
holds(s_1942_jpg, industrial).

sample(s_6433_jpg).
holds(s_6433_jpg, building).
holds(s_6433_jpg, feature).
holds(s_6433_jpg, constructionsite).
holds(s_6433_jpg, awning).
holds(s_6433_jpg, billboard).
holds(s_6433_jpg, porch).
holds(s_6433_jpg, tiledrooftop).
holds(s_6433_jpg, chimney).
holds(s_6433_jpg, machine).
holds(s_6433_jpg, industrial).

sample(s_7257_jpg).
holds(s_7257_jpg, building).
holds(s_7257_jpg, feature).
holds(s_7257_jpg, hotel).
holds(s_7257_jpg, door).
holds(s_7257_jpg, awning).
holds(s_7257_jpg, billboard).
holds(s_7257_jpg, porch).
holds(s_7257_jpg, sign).
holds(s_7257_jpg, tiledrooftop).
holds(s_7257_jpg, pipe).
holds(s_7257_jpg, machine).
holds(s_7257_jpg, commercial).

sample(s_11471_jpg).
holds(s_11471_jpg, building).
holds(s_11471_jpg, feature).
holds(s_11471_jpg, suburban).
holds(s_11471_jpg, door).
holds(s_11471_jpg, window).
holds(s_11471_jpg, awning).
holds(s_11471_jpg, porch).
holds(s_11471_jpg, tiledrooftop).
holds(s_11471_jpg, vendingmachine).
holds(s_11471_jpg, wallsign).
holds(s_11471_jpg, statue).
holds(s_11471_jpg, pipe).
holds(s_11471_jpg, car).
holds(s_11471_jpg, residential).

sample(s_683_jpg).
holds(s_683_jpg, building).
holds(s_683_jpg, feature).
holds(s_683_jpg, suburban).
holds(s_683_jpg, door).
holds(s_683_jpg, window).
holds(s_683_jpg, awning).
holds(s_683_jpg, porch).
holds(s_683_jpg, tiledrooftop).
holds(s_683_jpg, vendingmachine).
holds(s_683_jpg, statue).
holds(s_683_jpg, residential).

sample(s_7806_jpg).
holds(s_7806_jpg, building).
holds(s_7806_jpg, feature).
holds(s_7806_jpg, hotel).
holds(s_7806_jpg, door).
holds(s_7806_jpg, awning).
holds(s_7806_jpg, billboard).
holds(s_7806_jpg, porch).
holds(s_7806_jpg, sign).
holds(s_7806_jpg, tiledrooftop).
holds(s_7806_jpg, pipe).
holds(s_7806_jpg, machine).
holds(s_7806_jpg, commercial).

sample(s_12260_jpg).
holds(s_12260_jpg, building).
holds(s_12260_jpg, feature).
holds(s_12260_jpg, suburban).
holds(s_12260_jpg, door).
holds(s_12260_jpg, window).
holds(s_12260_jpg, awning).
holds(s_12260_jpg, porch).
holds(s_12260_jpg, tiledrooftop).
holds(s_12260_jpg, vendingmachine).
holds(s_12260_jpg, wallsign).
holds(s_12260_jpg, statue).
holds(s_12260_jpg, residential).

sample(s_7283_jpg).
holds(s_7283_jpg, building).
holds(s_7283_jpg, feature).
holds(s_7283_jpg, suburban).
holds(s_7283_jpg, door).
holds(s_7283_jpg, window).
holds(s_7283_jpg, awning).
holds(s_7283_jpg, porch).
holds(s_7283_jpg, table).
holds(s_7283_jpg, tiledrooftop).
holds(s_7283_jpg, vendingmachine).
holds(s_7283_jpg, wallsign).
holds(s_7283_jpg, statue).
holds(s_7283_jpg, pipe).
holds(s_7283_jpg, residential).

sample(s_13980_jpg).
holds(s_13980_jpg, building).
holds(s_13980_jpg, feature).
holds(s_13980_jpg, hotel).
holds(s_13980_jpg, door).
holds(s_13980_jpg, awning).
holds(s_13980_jpg, billboard).
holds(s_13980_jpg, porch).
holds(s_13980_jpg, sign).
holds(s_13980_jpg, tiledrooftop).
holds(s_13980_jpg, pipe).
holds(s_13980_jpg, machine).
holds(s_13980_jpg, commercial).

sample(s_7144_jpg).
holds(s_7144_jpg, building).
holds(s_7144_jpg, feature).
holds(s_7144_jpg, constructionsite).
holds(s_7144_jpg, awning).
holds(s_7144_jpg, billboard).
holds(s_7144_jpg, porch).
holds(s_7144_jpg, tiledrooftop).
holds(s_7144_jpg, wallsign).
holds(s_7144_jpg, chimney).
holds(s_7144_jpg, pipe).
holds(s_7144_jpg, machine).
holds(s_7144_jpg, industrial).

sample(s_1066_jpg).
holds(s_1066_jpg, building).
holds(s_1066_jpg, feature).
holds(s_1066_jpg, constructionsite).
holds(s_1066_jpg, awning).
holds(s_1066_jpg, billboard).
holds(s_1066_jpg, porch).
holds(s_1066_jpg, tiledrooftop).
holds(s_1066_jpg, chimney).
holds(s_1066_jpg, machine).
holds(s_1066_jpg, industrial).

sample(s_8239_jpg).
holds(s_8239_jpg, building).
holds(s_8239_jpg, feature).
holds(s_8239_jpg, constructionsite).
holds(s_8239_jpg, door).
holds(s_8239_jpg, awning).
holds(s_8239_jpg, billboard).
holds(s_8239_jpg, porch).
holds(s_8239_jpg, tiledrooftop).
holds(s_8239_jpg, wallsign).
holds(s_8239_jpg, chimney).
holds(s_8239_jpg, pipe).
holds(s_8239_jpg, machine).
holds(s_8239_jpg, industrial).

sample(s_6182_jpg).
holds(s_6182_jpg, building).
holds(s_6182_jpg, feature).
holds(s_6182_jpg, suburban).
holds(s_6182_jpg, door).
holds(s_6182_jpg, window).
holds(s_6182_jpg, awning).
holds(s_6182_jpg, porch).
holds(s_6182_jpg, tiledrooftop).
holds(s_6182_jpg, vendingmachine).
holds(s_6182_jpg, wallsign).
holds(s_6182_jpg, statue).
holds(s_6182_jpg, residential).

sample(s_10130_jpg).
holds(s_10130_jpg, building).
holds(s_10130_jpg, feature).
holds(s_10130_jpg, suburban).
holds(s_10130_jpg, door).
holds(s_10130_jpg, window).
holds(s_10130_jpg, awning).
holds(s_10130_jpg, porch).
holds(s_10130_jpg, table).
holds(s_10130_jpg, tiledrooftop).
holds(s_10130_jpg, vendingmachine).
holds(s_10130_jpg, wallsign).
holds(s_10130_jpg, statue).
holds(s_10130_jpg, pipe).
holds(s_10130_jpg, residential).

sample(s_5825_jpg).
holds(s_5825_jpg, building).
holds(s_5825_jpg, feature).
holds(s_5825_jpg, suburban).
holds(s_5825_jpg, door).
holds(s_5825_jpg, window).
holds(s_5825_jpg, awning).
holds(s_5825_jpg, porch).
holds(s_5825_jpg, table).
holds(s_5825_jpg, tiledrooftop).
holds(s_5825_jpg, vendingmachine).
holds(s_5825_jpg, wallsign).
holds(s_5825_jpg, statue).
holds(s_5825_jpg, pipe).
holds(s_5825_jpg, truck).
holds(s_5825_jpg, car).
holds(s_5825_jpg, residential).

sample(s_10838_jpg).
holds(s_10838_jpg, building).
holds(s_10838_jpg, feature).
holds(s_10838_jpg, suburban).
holds(s_10838_jpg, door).
holds(s_10838_jpg, window).
holds(s_10838_jpg, awning).
holds(s_10838_jpg, porch).
holds(s_10838_jpg, tiledrooftop).
holds(s_10838_jpg, vendingmachine).
holds(s_10838_jpg, statue).
holds(s_10838_jpg, residential).

sample(s_10526_jpg).
holds(s_10526_jpg, building).
holds(s_10526_jpg, feature).
holds(s_10526_jpg, suburban).
holds(s_10526_jpg, door).
holds(s_10526_jpg, window).
holds(s_10526_jpg, awning).
holds(s_10526_jpg, porch).
holds(s_10526_jpg, table).
holds(s_10526_jpg, tiledrooftop).
holds(s_10526_jpg, vendingmachine).
holds(s_10526_jpg, wallsign).
holds(s_10526_jpg, statue).
holds(s_10526_jpg, pipe).
holds(s_10526_jpg, car).
holds(s_10526_jpg, residential).

sample(s_2579_jpg).
holds(s_2579_jpg, building).
holds(s_2579_jpg, feature).
holds(s_2579_jpg, suburban).
holds(s_2579_jpg, door).
holds(s_2579_jpg, window).
holds(s_2579_jpg, awning).
holds(s_2579_jpg, porch).
holds(s_2579_jpg, tiledrooftop).
holds(s_2579_jpg, vendingmachine).
holds(s_2579_jpg, wallsign).
holds(s_2579_jpg, statue).
holds(s_2579_jpg, pipe).
holds(s_2579_jpg, car).
holds(s_2579_jpg, residential).

sample(s_6118_jpg).
holds(s_6118_jpg, building).
holds(s_6118_jpg, feature).
holds(s_6118_jpg, constructionsite).
holds(s_6118_jpg, door).
holds(s_6118_jpg, awning).
holds(s_6118_jpg, billboard).
holds(s_6118_jpg, porch).
holds(s_6118_jpg, tiledrooftop).
holds(s_6118_jpg, vendingmachine).
holds(s_6118_jpg, wallsign).
holds(s_6118_jpg, statue).
holds(s_6118_jpg, chimney).
holds(s_6118_jpg, pipe).
holds(s_6118_jpg, machine).
holds(s_6118_jpg, industrial).

sample(s_13972_jpg).
holds(s_13972_jpg, building).
holds(s_13972_jpg, feature).
holds(s_13972_jpg, constructionsite).
holds(s_13972_jpg, awning).
holds(s_13972_jpg, billboard).
holds(s_13972_jpg, porch).
holds(s_13972_jpg, tiledrooftop).
holds(s_13972_jpg, wallsign).
holds(s_13972_jpg, chimney).
holds(s_13972_jpg, pipe).
holds(s_13972_jpg, machine).
holds(s_13972_jpg, industrial).

sample(s_359_jpg).
holds(s_359_jpg, building).
holds(s_359_jpg, feature).
holds(s_359_jpg, suburban).
holds(s_359_jpg, door).
holds(s_359_jpg, awning).
holds(s_359_jpg, porch).
holds(s_359_jpg, table).
holds(s_359_jpg, tiledrooftop).
holds(s_359_jpg, vendingmachine).
holds(s_359_jpg, wallsign).
holds(s_359_jpg, statue).
holds(s_359_jpg, chimney).
holds(s_359_jpg, pipe).
holds(s_359_jpg, truck).
holds(s_359_jpg, car).
holds(s_359_jpg, residential).

sample(s_8671_jpg).
holds(s_8671_jpg, building).
holds(s_8671_jpg, feature).
holds(s_8671_jpg, constructionsite).
holds(s_8671_jpg, awning).
holds(s_8671_jpg, billboard).
holds(s_8671_jpg, porch).
holds(s_8671_jpg, tiledrooftop).
holds(s_8671_jpg, wallsign).
holds(s_8671_jpg, chimney).
holds(s_8671_jpg, pipe).
holds(s_8671_jpg, machine).
holds(s_8671_jpg, industrial).

sample(s_15706_jpg).
holds(s_15706_jpg, building).
holds(s_15706_jpg, feature).
holds(s_15706_jpg, constructionsite).
holds(s_15706_jpg, awning).
holds(s_15706_jpg, billboard).
holds(s_15706_jpg, porch).
holds(s_15706_jpg, tiledrooftop).
holds(s_15706_jpg, chimney).
holds(s_15706_jpg, pipe).
holds(s_15706_jpg, machine).
holds(s_15706_jpg, industrial).

sample(s_6724_jpg).
holds(s_6724_jpg, building).
holds(s_6724_jpg, feature).
holds(s_6724_jpg, constructionsite).
holds(s_6724_jpg, awning).
holds(s_6724_jpg, billboard).
holds(s_6724_jpg, porch).
holds(s_6724_jpg, tiledrooftop).
holds(s_6724_jpg, wallsign).
holds(s_6724_jpg, chimney).
holds(s_6724_jpg, pipe).
holds(s_6724_jpg, machine).
holds(s_6724_jpg, industrial).

sample(s_9180_jpg).
holds(s_9180_jpg, building).
holds(s_9180_jpg, feature).
holds(s_9180_jpg, hotel).
holds(s_9180_jpg, door).
holds(s_9180_jpg, awning).
holds(s_9180_jpg, billboard).
holds(s_9180_jpg, porch).
holds(s_9180_jpg, sign).
holds(s_9180_jpg, tiledrooftop).
holds(s_9180_jpg, pipe).
holds(s_9180_jpg, machine).
holds(s_9180_jpg, commercial).

sample(s_7573_jpg).
holds(s_7573_jpg, building).
holds(s_7573_jpg, feature).
holds(s_7573_jpg, constructionsite).
holds(s_7573_jpg, awning).
holds(s_7573_jpg, billboard).
holds(s_7573_jpg, porch).
holds(s_7573_jpg, tiledrooftop).
holds(s_7573_jpg, vendingmachine).
holds(s_7573_jpg, wallsign).
holds(s_7573_jpg, chimney).
holds(s_7573_jpg, pipe).
holds(s_7573_jpg, machine).
holds(s_7573_jpg, industrial).

sample(s_4999_jpg).
holds(s_4999_jpg, building).
holds(s_4999_jpg, feature).
holds(s_4999_jpg, constructionsite).
holds(s_4999_jpg, awning).
holds(s_4999_jpg, billboard).
holds(s_4999_jpg, porch).
holds(s_4999_jpg, tiledrooftop).
holds(s_4999_jpg, wallsign).
holds(s_4999_jpg, chimney).
holds(s_4999_jpg, pipe).
holds(s_4999_jpg, machine).
holds(s_4999_jpg, industrial).

sample(s_6322_jpg).
holds(s_6322_jpg, building).
holds(s_6322_jpg, feature).
holds(s_6322_jpg, constructionsite).
holds(s_6322_jpg, door).
holds(s_6322_jpg, awning).
holds(s_6322_jpg, billboard).
holds(s_6322_jpg, porch).
holds(s_6322_jpg, tiledrooftop).
holds(s_6322_jpg, vendingmachine).
holds(s_6322_jpg, wallsign).
holds(s_6322_jpg, statue).
holds(s_6322_jpg, chimney).
holds(s_6322_jpg, pipe).
holds(s_6322_jpg, machine).
holds(s_6322_jpg, industrial).

sample(s_2956_jpg).
holds(s_2956_jpg, building).
holds(s_2956_jpg, feature).
holds(s_2956_jpg, constructionsite).
holds(s_2956_jpg, awning).
holds(s_2956_jpg, billboard).
holds(s_2956_jpg, porch).
holds(s_2956_jpg, tiledrooftop).
holds(s_2956_jpg, statue).
holds(s_2956_jpg, chimney).
holds(s_2956_jpg, machine).
holds(s_2956_jpg, industrial).

sample(s_807_jpg).
holds(s_807_jpg, building).
holds(s_807_jpg, feature).
holds(s_807_jpg, hotel).
holds(s_807_jpg, door).
holds(s_807_jpg, awning).
holds(s_807_jpg, billboard).
holds(s_807_jpg, porch).
holds(s_807_jpg, sign).
holds(s_807_jpg, tiledrooftop).
holds(s_807_jpg, statue).
holds(s_807_jpg, chimney).
holds(s_807_jpg, pipe).
holds(s_807_jpg, machine).
holds(s_807_jpg, commercial).

sample(s_9879_jpg).
holds(s_9879_jpg, building).
holds(s_9879_jpg, feature).
holds(s_9879_jpg, hotel).
holds(s_9879_jpg, door).
holds(s_9879_jpg, awning).
holds(s_9879_jpg, billboard).
holds(s_9879_jpg, porch).
holds(s_9879_jpg, sign).
holds(s_9879_jpg, tiledrooftop).
holds(s_9879_jpg, pipe).
holds(s_9879_jpg, machine).
holds(s_9879_jpg, commercial).

sample(s_14052_jpg).
holds(s_14052_jpg, building).
holds(s_14052_jpg, feature).
holds(s_14052_jpg, hotel).
holds(s_14052_jpg, door).
holds(s_14052_jpg, awning).
holds(s_14052_jpg, porch).
holds(s_14052_jpg, sign).
holds(s_14052_jpg, tiledrooftop).
holds(s_14052_jpg, statue).
holds(s_14052_jpg, pipe).
holds(s_14052_jpg, machine).
holds(s_14052_jpg, commercial).

sample(s_14616_jpg).
holds(s_14616_jpg, building).
holds(s_14616_jpg, feature).
holds(s_14616_jpg, hotel).
holds(s_14616_jpg, door).
holds(s_14616_jpg, awning).
holds(s_14616_jpg, porch).
holds(s_14616_jpg, sign).
holds(s_14616_jpg, tiledrooftop).
holds(s_14616_jpg, statue).
holds(s_14616_jpg, chimney).
holds(s_14616_jpg, machine).
holds(s_14616_jpg, commercial).

sample(s_2651_jpg).
holds(s_2651_jpg, building).
holds(s_2651_jpg, feature).
holds(s_2651_jpg, suburban).
holds(s_2651_jpg, door).
holds(s_2651_jpg, window).
holds(s_2651_jpg, awning).
holds(s_2651_jpg, porch).
holds(s_2651_jpg, tiledrooftop).
holds(s_2651_jpg, vendingmachine).
holds(s_2651_jpg, statue).
holds(s_2651_jpg, residential).

sample(s_4334_jpg).
holds(s_4334_jpg, building).
holds(s_4334_jpg, feature).
holds(s_4334_jpg, suburban).
holds(s_4334_jpg, door).
holds(s_4334_jpg, window).
holds(s_4334_jpg, awning).
holds(s_4334_jpg, table).
holds(s_4334_jpg, tiledrooftop).
holds(s_4334_jpg, vendingmachine).
holds(s_4334_jpg, wallsign).
holds(s_4334_jpg, statue).
holds(s_4334_jpg, pipe).
holds(s_4334_jpg, residential).

sample(s_10740_jpg).
holds(s_10740_jpg, building).
holds(s_10740_jpg, feature).
holds(s_10740_jpg, hotel).
holds(s_10740_jpg, door).
holds(s_10740_jpg, awning).
holds(s_10740_jpg, billboard).
holds(s_10740_jpg, porch).
holds(s_10740_jpg, sign).
holds(s_10740_jpg, tiledrooftop).
holds(s_10740_jpg, pipe).
holds(s_10740_jpg, machine).
holds(s_10740_jpg, commercial).

sample(s_1997_jpg).
holds(s_1997_jpg, building).
holds(s_1997_jpg, feature).
holds(s_1997_jpg, suburban).
holds(s_1997_jpg, door).
holds(s_1997_jpg, window).
holds(s_1997_jpg, awning).
holds(s_1997_jpg, porch).
holds(s_1997_jpg, tiledrooftop).
holds(s_1997_jpg, vendingmachine).
holds(s_1997_jpg, statue).
holds(s_1997_jpg, residential).

sample(s_3332_jpg).
holds(s_3332_jpg, building).
holds(s_3332_jpg, feature).
holds(s_3332_jpg, suburban).
holds(s_3332_jpg, door).
holds(s_3332_jpg, window).
holds(s_3332_jpg, awning).
holds(s_3332_jpg, porch).
holds(s_3332_jpg, table).
holds(s_3332_jpg, tiledrooftop).
holds(s_3332_jpg, vendingmachine).
holds(s_3332_jpg, wallsign).
holds(s_3332_jpg, statue).
holds(s_3332_jpg, pipe).
holds(s_3332_jpg, residential).

sample(s_285_jpg).
holds(s_285_jpg, building).
holds(s_285_jpg, feature).
holds(s_285_jpg, hotel).
holds(s_285_jpg, door).
holds(s_285_jpg, awning).
holds(s_285_jpg, billboard).
holds(s_285_jpg, porch).
holds(s_285_jpg, sign).
holds(s_285_jpg, tiledrooftop).
holds(s_285_jpg, chimney).
holds(s_285_jpg, pipe).
holds(s_285_jpg, machine).
holds(s_285_jpg, commercial).

sample(s_5477_jpg).
holds(s_5477_jpg, building).
holds(s_5477_jpg, feature).
holds(s_5477_jpg, suburban).
holds(s_5477_jpg, door).
holds(s_5477_jpg, window).
holds(s_5477_jpg, awning).
holds(s_5477_jpg, porch).
holds(s_5477_jpg, table).
holds(s_5477_jpg, tiledrooftop).
holds(s_5477_jpg, vendingmachine).
holds(s_5477_jpg, wallsign).
holds(s_5477_jpg, statue).
holds(s_5477_jpg, pipe).
holds(s_5477_jpg, residential).

sample(s_10369_jpg).
holds(s_10369_jpg, building).
holds(s_10369_jpg, feature).
holds(s_10369_jpg, constructionsite).
holds(s_10369_jpg, awning).
holds(s_10369_jpg, billboard).
holds(s_10369_jpg, porch).
holds(s_10369_jpg, tiledrooftop).
holds(s_10369_jpg, vendingmachine).
holds(s_10369_jpg, wallsign).
holds(s_10369_jpg, chimney).
holds(s_10369_jpg, pipe).
holds(s_10369_jpg, machine).
holds(s_10369_jpg, industrial).

sample(s_10778_jpg).
holds(s_10778_jpg, building).
holds(s_10778_jpg, feature).
holds(s_10778_jpg, suburban).
holds(s_10778_jpg, door).
holds(s_10778_jpg, window).
holds(s_10778_jpg, awning).
holds(s_10778_jpg, porch).
holds(s_10778_jpg, tiledrooftop).
holds(s_10778_jpg, vendingmachine).
holds(s_10778_jpg, statue).
holds(s_10778_jpg, pipe).
holds(s_10778_jpg, residential).

sample(s_14571_jpg).
holds(s_14571_jpg, building).
holds(s_14571_jpg, feature).
holds(s_14571_jpg, hotel).
holds(s_14571_jpg, door).
holds(s_14571_jpg, awning).
holds(s_14571_jpg, porch).
holds(s_14571_jpg, sign).
holds(s_14571_jpg, tiledrooftop).
holds(s_14571_jpg, statue).
holds(s_14571_jpg, pipe).
holds(s_14571_jpg, machine).
holds(s_14571_jpg, commercial).

sample(s_14577_jpg).
holds(s_14577_jpg, building).
holds(s_14577_jpg, feature).
holds(s_14577_jpg, hotel).
holds(s_14577_jpg, door).
holds(s_14577_jpg, awning).
holds(s_14577_jpg, porch).
holds(s_14577_jpg, sign).
holds(s_14577_jpg, tiledrooftop).
holds(s_14577_jpg, statue).
holds(s_14577_jpg, machine).
holds(s_14577_jpg, commercial).

sample(s_3317_jpg).
holds(s_3317_jpg, building).
holds(s_3317_jpg, feature).
holds(s_3317_jpg, suburban).
holds(s_3317_jpg, door).
holds(s_3317_jpg, window).
holds(s_3317_jpg, awning).
holds(s_3317_jpg, porch).
holds(s_3317_jpg, tiledrooftop).
holds(s_3317_jpg, vendingmachine).
holds(s_3317_jpg, wallsign).
holds(s_3317_jpg, statue).
holds(s_3317_jpg, pipe).
holds(s_3317_jpg, car).
holds(s_3317_jpg, residential).

sample(s_13124_jpg).
holds(s_13124_jpg, building).
holds(s_13124_jpg, feature).
holds(s_13124_jpg, suburban).
holds(s_13124_jpg, door).
holds(s_13124_jpg, awning).
holds(s_13124_jpg, porch).
holds(s_13124_jpg, tiledrooftop).
holds(s_13124_jpg, vendingmachine).
holds(s_13124_jpg, wallsign).
holds(s_13124_jpg, statue).
holds(s_13124_jpg, chimney).
holds(s_13124_jpg, pipe).
holds(s_13124_jpg, truck).
holds(s_13124_jpg, car).
holds(s_13124_jpg, residential).

sample(s_13559_jpg).
holds(s_13559_jpg, building).
holds(s_13559_jpg, feature).
holds(s_13559_jpg, suburban).
holds(s_13559_jpg, door).
holds(s_13559_jpg, awning).
holds(s_13559_jpg, billboard).
holds(s_13559_jpg, porch).
holds(s_13559_jpg, tiledrooftop).
holds(s_13559_jpg, vendingmachine).
holds(s_13559_jpg, wallsign).
holds(s_13559_jpg, statue).
holds(s_13559_jpg, chimney).
holds(s_13559_jpg, pipe).
holds(s_13559_jpg, machine).
holds(s_13559_jpg, truck).
holds(s_13559_jpg, car).
holds(s_13559_jpg, residential).

sample(s_9632_jpg).
holds(s_9632_jpg, building).
holds(s_9632_jpg, feature).
holds(s_9632_jpg, suburban).
holds(s_9632_jpg, door).
holds(s_9632_jpg, window).
holds(s_9632_jpg, awning).
holds(s_9632_jpg, porch).
holds(s_9632_jpg, tiledrooftop).
holds(s_9632_jpg, vendingmachine).
holds(s_9632_jpg, wallsign).
holds(s_9632_jpg, statue).
holds(s_9632_jpg, residential).

sample(s_14867_jpg).
holds(s_14867_jpg, building).
holds(s_14867_jpg, feature).
holds(s_14867_jpg, suburban).
holds(s_14867_jpg, door).
holds(s_14867_jpg, window).
holds(s_14867_jpg, awning).
holds(s_14867_jpg, porch).
holds(s_14867_jpg, tiledrooftop).
holds(s_14867_jpg, vendingmachine).
holds(s_14867_jpg, wallsign).
holds(s_14867_jpg, statue).
holds(s_14867_jpg, pipe).
holds(s_14867_jpg, residential).

sample(s_3460_jpg).
holds(s_3460_jpg, building).
holds(s_3460_jpg, feature).
holds(s_3460_jpg, constructionsite).
holds(s_3460_jpg, awning).
holds(s_3460_jpg, billboard).
holds(s_3460_jpg, porch).
holds(s_3460_jpg, tiledrooftop).
holds(s_3460_jpg, wallsign).
holds(s_3460_jpg, chimney).
holds(s_3460_jpg, pipe).
holds(s_3460_jpg, machine).
holds(s_3460_jpg, industrial).

sample(s_497_jpg).
holds(s_497_jpg, building).
holds(s_497_jpg, feature).
holds(s_497_jpg, suburban).
holds(s_497_jpg, door).
holds(s_497_jpg, window).
holds(s_497_jpg, awning).
holds(s_497_jpg, porch).
holds(s_497_jpg, table).
holds(s_497_jpg, tiledrooftop).
holds(s_497_jpg, vendingmachine).
holds(s_497_jpg, wallsign).
holds(s_497_jpg, statue).
holds(s_497_jpg, pipe).
holds(s_497_jpg, residential).

sample(s_9139_jpg).
holds(s_9139_jpg, building).
holds(s_9139_jpg, feature).
holds(s_9139_jpg, constructionsite).
holds(s_9139_jpg, door).
holds(s_9139_jpg, awning).
holds(s_9139_jpg, billboard).
holds(s_9139_jpg, porch).
holds(s_9139_jpg, tiledrooftop).
holds(s_9139_jpg, vendingmachine).
holds(s_9139_jpg, wallsign).
holds(s_9139_jpg, chimney).
holds(s_9139_jpg, pipe).
holds(s_9139_jpg, machine).
holds(s_9139_jpg, industrial).

sample(s_11240_jpg).
holds(s_11240_jpg, building).
holds(s_11240_jpg, feature).
holds(s_11240_jpg, suburban).
holds(s_11240_jpg, door).
holds(s_11240_jpg, window).
holds(s_11240_jpg, awning).
holds(s_11240_jpg, table).
holds(s_11240_jpg, tiledrooftop).
holds(s_11240_jpg, vendingmachine).
holds(s_11240_jpg, wallsign).
holds(s_11240_jpg, statue).
holds(s_11240_jpg, pipe).
holds(s_11240_jpg, residential).

sample(s_3641_jpg).
holds(s_3641_jpg, building).
holds(s_3641_jpg, feature).
holds(s_3641_jpg, suburban).
holds(s_3641_jpg, door).
holds(s_3641_jpg, window).
holds(s_3641_jpg, awning).
holds(s_3641_jpg, porch).
holds(s_3641_jpg, table).
holds(s_3641_jpg, tiledrooftop).
holds(s_3641_jpg, vendingmachine).
holds(s_3641_jpg, wallsign).
holds(s_3641_jpg, statue).
holds(s_3641_jpg, pipe).
holds(s_3641_jpg, car).
holds(s_3641_jpg, residential).

sample(s_14045_jpg).
holds(s_14045_jpg, building).
holds(s_14045_jpg, feature).
holds(s_14045_jpg, suburban).
holds(s_14045_jpg, door).
holds(s_14045_jpg, window).
holds(s_14045_jpg, awning).
holds(s_14045_jpg, porch).
holds(s_14045_jpg, table).
holds(s_14045_jpg, tiledrooftop).
holds(s_14045_jpg, vendingmachine).
holds(s_14045_jpg, wallsign).
holds(s_14045_jpg, statue).
holds(s_14045_jpg, pipe).
holds(s_14045_jpg, car).
holds(s_14045_jpg, residential).

sample(s_22_jpg).
holds(s_22_jpg, building).
holds(s_22_jpg, feature).
holds(s_22_jpg, constructionsite).
holds(s_22_jpg, awning).
holds(s_22_jpg, billboard).
holds(s_22_jpg, porch).
holds(s_22_jpg, tiledrooftop).
holds(s_22_jpg, wallsign).
holds(s_22_jpg, statue).
holds(s_22_jpg, chimney).
holds(s_22_jpg, pipe).
holds(s_22_jpg, machine).
holds(s_22_jpg, industrial).

sample(s_15997_jpg).
holds(s_15997_jpg, building).
holds(s_15997_jpg, feature).
holds(s_15997_jpg, constructionsite).
holds(s_15997_jpg, awning).
holds(s_15997_jpg, billboard).
holds(s_15997_jpg, porch).
holds(s_15997_jpg, tiledrooftop).
holds(s_15997_jpg, chimney).
holds(s_15997_jpg, pipe).
holds(s_15997_jpg, machine).
holds(s_15997_jpg, industrial).

sample(s_1538_jpg).
holds(s_1538_jpg, building).
holds(s_1538_jpg, feature).
holds(s_1538_jpg, suburban).
holds(s_1538_jpg, door).
holds(s_1538_jpg, window).
holds(s_1538_jpg, awning).
holds(s_1538_jpg, porch).
holds(s_1538_jpg, table).
holds(s_1538_jpg, tiledrooftop).
holds(s_1538_jpg, vendingmachine).
holds(s_1538_jpg, wallsign).
holds(s_1538_jpg, statue).
holds(s_1538_jpg, pipe).
holds(s_1538_jpg, residential).

sample(s_4618_jpg).
holds(s_4618_jpg, building).
holds(s_4618_jpg, feature).
holds(s_4618_jpg, constructionsite).
holds(s_4618_jpg, awning).
holds(s_4618_jpg, billboard).
holds(s_4618_jpg, porch).
holds(s_4618_jpg, tiledrooftop).
holds(s_4618_jpg, wallsign).
holds(s_4618_jpg, chimney).
holds(s_4618_jpg, machine).
holds(s_4618_jpg, industrial).

sample(s_13014_jpg).
holds(s_13014_jpg, building).
holds(s_13014_jpg, feature).
holds(s_13014_jpg, hotel).
holds(s_13014_jpg, door).
holds(s_13014_jpg, awning).
holds(s_13014_jpg, billboard).
holds(s_13014_jpg, porch).
holds(s_13014_jpg, sign).
holds(s_13014_jpg, tiledrooftop).
holds(s_13014_jpg, chimney).
holds(s_13014_jpg, pipe).
holds(s_13014_jpg, machine).
holds(s_13014_jpg, commercial).

sample(s_7057_jpg).
holds(s_7057_jpg, building).
holds(s_7057_jpg, feature).
holds(s_7057_jpg, constructionsite).
holds(s_7057_jpg, door).
holds(s_7057_jpg, awning).
holds(s_7057_jpg, billboard).
holds(s_7057_jpg, porch).
holds(s_7057_jpg, tiledrooftop).
holds(s_7057_jpg, wallsign).
holds(s_7057_jpg, chimney).
holds(s_7057_jpg, pipe).
holds(s_7057_jpg, machine).
holds(s_7057_jpg, industrial).

sample(s_8627_jpg).
holds(s_8627_jpg, building).
holds(s_8627_jpg, feature).
holds(s_8627_jpg, suburban).
holds(s_8627_jpg, door).
holds(s_8627_jpg, window).
holds(s_8627_jpg, awning).
holds(s_8627_jpg, porch).
holds(s_8627_jpg, table).
holds(s_8627_jpg, tiledrooftop).
holds(s_8627_jpg, vendingmachine).
holds(s_8627_jpg, wallsign).
holds(s_8627_jpg, statue).
holds(s_8627_jpg, pipe).
holds(s_8627_jpg, residential).

sample(s_6410_jpg).
holds(s_6410_jpg, building).
holds(s_6410_jpg, feature).
holds(s_6410_jpg, suburban).
holds(s_6410_jpg, door).
holds(s_6410_jpg, window).
holds(s_6410_jpg, awning).
holds(s_6410_jpg, porch).
holds(s_6410_jpg, tiledrooftop).
holds(s_6410_jpg, vendingmachine).
holds(s_6410_jpg, wallsign).
holds(s_6410_jpg, statue).
holds(s_6410_jpg, residential).

sample(s_7906_jpg).
holds(s_7906_jpg, building).
holds(s_7906_jpg, feature).
holds(s_7906_jpg, constructionsite).
holds(s_7906_jpg, awning).
holds(s_7906_jpg, billboard).
holds(s_7906_jpg, porch).
holds(s_7906_jpg, tiledrooftop).
holds(s_7906_jpg, wallsign).
holds(s_7906_jpg, chimney).
holds(s_7906_jpg, machine).
holds(s_7906_jpg, industrial).

sample(s_2720_jpg).
holds(s_2720_jpg, building).
holds(s_2720_jpg, feature).
holds(s_2720_jpg, suburban).
holds(s_2720_jpg, door).
holds(s_2720_jpg, awning).
holds(s_2720_jpg, porch).
holds(s_2720_jpg, tiledrooftop).
holds(s_2720_jpg, vendingmachine).
holds(s_2720_jpg, wallsign).
holds(s_2720_jpg, statue).
holds(s_2720_jpg, chimney).
holds(s_2720_jpg, pipe).
holds(s_2720_jpg, machine).
holds(s_2720_jpg, truck).
holds(s_2720_jpg, car).
holds(s_2720_jpg, residential).

sample(s_2453_jpg).
holds(s_2453_jpg, building).
holds(s_2453_jpg, feature).
holds(s_2453_jpg, suburban).
holds(s_2453_jpg, door).
holds(s_2453_jpg, window).
holds(s_2453_jpg, awning).
holds(s_2453_jpg, porch).
holds(s_2453_jpg, tiledrooftop).
holds(s_2453_jpg, vendingmachine).
holds(s_2453_jpg, wallsign).
holds(s_2453_jpg, statue).
holds(s_2453_jpg, residential).

sample(s_8013_jpg).
holds(s_8013_jpg, building).
holds(s_8013_jpg, feature).
holds(s_8013_jpg, hotel).
holds(s_8013_jpg, door).
holds(s_8013_jpg, awning).
holds(s_8013_jpg, billboard).
holds(s_8013_jpg, porch).
holds(s_8013_jpg, sign).
holds(s_8013_jpg, tiledrooftop).
holds(s_8013_jpg, chimney).
holds(s_8013_jpg, pipe).
holds(s_8013_jpg, machine).
holds(s_8013_jpg, truck).
holds(s_8013_jpg, commercial).

sample(s_7040_jpg).
holds(s_7040_jpg, building).
holds(s_7040_jpg, feature).
holds(s_7040_jpg, suburban).
holds(s_7040_jpg, door).
holds(s_7040_jpg, window).
holds(s_7040_jpg, awning).
holds(s_7040_jpg, porch).
holds(s_7040_jpg, table).
holds(s_7040_jpg, tiledrooftop).
holds(s_7040_jpg, vendingmachine).
holds(s_7040_jpg, wallsign).
holds(s_7040_jpg, statue).
holds(s_7040_jpg, chimney).
holds(s_7040_jpg, pipe).
holds(s_7040_jpg, truck).
holds(s_7040_jpg, car).
holds(s_7040_jpg, residential).

sample(s_7264_jpg).
holds(s_7264_jpg, building).
holds(s_7264_jpg, feature).
holds(s_7264_jpg, constructionsite).
holds(s_7264_jpg, awning).
holds(s_7264_jpg, billboard).
holds(s_7264_jpg, porch).
holds(s_7264_jpg, tiledrooftop).
holds(s_7264_jpg, wallsign).
holds(s_7264_jpg, chimney).
holds(s_7264_jpg, pipe).
holds(s_7264_jpg, machine).
holds(s_7264_jpg, industrial).

sample(s_15427_jpg).
holds(s_15427_jpg, building).
holds(s_15427_jpg, feature).
holds(s_15427_jpg, constructionsite).
holds(s_15427_jpg, awning).
holds(s_15427_jpg, billboard).
holds(s_15427_jpg, porch).
holds(s_15427_jpg, tiledrooftop).
holds(s_15427_jpg, wallsign).
holds(s_15427_jpg, chimney).
holds(s_15427_jpg, pipe).
holds(s_15427_jpg, machine).
holds(s_15427_jpg, industrial).

sample(s_11237_jpg).
holds(s_11237_jpg, building).
holds(s_11237_jpg, feature).
holds(s_11237_jpg, suburban).
holds(s_11237_jpg, door).
holds(s_11237_jpg, window).
holds(s_11237_jpg, awning).
holds(s_11237_jpg, porch).
holds(s_11237_jpg, tiledrooftop).
holds(s_11237_jpg, vendingmachine).
holds(s_11237_jpg, wallsign).
holds(s_11237_jpg, statue).
holds(s_11237_jpg, pipe).
holds(s_11237_jpg, residential).

sample(s_542_jpg).
holds(s_542_jpg, building).
holds(s_542_jpg, feature).
holds(s_542_jpg, suburban).
holds(s_542_jpg, door).
holds(s_542_jpg, window).
holds(s_542_jpg, awning).
holds(s_542_jpg, porch).
holds(s_542_jpg, tiledrooftop).
holds(s_542_jpg, vendingmachine).
holds(s_542_jpg, wallsign).
holds(s_542_jpg, statue).
holds(s_542_jpg, residential).

sample(s_8352_jpg).
holds(s_8352_jpg, building).
holds(s_8352_jpg, feature).
holds(s_8352_jpg, hotel).
holds(s_8352_jpg, door).
holds(s_8352_jpg, window).
holds(s_8352_jpg, awning).
holds(s_8352_jpg, porch).
holds(s_8352_jpg, tiledrooftop).
holds(s_8352_jpg, vendingmachine).
holds(s_8352_jpg, statue).
holds(s_8352_jpg, pipe).
holds(s_8352_jpg, machine).
holds(s_8352_jpg, commercial).

sample(s_15799_jpg).
holds(s_15799_jpg, building).
holds(s_15799_jpg, feature).
holds(s_15799_jpg, constructionsite).
holds(s_15799_jpg, awning).
holds(s_15799_jpg, billboard).
holds(s_15799_jpg, porch).
holds(s_15799_jpg, tiledrooftop).
holds(s_15799_jpg, chimney).
holds(s_15799_jpg, pipe).
holds(s_15799_jpg, machine).
holds(s_15799_jpg, industrial).

sample(s_5741_jpg).
holds(s_5741_jpg, building).
holds(s_5741_jpg, feature).
holds(s_5741_jpg, suburban).
holds(s_5741_jpg, door).
holds(s_5741_jpg, window).
holds(s_5741_jpg, awning).
holds(s_5741_jpg, porch).
holds(s_5741_jpg, table).
holds(s_5741_jpg, tiledrooftop).
holds(s_5741_jpg, vendingmachine).
holds(s_5741_jpg, wallsign).
holds(s_5741_jpg, statue).
holds(s_5741_jpg, pipe).
holds(s_5741_jpg, car).
holds(s_5741_jpg, residential).

sample(s_5040_jpg).
holds(s_5040_jpg, building).
holds(s_5040_jpg, feature).
holds(s_5040_jpg, hotel).
holds(s_5040_jpg, door).
holds(s_5040_jpg, awning).
holds(s_5040_jpg, billboard).
holds(s_5040_jpg, porch).
holds(s_5040_jpg, sign).
holds(s_5040_jpg, tiledrooftop).
holds(s_5040_jpg, pipe).
holds(s_5040_jpg, machine).
holds(s_5040_jpg, commercial).

sample(s_9859_jpg).
holds(s_9859_jpg, building).
holds(s_9859_jpg, feature).
holds(s_9859_jpg, constructionsite).
holds(s_9859_jpg, awning).
holds(s_9859_jpg, billboard).
holds(s_9859_jpg, porch).
holds(s_9859_jpg, tiledrooftop).
holds(s_9859_jpg, wallsign).
holds(s_9859_jpg, chimney).
holds(s_9859_jpg, pipe).
holds(s_9859_jpg, machine).
holds(s_9859_jpg, industrial).

sample(s_4985_jpg).
holds(s_4985_jpg, building).
holds(s_4985_jpg, feature).
holds(s_4985_jpg, suburban).
holds(s_4985_jpg, door).
holds(s_4985_jpg, awning).
holds(s_4985_jpg, table).
holds(s_4985_jpg, tiledrooftop).
holds(s_4985_jpg, vendingmachine).
holds(s_4985_jpg, wallsign).
holds(s_4985_jpg, statue).
holds(s_4985_jpg, chimney).
holds(s_4985_jpg, pipe).
holds(s_4985_jpg, truck).
holds(s_4985_jpg, car).
holds(s_4985_jpg, residential).

sample(s_3006_jpg).
holds(s_3006_jpg, building).
holds(s_3006_jpg, feature).
holds(s_3006_jpg, hotel).
holds(s_3006_jpg, door).
holds(s_3006_jpg, awning).
holds(s_3006_jpg, billboard).
holds(s_3006_jpg, porch).
holds(s_3006_jpg, sign).
holds(s_3006_jpg, tiledrooftop).
holds(s_3006_jpg, chimney).
holds(s_3006_jpg, pipe).
holds(s_3006_jpg, machine).
holds(s_3006_jpg, truck).
holds(s_3006_jpg, commercial).

sample(s_6611_jpg).
holds(s_6611_jpg, building).
holds(s_6611_jpg, feature).
holds(s_6611_jpg, suburban).
holds(s_6611_jpg, door).
holds(s_6611_jpg, window).
holds(s_6611_jpg, awning).
holds(s_6611_jpg, porch).
holds(s_6611_jpg, tiledrooftop).
holds(s_6611_jpg, vendingmachine).
holds(s_6611_jpg, wallsign).
holds(s_6611_jpg, statue).
holds(s_6611_jpg, residential).

sample(s_11362_jpg).
holds(s_11362_jpg, building).
holds(s_11362_jpg, feature).
holds(s_11362_jpg, constructionsite).
holds(s_11362_jpg, awning).
holds(s_11362_jpg, billboard).
holds(s_11362_jpg, porch).
holds(s_11362_jpg, tiledrooftop).
holds(s_11362_jpg, wallsign).
holds(s_11362_jpg, chimney).
holds(s_11362_jpg, pipe).
holds(s_11362_jpg, machine).
holds(s_11362_jpg, industrial).

sample(s_12763_jpg).
holds(s_12763_jpg, building).
holds(s_12763_jpg, feature).
holds(s_12763_jpg, constructionsite).
holds(s_12763_jpg, awning).
holds(s_12763_jpg, billboard).
holds(s_12763_jpg, porch).
holds(s_12763_jpg, tiledrooftop).
holds(s_12763_jpg, wallsign).
holds(s_12763_jpg, chimney).
holds(s_12763_jpg, pipe).
holds(s_12763_jpg, machine).
holds(s_12763_jpg, industrial).

sample(s_8745_jpg).
holds(s_8745_jpg, building).
holds(s_8745_jpg, feature).
holds(s_8745_jpg, hotel).
holds(s_8745_jpg, door).
holds(s_8745_jpg, awning).
holds(s_8745_jpg, billboard).
holds(s_8745_jpg, porch).
holds(s_8745_jpg, sign).
holds(s_8745_jpg, tiledrooftop).
holds(s_8745_jpg, pipe).
holds(s_8745_jpg, machine).
holds(s_8745_jpg, commercial).

sample(s_3271_jpg).
holds(s_3271_jpg, building).
holds(s_3271_jpg, feature).
holds(s_3271_jpg, constructionsite).
holds(s_3271_jpg, awning).
holds(s_3271_jpg, billboard).
holds(s_3271_jpg, porch).
holds(s_3271_jpg, tiledrooftop).
holds(s_3271_jpg, wallsign).
holds(s_3271_jpg, chimney).
holds(s_3271_jpg, pipe).
holds(s_3271_jpg, machine).
holds(s_3271_jpg, industrial).

sample(s_10735_jpg).
holds(s_10735_jpg, building).
holds(s_10735_jpg, feature).
holds(s_10735_jpg, constructionsite).
holds(s_10735_jpg, awning).
holds(s_10735_jpg, billboard).
holds(s_10735_jpg, porch).
holds(s_10735_jpg, tiledrooftop).
holds(s_10735_jpg, wallsign).
holds(s_10735_jpg, chimney).
holds(s_10735_jpg, pipe).
holds(s_10735_jpg, machine).
holds(s_10735_jpg, industrial).

sample(s_2240_jpg).
holds(s_2240_jpg, building).
holds(s_2240_jpg, feature).
holds(s_2240_jpg, suburban).
holds(s_2240_jpg, door).
holds(s_2240_jpg, window).
holds(s_2240_jpg, awning).
holds(s_2240_jpg, porch).
holds(s_2240_jpg, tiledrooftop).
holds(s_2240_jpg, vendingmachine).
holds(s_2240_jpg, wallsign).
holds(s_2240_jpg, statue).
holds(s_2240_jpg, pipe).
holds(s_2240_jpg, car).
holds(s_2240_jpg, residential).

sample(s_9729_jpg).
holds(s_9729_jpg, building).
holds(s_9729_jpg, feature).
holds(s_9729_jpg, hotel).
holds(s_9729_jpg, door).
holds(s_9729_jpg, awning).
holds(s_9729_jpg, billboard).
holds(s_9729_jpg, porch).
holds(s_9729_jpg, sign).
holds(s_9729_jpg, tiledrooftop).
holds(s_9729_jpg, statue).
holds(s_9729_jpg, pipe).
holds(s_9729_jpg, machine).
holds(s_9729_jpg, commercial).

sample(s_11137_jpg).
holds(s_11137_jpg, building).
holds(s_11137_jpg, feature).
holds(s_11137_jpg, constructionsite).
holds(s_11137_jpg, awning).
holds(s_11137_jpg, billboard).
holds(s_11137_jpg, porch).
holds(s_11137_jpg, tiledrooftop).
holds(s_11137_jpg, wallsign).
holds(s_11137_jpg, chimney).
holds(s_11137_jpg, pipe).
holds(s_11137_jpg, machine).
holds(s_11137_jpg, industrial).

sample(s_15567_jpg).
holds(s_15567_jpg, building).
holds(s_15567_jpg, feature).
holds(s_15567_jpg, hotel).
holds(s_15567_jpg, door).
holds(s_15567_jpg, awning).
holds(s_15567_jpg, porch).
holds(s_15567_jpg, sign).
holds(s_15567_jpg, tiledrooftop).
holds(s_15567_jpg, statue).
holds(s_15567_jpg, pipe).
holds(s_15567_jpg, machine).
holds(s_15567_jpg, commercial).

sample(s_8837_jpg).
holds(s_8837_jpg, building).
holds(s_8837_jpg, feature).
holds(s_8837_jpg, suburban).
holds(s_8837_jpg, door).
holds(s_8837_jpg, window).
holds(s_8837_jpg, awning).
holds(s_8837_jpg, porch).
holds(s_8837_jpg, tiledrooftop).
holds(s_8837_jpg, vendingmachine).
holds(s_8837_jpg, wallsign).
holds(s_8837_jpg, statue).
holds(s_8837_jpg, pipe).
holds(s_8837_jpg, machine).
holds(s_8837_jpg, residential).

sample(s_7295_jpg).
holds(s_7295_jpg, building).
holds(s_7295_jpg, feature).
holds(s_7295_jpg, suburban).
holds(s_7295_jpg, door).
holds(s_7295_jpg, window).
holds(s_7295_jpg, awning).
holds(s_7295_jpg, porch).
holds(s_7295_jpg, tiledrooftop).
holds(s_7295_jpg, vendingmachine).
holds(s_7295_jpg, statue).
holds(s_7295_jpg, pipe).
holds(s_7295_jpg, residential).

sample(s_12851_jpg).
holds(s_12851_jpg, building).
holds(s_12851_jpg, feature).
holds(s_12851_jpg, suburban).
holds(s_12851_jpg, door).
holds(s_12851_jpg, window).
holds(s_12851_jpg, awning).
holds(s_12851_jpg, porch).
holds(s_12851_jpg, tiledrooftop).
holds(s_12851_jpg, vendingmachine).
holds(s_12851_jpg, statue).
holds(s_12851_jpg, residential).

sample(s_10757_jpg).
holds(s_10757_jpg, building).
holds(s_10757_jpg, feature).
holds(s_10757_jpg, suburban).
holds(s_10757_jpg, door).
holds(s_10757_jpg, window).
holds(s_10757_jpg, awning).
holds(s_10757_jpg, porch).
holds(s_10757_jpg, tiledrooftop).
holds(s_10757_jpg, vendingmachine).
holds(s_10757_jpg, wallsign).
holds(s_10757_jpg, statue).
holds(s_10757_jpg, residential).

sample(s_2747_jpg).
holds(s_2747_jpg, building).
holds(s_2747_jpg, feature).
holds(s_2747_jpg, suburban).
holds(s_2747_jpg, door).
holds(s_2747_jpg, window).
holds(s_2747_jpg, awning).
holds(s_2747_jpg, porch).
holds(s_2747_jpg, tiledrooftop).
holds(s_2747_jpg, vendingmachine).
holds(s_2747_jpg, statue).
holds(s_2747_jpg, residential).

sample(s_3650_jpg).
holds(s_3650_jpg, building).
holds(s_3650_jpg, feature).
holds(s_3650_jpg, suburban).
holds(s_3650_jpg, door).
holds(s_3650_jpg, window).
holds(s_3650_jpg, awning).
holds(s_3650_jpg, porch).
holds(s_3650_jpg, tiledrooftop).
holds(s_3650_jpg, vendingmachine).
holds(s_3650_jpg, statue).
holds(s_3650_jpg, residential).

sample(s_4608_jpg).
holds(s_4608_jpg, building).
holds(s_4608_jpg, feature).
holds(s_4608_jpg, hotel).
holds(s_4608_jpg, door).
holds(s_4608_jpg, awning).
holds(s_4608_jpg, billboard).
holds(s_4608_jpg, porch).
holds(s_4608_jpg, sign).
holds(s_4608_jpg, tiledrooftop).
holds(s_4608_jpg, chimney).
holds(s_4608_jpg, pipe).
holds(s_4608_jpg, machine).
holds(s_4608_jpg, commercial).

sample(s_1605_jpg).
holds(s_1605_jpg, building).
holds(s_1605_jpg, feature).
holds(s_1605_jpg, hotel).
holds(s_1605_jpg, door).
holds(s_1605_jpg, awning).
holds(s_1605_jpg, porch).
holds(s_1605_jpg, tiledrooftop).
holds(s_1605_jpg, statue).
holds(s_1605_jpg, chimney).
holds(s_1605_jpg, pipe).
holds(s_1605_jpg, machine).
holds(s_1605_jpg, commercial).

sample(s_701_jpg).
holds(s_701_jpg, building).
holds(s_701_jpg, feature).
holds(s_701_jpg, suburban).
holds(s_701_jpg, door).
holds(s_701_jpg, window).
holds(s_701_jpg, awning).
holds(s_701_jpg, porch).
holds(s_701_jpg, tiledrooftop).
holds(s_701_jpg, vendingmachine).
holds(s_701_jpg, statue).
holds(s_701_jpg, residential).

sample(s_12671_jpg).
holds(s_12671_jpg, building).
holds(s_12671_jpg, feature).
holds(s_12671_jpg, suburban).
holds(s_12671_jpg, door).
holds(s_12671_jpg, window).
holds(s_12671_jpg, awning).
holds(s_12671_jpg, porch).
holds(s_12671_jpg, tiledrooftop).
holds(s_12671_jpg, vendingmachine).
holds(s_12671_jpg, statue).
holds(s_12671_jpg, residential).

sample(s_14837_jpg).
holds(s_14837_jpg, building).
holds(s_14837_jpg, feature).
holds(s_14837_jpg, suburban).
holds(s_14837_jpg, door).
holds(s_14837_jpg, awning).
holds(s_14837_jpg, table).
holds(s_14837_jpg, vendingmachine).
holds(s_14837_jpg, wallsign).
holds(s_14837_jpg, statue).
holds(s_14837_jpg, chimney).
holds(s_14837_jpg, pipe).
holds(s_14837_jpg, truck).
holds(s_14837_jpg, car).
holds(s_14837_jpg, residential).

sample(s_6672_jpg).
holds(s_6672_jpg, building).
holds(s_6672_jpg, feature).
holds(s_6672_jpg, hotel).
holds(s_6672_jpg, door).
holds(s_6672_jpg, awning).
holds(s_6672_jpg, billboard).
holds(s_6672_jpg, porch).
holds(s_6672_jpg, sign).
holds(s_6672_jpg, tiledrooftop).
holds(s_6672_jpg, statue).
holds(s_6672_jpg, chimney).
holds(s_6672_jpg, machine).
holds(s_6672_jpg, commercial).

sample(s_12834_jpg).
holds(s_12834_jpg, building).
holds(s_12834_jpg, feature).
holds(s_12834_jpg, hotel).
holds(s_12834_jpg, door).
holds(s_12834_jpg, awning).
holds(s_12834_jpg, billboard).
holds(s_12834_jpg, porch).
holds(s_12834_jpg, sign).
holds(s_12834_jpg, tiledrooftop).
holds(s_12834_jpg, pipe).
holds(s_12834_jpg, machine).
holds(s_12834_jpg, commercial).

sample(s_10716_jpg).
holds(s_10716_jpg, building).
holds(s_10716_jpg, feature).
holds(s_10716_jpg, hotel).
holds(s_10716_jpg, door).
holds(s_10716_jpg, awning).
holds(s_10716_jpg, porch).
holds(s_10716_jpg, sign).
holds(s_10716_jpg, tiledrooftop).
holds(s_10716_jpg, statue).
holds(s_10716_jpg, pipe).
holds(s_10716_jpg, machine).
holds(s_10716_jpg, commercial).

sample(s_3326_jpg).
holds(s_3326_jpg, building).
holds(s_3326_jpg, feature).
holds(s_3326_jpg, suburban).
holds(s_3326_jpg, door).
holds(s_3326_jpg, window).
holds(s_3326_jpg, awning).
holds(s_3326_jpg, porch).
holds(s_3326_jpg, table).
holds(s_3326_jpg, tiledrooftop).
holds(s_3326_jpg, vendingmachine).
holds(s_3326_jpg, wallsign).
holds(s_3326_jpg, statue).
holds(s_3326_jpg, pipe).
holds(s_3326_jpg, residential).

sample(s_2163_jpg).
holds(s_2163_jpg, building).
holds(s_2163_jpg, feature).
holds(s_2163_jpg, hotel).
holds(s_2163_jpg, door).
holds(s_2163_jpg, awning).
holds(s_2163_jpg, billboard).
holds(s_2163_jpg, porch).
holds(s_2163_jpg, sign).
holds(s_2163_jpg, tiledrooftop).
holds(s_2163_jpg, pipe).
holds(s_2163_jpg, machine).
holds(s_2163_jpg, commercial).

sample(s_884_jpg).
holds(s_884_jpg, building).
holds(s_884_jpg, feature).
holds(s_884_jpg, suburban).
holds(s_884_jpg, door).
holds(s_884_jpg, window).
holds(s_884_jpg, awning).
holds(s_884_jpg, table).
holds(s_884_jpg, tiledrooftop).
holds(s_884_jpg, vendingmachine).
holds(s_884_jpg, wallsign).
holds(s_884_jpg, statue).
holds(s_884_jpg, pipe).
holds(s_884_jpg, residential).

sample(s_13820_jpg).
holds(s_13820_jpg, building).
holds(s_13820_jpg, feature).
holds(s_13820_jpg, suburban).
holds(s_13820_jpg, door).
holds(s_13820_jpg, window).
holds(s_13820_jpg, awning).
holds(s_13820_jpg, porch).
holds(s_13820_jpg, tiledrooftop).
holds(s_13820_jpg, vendingmachine).
holds(s_13820_jpg, statue).
holds(s_13820_jpg, residential).

sample(s_6730_jpg).
holds(s_6730_jpg, building).
holds(s_6730_jpg, feature).
holds(s_6730_jpg, constructionsite).
holds(s_6730_jpg, awning).
holds(s_6730_jpg, billboard).
holds(s_6730_jpg, porch).
holds(s_6730_jpg, tiledrooftop).
holds(s_6730_jpg, vendingmachine).
holds(s_6730_jpg, wallsign).
holds(s_6730_jpg, chimney).
holds(s_6730_jpg, pipe).
holds(s_6730_jpg, machine).
holds(s_6730_jpg, industrial).

sample(s_7420_jpg).
holds(s_7420_jpg, building).
holds(s_7420_jpg, feature).
holds(s_7420_jpg, constructionsite).
holds(s_7420_jpg, awning).
holds(s_7420_jpg, billboard).
holds(s_7420_jpg, porch).
holds(s_7420_jpg, tiledrooftop).
holds(s_7420_jpg, wallsign).
holds(s_7420_jpg, chimney).
holds(s_7420_jpg, pipe).
holds(s_7420_jpg, machine).
holds(s_7420_jpg, industrial).

sample(s_7846_jpg).
holds(s_7846_jpg, building).
holds(s_7846_jpg, feature).
holds(s_7846_jpg, constructionsite).
holds(s_7846_jpg, awning).
holds(s_7846_jpg, billboard).
holds(s_7846_jpg, porch).
holds(s_7846_jpg, tiledrooftop).
holds(s_7846_jpg, wallsign).
holds(s_7846_jpg, chimney).
holds(s_7846_jpg, pipe).
holds(s_7846_jpg, machine).
holds(s_7846_jpg, industrial).

sample(s_12459_jpg).
holds(s_12459_jpg, building).
holds(s_12459_jpg, feature).
holds(s_12459_jpg, hotel).
holds(s_12459_jpg, door).
holds(s_12459_jpg, awning).
holds(s_12459_jpg, billboard).
holds(s_12459_jpg, porch).
holds(s_12459_jpg, tiledrooftop).
holds(s_12459_jpg, statue).
holds(s_12459_jpg, chimney).
holds(s_12459_jpg, pipe).
holds(s_12459_jpg, machine).
holds(s_12459_jpg, commercial).

sample(s_6760_jpg).
holds(s_6760_jpg, building).
holds(s_6760_jpg, feature).
holds(s_6760_jpg, constructionsite).
holds(s_6760_jpg, door).
holds(s_6760_jpg, awning).
holds(s_6760_jpg, billboard).
holds(s_6760_jpg, porch).
holds(s_6760_jpg, tiledrooftop).
holds(s_6760_jpg, vendingmachine).
holds(s_6760_jpg, wallsign).
holds(s_6760_jpg, statue).
holds(s_6760_jpg, chimney).
holds(s_6760_jpg, pipe).
holds(s_6760_jpg, machine).
holds(s_6760_jpg, industrial).

sample(s_2673_jpg).
holds(s_2673_jpg, building).
holds(s_2673_jpg, feature).
holds(s_2673_jpg, hotel).
holds(s_2673_jpg, door).
holds(s_2673_jpg, awning).
holds(s_2673_jpg, billboard).
holds(s_2673_jpg, porch).
holds(s_2673_jpg, sign).
holds(s_2673_jpg, tiledrooftop).
holds(s_2673_jpg, statue).
holds(s_2673_jpg, chimney).
holds(s_2673_jpg, machine).
holds(s_2673_jpg, commercial).

sample(s_11464_jpg).
holds(s_11464_jpg, building).
holds(s_11464_jpg, feature).
holds(s_11464_jpg, constructionsite).
holds(s_11464_jpg, awning).
holds(s_11464_jpg, billboard).
holds(s_11464_jpg, porch).
holds(s_11464_jpg, tiledrooftop).
holds(s_11464_jpg, wallsign).
holds(s_11464_jpg, chimney).
holds(s_11464_jpg, pipe).
holds(s_11464_jpg, machine).
holds(s_11464_jpg, industrial).

sample(s_13245_jpg).
holds(s_13245_jpg, building).
holds(s_13245_jpg, feature).
holds(s_13245_jpg, suburban).
holds(s_13245_jpg, door).
holds(s_13245_jpg, window).
holds(s_13245_jpg, awning).
holds(s_13245_jpg, porch).
holds(s_13245_jpg, tiledrooftop).
holds(s_13245_jpg, vendingmachine).
holds(s_13245_jpg, statue).
holds(s_13245_jpg, pipe).
holds(s_13245_jpg, machine).
holds(s_13245_jpg, residential).

sample(s_5938_jpg).
holds(s_5938_jpg, building).
holds(s_5938_jpg, feature).
holds(s_5938_jpg, constructionsite).
holds(s_5938_jpg, awning).
holds(s_5938_jpg, billboard).
holds(s_5938_jpg, porch).
holds(s_5938_jpg, tiledrooftop).
holds(s_5938_jpg, vendingmachine).
holds(s_5938_jpg, wallsign).
holds(s_5938_jpg, chimney).
holds(s_5938_jpg, pipe).
holds(s_5938_jpg, machine).
holds(s_5938_jpg, industrial).

sample(s_4652_jpg).
holds(s_4652_jpg, building).
holds(s_4652_jpg, feature).
holds(s_4652_jpg, suburban).
holds(s_4652_jpg, door).
holds(s_4652_jpg, window).
holds(s_4652_jpg, awning).
holds(s_4652_jpg, porch).
holds(s_4652_jpg, tiledrooftop).
holds(s_4652_jpg, vendingmachine).
holds(s_4652_jpg, wallsign).
holds(s_4652_jpg, statue).
holds(s_4652_jpg, residential).

sample(s_1500_jpg).
holds(s_1500_jpg, building).
holds(s_1500_jpg, feature).
holds(s_1500_jpg, hotel).
holds(s_1500_jpg, door).
holds(s_1500_jpg, awning).
holds(s_1500_jpg, billboard).
holds(s_1500_jpg, porch).
holds(s_1500_jpg, sign).
holds(s_1500_jpg, tiledrooftop).
holds(s_1500_jpg, pipe).
holds(s_1500_jpg, machine).
holds(s_1500_jpg, commercial).

sample(s_11603_jpg).
holds(s_11603_jpg, building).
holds(s_11603_jpg, feature).
holds(s_11603_jpg, suburban).
holds(s_11603_jpg, door).
holds(s_11603_jpg, window).
holds(s_11603_jpg, awning).
holds(s_11603_jpg, porch).
holds(s_11603_jpg, tiledrooftop).
holds(s_11603_jpg, vendingmachine).
holds(s_11603_jpg, statue).
holds(s_11603_jpg, residential).

sample(s_6791_jpg).
holds(s_6791_jpg, building).
holds(s_6791_jpg, feature).
holds(s_6791_jpg, suburban).
holds(s_6791_jpg, door).
holds(s_6791_jpg, window).
holds(s_6791_jpg, awning).
holds(s_6791_jpg, table).
holds(s_6791_jpg, tiledrooftop).
holds(s_6791_jpg, vendingmachine).
holds(s_6791_jpg, wallsign).
holds(s_6791_jpg, statue).
holds(s_6791_jpg, pipe).
holds(s_6791_jpg, car).
holds(s_6791_jpg, residential).

sample(s_5577_jpg).
holds(s_5577_jpg, building).
holds(s_5577_jpg, feature).
holds(s_5577_jpg, hotel).
holds(s_5577_jpg, door).
holds(s_5577_jpg, awning).
holds(s_5577_jpg, billboard).
holds(s_5577_jpg, porch).
holds(s_5577_jpg, tiledrooftop).
holds(s_5577_jpg, statue).
holds(s_5577_jpg, chimney).
holds(s_5577_jpg, machine).
holds(s_5577_jpg, commercial).

sample(s_1320_jpg).
holds(s_1320_jpg, building).
holds(s_1320_jpg, feature).
holds(s_1320_jpg, hotel).
holds(s_1320_jpg, door).
holds(s_1320_jpg, awning).
holds(s_1320_jpg, billboard).
holds(s_1320_jpg, porch).
holds(s_1320_jpg, sign).
holds(s_1320_jpg, tiledrooftop).
holds(s_1320_jpg, chimney).
holds(s_1320_jpg, pipe).
holds(s_1320_jpg, machine).
holds(s_1320_jpg, truck).
holds(s_1320_jpg, commercial).

sample(s_7275_jpg).
holds(s_7275_jpg, building).
holds(s_7275_jpg, feature).
holds(s_7275_jpg, hotel).
holds(s_7275_jpg, door).
holds(s_7275_jpg, awning).
holds(s_7275_jpg, billboard).
holds(s_7275_jpg, porch).
holds(s_7275_jpg, sign).
holds(s_7275_jpg, tiledrooftop).
holds(s_7275_jpg, pipe).
holds(s_7275_jpg, machine).
holds(s_7275_jpg, commercial).

sample(s_5417_jpg).
holds(s_5417_jpg, building).
holds(s_5417_jpg, feature).
holds(s_5417_jpg, suburban).
holds(s_5417_jpg, door).
holds(s_5417_jpg, window).
holds(s_5417_jpg, awning).
holds(s_5417_jpg, porch).
holds(s_5417_jpg, tiledrooftop).
holds(s_5417_jpg, vendingmachine).
holds(s_5417_jpg, wallsign).
holds(s_5417_jpg, statue).
holds(s_5417_jpg, pipe).
holds(s_5417_jpg, car).
holds(s_5417_jpg, residential).

sample(s_14993_jpg).
holds(s_14993_jpg, building).
holds(s_14993_jpg, feature).
holds(s_14993_jpg, suburban).
holds(s_14993_jpg, door).
holds(s_14993_jpg, window).
holds(s_14993_jpg, awning).
holds(s_14993_jpg, porch).
holds(s_14993_jpg, tiledrooftop).
holds(s_14993_jpg, vendingmachine).
holds(s_14993_jpg, wallsign).
holds(s_14993_jpg, statue).
holds(s_14993_jpg, residential).

sample(s_13264_jpg).
holds(s_13264_jpg, building).
holds(s_13264_jpg, feature).
holds(s_13264_jpg, constructionsite).
holds(s_13264_jpg, door).
holds(s_13264_jpg, awning).
holds(s_13264_jpg, billboard).
holds(s_13264_jpg, porch).
holds(s_13264_jpg, tiledrooftop).
holds(s_13264_jpg, vendingmachine).
holds(s_13264_jpg, wallsign).
holds(s_13264_jpg, statue).
holds(s_13264_jpg, chimney).
holds(s_13264_jpg, pipe).
holds(s_13264_jpg, machine).
holds(s_13264_jpg, industrial).

sample(s_6869_jpg).
holds(s_6869_jpg, building).
holds(s_6869_jpg, feature).
holds(s_6869_jpg, suburban).
holds(s_6869_jpg, door).
holds(s_6869_jpg, window).
holds(s_6869_jpg, awning).
holds(s_6869_jpg, porch).
holds(s_6869_jpg, tiledrooftop).
holds(s_6869_jpg, vendingmachine).
holds(s_6869_jpg, wallsign).
holds(s_6869_jpg, statue).
holds(s_6869_jpg, pipe).
holds(s_6869_jpg, residential).

sample(s_14099_jpg).
holds(s_14099_jpg, building).
holds(s_14099_jpg, feature).
holds(s_14099_jpg, suburban).
holds(s_14099_jpg, door).
holds(s_14099_jpg, window).
holds(s_14099_jpg, awning).
holds(s_14099_jpg, table).
holds(s_14099_jpg, tiledrooftop).
holds(s_14099_jpg, vendingmachine).
holds(s_14099_jpg, wallsign).
holds(s_14099_jpg, statue).
holds(s_14099_jpg, pipe).
holds(s_14099_jpg, car).
holds(s_14099_jpg, residential).

sample(s_11318_jpg).
holds(s_11318_jpg, building).
holds(s_11318_jpg, feature).
holds(s_11318_jpg, suburban).
holds(s_11318_jpg, door).
holds(s_11318_jpg, window).
holds(s_11318_jpg, awning).
holds(s_11318_jpg, porch).
holds(s_11318_jpg, tiledrooftop).
holds(s_11318_jpg, vendingmachine).
holds(s_11318_jpg, wallsign).
holds(s_11318_jpg, statue).
holds(s_11318_jpg, pipe).
holds(s_11318_jpg, residential).

sample(s_5188_jpg).
holds(s_5188_jpg, building).
holds(s_5188_jpg, feature).
holds(s_5188_jpg, constructionsite).
holds(s_5188_jpg, awning).
holds(s_5188_jpg, billboard).
holds(s_5188_jpg, porch).
holds(s_5188_jpg, tiledrooftop).
holds(s_5188_jpg, wallsign).
holds(s_5188_jpg, chimney).
holds(s_5188_jpg, machine).
holds(s_5188_jpg, industrial).

sample(s_12388_jpg).
holds(s_12388_jpg, building).
holds(s_12388_jpg, feature).
holds(s_12388_jpg, constructionsite).
holds(s_12388_jpg, door).
holds(s_12388_jpg, awning).
holds(s_12388_jpg, billboard).
holds(s_12388_jpg, porch).
holds(s_12388_jpg, tiledrooftop).
holds(s_12388_jpg, vendingmachine).
holds(s_12388_jpg, wallsign).
holds(s_12388_jpg, statue).
holds(s_12388_jpg, chimney).
holds(s_12388_jpg, pipe).
holds(s_12388_jpg, machine).
holds(s_12388_jpg, industrial).

sample(s_2830_jpg).
holds(s_2830_jpg, building).
holds(s_2830_jpg, feature).
holds(s_2830_jpg, constructionsite).
holds(s_2830_jpg, door).
holds(s_2830_jpg, awning).
holds(s_2830_jpg, billboard).
holds(s_2830_jpg, porch).
holds(s_2830_jpg, tiledrooftop).
holds(s_2830_jpg, vendingmachine).
holds(s_2830_jpg, wallsign).
holds(s_2830_jpg, statue).
holds(s_2830_jpg, chimney).
holds(s_2830_jpg, pipe).
holds(s_2830_jpg, machine).
holds(s_2830_jpg, industrial).

sample(s_6495_jpg).
holds(s_6495_jpg, building).
holds(s_6495_jpg, feature).
holds(s_6495_jpg, constructionsite).
holds(s_6495_jpg, awning).
holds(s_6495_jpg, billboard).
holds(s_6495_jpg, porch).
holds(s_6495_jpg, tiledrooftop).
holds(s_6495_jpg, vendingmachine).
holds(s_6495_jpg, wallsign).
holds(s_6495_jpg, chimney).
holds(s_6495_jpg, pipe).
holds(s_6495_jpg, machine).
holds(s_6495_jpg, industrial).

sample(s_2042_jpg).
holds(s_2042_jpg, building).
holds(s_2042_jpg, feature).
holds(s_2042_jpg, suburban).
holds(s_2042_jpg, door).
holds(s_2042_jpg, window).
holds(s_2042_jpg, awning).
holds(s_2042_jpg, porch).
holds(s_2042_jpg, table).
holds(s_2042_jpg, tiledrooftop).
holds(s_2042_jpg, vendingmachine).
holds(s_2042_jpg, wallsign).
holds(s_2042_jpg, statue).
holds(s_2042_jpg, pipe).
holds(s_2042_jpg, car).
holds(s_2042_jpg, residential).

sample(s_11869_jpg).
holds(s_11869_jpg, building).
holds(s_11869_jpg, feature).
holds(s_11869_jpg, constructionsite).
holds(s_11869_jpg, awning).
holds(s_11869_jpg, billboard).
holds(s_11869_jpg, porch).
holds(s_11869_jpg, tiledrooftop).
holds(s_11869_jpg, wallsign).
holds(s_11869_jpg, chimney).
holds(s_11869_jpg, pipe).
holds(s_11869_jpg, machine).
holds(s_11869_jpg, industrial).

sample(s_4408_jpg).
holds(s_4408_jpg, building).
holds(s_4408_jpg, feature).
holds(s_4408_jpg, constructionsite).
holds(s_4408_jpg, door).
holds(s_4408_jpg, awning).
holds(s_4408_jpg, billboard).
holds(s_4408_jpg, porch).
holds(s_4408_jpg, tiledrooftop).
holds(s_4408_jpg, wallsign).
holds(s_4408_jpg, chimney).
holds(s_4408_jpg, pipe).
holds(s_4408_jpg, machine).
holds(s_4408_jpg, industrial).

sample(s_218_jpg).
holds(s_218_jpg, building).
holds(s_218_jpg, feature).
holds(s_218_jpg, suburban).
holds(s_218_jpg, door).
holds(s_218_jpg, window).
holds(s_218_jpg, awning).
holds(s_218_jpg, porch).
holds(s_218_jpg, tiledrooftop).
holds(s_218_jpg, vendingmachine).
holds(s_218_jpg, statue).
holds(s_218_jpg, residential).

sample(s_12489_jpg).
holds(s_12489_jpg, building).
holds(s_12489_jpg, feature).
holds(s_12489_jpg, hotel).
holds(s_12489_jpg, door).
holds(s_12489_jpg, awning).
holds(s_12489_jpg, billboard).
holds(s_12489_jpg, porch).
holds(s_12489_jpg, sign).
holds(s_12489_jpg, tiledrooftop).
holds(s_12489_jpg, pipe).
holds(s_12489_jpg, machine).
holds(s_12489_jpg, commercial).

sample(s_5580_jpg).
holds(s_5580_jpg, building).
holds(s_5580_jpg, feature).
holds(s_5580_jpg, hotel).
holds(s_5580_jpg, door).
holds(s_5580_jpg, awning).
holds(s_5580_jpg, porch).
holds(s_5580_jpg, sign).
holds(s_5580_jpg, tiledrooftop).
holds(s_5580_jpg, statue).
holds(s_5580_jpg, chimney).
holds(s_5580_jpg, machine).
holds(s_5580_jpg, commercial).

sample(s_5050_jpg).
holds(s_5050_jpg, building).
holds(s_5050_jpg, feature).
holds(s_5050_jpg, constructionsite).
holds(s_5050_jpg, awning).
holds(s_5050_jpg, billboard).
holds(s_5050_jpg, porch).
holds(s_5050_jpg, tiledrooftop).
holds(s_5050_jpg, chimney).
holds(s_5050_jpg, machine).
holds(s_5050_jpg, industrial).

sample(s_257_jpg).
holds(s_257_jpg, building).
holds(s_257_jpg, feature).
holds(s_257_jpg, suburban).
holds(s_257_jpg, door).
holds(s_257_jpg, window).
holds(s_257_jpg, awning).
holds(s_257_jpg, porch).
holds(s_257_jpg, tiledrooftop).
holds(s_257_jpg, vendingmachine).
holds(s_257_jpg, wallsign).
holds(s_257_jpg, statue).
holds(s_257_jpg, residential).

sample(s_324_jpg).
holds(s_324_jpg, building).
holds(s_324_jpg, feature).
holds(s_324_jpg, hotel).
holds(s_324_jpg, door).
holds(s_324_jpg, awning).
holds(s_324_jpg, billboard).
holds(s_324_jpg, porch).
holds(s_324_jpg, tiledrooftop).
holds(s_324_jpg, statue).
holds(s_324_jpg, chimney).
holds(s_324_jpg, machine).
holds(s_324_jpg, commercial).

sample(s_2979_jpg).
holds(s_2979_jpg, building).
holds(s_2979_jpg, feature).
holds(s_2979_jpg, hotel).
holds(s_2979_jpg, door).
holds(s_2979_jpg, awning).
holds(s_2979_jpg, porch).
holds(s_2979_jpg, sign).
holds(s_2979_jpg, tiledrooftop).
holds(s_2979_jpg, statue).
holds(s_2979_jpg, pipe).
holds(s_2979_jpg, machine).
holds(s_2979_jpg, commercial).

sample(s_836_jpg).
holds(s_836_jpg, building).
holds(s_836_jpg, feature).
holds(s_836_jpg, suburban).
holds(s_836_jpg, door).
holds(s_836_jpg, window).
holds(s_836_jpg, awning).
holds(s_836_jpg, porch).
holds(s_836_jpg, tiledrooftop).
holds(s_836_jpg, vendingmachine).
holds(s_836_jpg, wallsign).
holds(s_836_jpg, statue).
holds(s_836_jpg, pipe).
holds(s_836_jpg, car).
holds(s_836_jpg, residential).

sample(s_14296_jpg).
holds(s_14296_jpg, building).
holds(s_14296_jpg, feature).
holds(s_14296_jpg, constructionsite).
holds(s_14296_jpg, door).
holds(s_14296_jpg, awning).
holds(s_14296_jpg, billboard).
holds(s_14296_jpg, porch).
holds(s_14296_jpg, tiledrooftop).
holds(s_14296_jpg, vendingmachine).
holds(s_14296_jpg, wallsign).
holds(s_14296_jpg, chimney).
holds(s_14296_jpg, pipe).
holds(s_14296_jpg, machine).
holds(s_14296_jpg, industrial).

sample(s_10644_jpg).
holds(s_10644_jpg, building).
holds(s_10644_jpg, feature).
holds(s_10644_jpg, hotel).
holds(s_10644_jpg, door).
holds(s_10644_jpg, awning).
holds(s_10644_jpg, porch).
holds(s_10644_jpg, tiledrooftop).
holds(s_10644_jpg, statue).
holds(s_10644_jpg, chimney).
holds(s_10644_jpg, machine).
holds(s_10644_jpg, commercial).

sample(s_6426_jpg).
holds(s_6426_jpg, building).
holds(s_6426_jpg, feature).
holds(s_6426_jpg, hotel).
holds(s_6426_jpg, door).
holds(s_6426_jpg, awning).
holds(s_6426_jpg, billboard).
holds(s_6426_jpg, porch).
holds(s_6426_jpg, sign).
holds(s_6426_jpg, tiledrooftop).
holds(s_6426_jpg, chimney).
holds(s_6426_jpg, pipe).
holds(s_6426_jpg, machine).
holds(s_6426_jpg, commercial).

sample(s_12978_jpg).
holds(s_12978_jpg, building).
holds(s_12978_jpg, feature).
holds(s_12978_jpg, hotel).
holds(s_12978_jpg, door).
holds(s_12978_jpg, window).
holds(s_12978_jpg, awning).
holds(s_12978_jpg, porch).
holds(s_12978_jpg, tiledrooftop).
holds(s_12978_jpg, vendingmachine).
holds(s_12978_jpg, statue).
holds(s_12978_jpg, machine).
holds(s_12978_jpg, commercial).

sample(s_7266_jpg).
holds(s_7266_jpg, building).
holds(s_7266_jpg, feature).
holds(s_7266_jpg, hotel).
holds(s_7266_jpg, door).
holds(s_7266_jpg, awning).
holds(s_7266_jpg, billboard).
holds(s_7266_jpg, porch).
holds(s_7266_jpg, sign).
holds(s_7266_jpg, tiledrooftop).
holds(s_7266_jpg, chimney).
holds(s_7266_jpg, pipe).
holds(s_7266_jpg, machine).
holds(s_7266_jpg, truck).
holds(s_7266_jpg, commercial).

sample(s_187_jpg).
holds(s_187_jpg, building).
holds(s_187_jpg, feature).
holds(s_187_jpg, constructionsite).
holds(s_187_jpg, awning).
holds(s_187_jpg, billboard).
holds(s_187_jpg, porch).
holds(s_187_jpg, tiledrooftop).
holds(s_187_jpg, wallsign).
holds(s_187_jpg, chimney).
holds(s_187_jpg, pipe).
holds(s_187_jpg, machine).
holds(s_187_jpg, industrial).

sample(s_2426_jpg).
holds(s_2426_jpg, building).
holds(s_2426_jpg, feature).
holds(s_2426_jpg, suburban).
holds(s_2426_jpg, door).
holds(s_2426_jpg, window).
holds(s_2426_jpg, awning).
holds(s_2426_jpg, porch).
holds(s_2426_jpg, tiledrooftop).
holds(s_2426_jpg, vendingmachine).
holds(s_2426_jpg, statue).
holds(s_2426_jpg, pipe).
holds(s_2426_jpg, residential).

sample(s_12078_jpg).
holds(s_12078_jpg, building).
holds(s_12078_jpg, feature).
holds(s_12078_jpg, hotel).
holds(s_12078_jpg, door).
holds(s_12078_jpg, awning).
holds(s_12078_jpg, billboard).
holds(s_12078_jpg, porch).
holds(s_12078_jpg, sign).
holds(s_12078_jpg, tiledrooftop).
holds(s_12078_jpg, chimney).
holds(s_12078_jpg, pipe).
holds(s_12078_jpg, machine).
holds(s_12078_jpg, commercial).

sample(s_5961_jpg).
holds(s_5961_jpg, building).
holds(s_5961_jpg, feature).
holds(s_5961_jpg, hotel).
holds(s_5961_jpg, door).
holds(s_5961_jpg, awning).
holds(s_5961_jpg, billboard).
holds(s_5961_jpg, porch).
holds(s_5961_jpg, sign).
holds(s_5961_jpg, tiledrooftop).
holds(s_5961_jpg, statue).
holds(s_5961_jpg, machine).
holds(s_5961_jpg, commercial).

sample(s_14586_jpg).
holds(s_14586_jpg, building).
holds(s_14586_jpg, feature).
holds(s_14586_jpg, hotel).
holds(s_14586_jpg, door).
holds(s_14586_jpg, awning).
holds(s_14586_jpg, billboard).
holds(s_14586_jpg, porch).
holds(s_14586_jpg, sign).
holds(s_14586_jpg, tiledrooftop).
holds(s_14586_jpg, pipe).
holds(s_14586_jpg, machine).
holds(s_14586_jpg, commercial).

sample(s_15202_jpg).
holds(s_15202_jpg, building).
holds(s_15202_jpg, feature).
holds(s_15202_jpg, constructionsite).
holds(s_15202_jpg, door).
holds(s_15202_jpg, awning).
holds(s_15202_jpg, billboard).
holds(s_15202_jpg, porch).
holds(s_15202_jpg, tiledrooftop).
holds(s_15202_jpg, vendingmachine).
holds(s_15202_jpg, wallsign).
holds(s_15202_jpg, statue).
holds(s_15202_jpg, chimney).
holds(s_15202_jpg, pipe).
holds(s_15202_jpg, machine).
holds(s_15202_jpg, industrial).

sample(s_7076_jpg).
holds(s_7076_jpg, building).
holds(s_7076_jpg, feature).
holds(s_7076_jpg, suburban).
holds(s_7076_jpg, door).
holds(s_7076_jpg, window).
holds(s_7076_jpg, awning).
holds(s_7076_jpg, porch).
holds(s_7076_jpg, tiledrooftop).
holds(s_7076_jpg, vendingmachine).
holds(s_7076_jpg, statue).
holds(s_7076_jpg, residential).

sample(s_519_jpg).
holds(s_519_jpg, building).
holds(s_519_jpg, feature).
holds(s_519_jpg, hotel).
holds(s_519_jpg, door).
holds(s_519_jpg, awning).
holds(s_519_jpg, porch).
holds(s_519_jpg, tiledrooftop).
holds(s_519_jpg, statue).
holds(s_519_jpg, chimney).
holds(s_519_jpg, machine).
holds(s_519_jpg, commercial).

sample(s_15025_jpg).
holds(s_15025_jpg, building).
holds(s_15025_jpg, feature).
holds(s_15025_jpg, constructionsite).
holds(s_15025_jpg, door).
holds(s_15025_jpg, awning).
holds(s_15025_jpg, billboard).
holds(s_15025_jpg, porch).
holds(s_15025_jpg, tiledrooftop).
holds(s_15025_jpg, wallsign).
holds(s_15025_jpg, chimney).
holds(s_15025_jpg, pipe).
holds(s_15025_jpg, machine).
holds(s_15025_jpg, industrial).

sample(s_4523_jpg).
holds(s_4523_jpg, building).
holds(s_4523_jpg, feature).
holds(s_4523_jpg, suburban).
holds(s_4523_jpg, door).
holds(s_4523_jpg, window).
holds(s_4523_jpg, awning).
holds(s_4523_jpg, porch).
holds(s_4523_jpg, tiledrooftop).
holds(s_4523_jpg, vendingmachine).
holds(s_4523_jpg, wallsign).
holds(s_4523_jpg, statue).
holds(s_4523_jpg, pipe).
holds(s_4523_jpg, car).
holds(s_4523_jpg, residential).

sample(s_4829_jpg).
holds(s_4829_jpg, building).
holds(s_4829_jpg, feature).
holds(s_4829_jpg, suburban).
holds(s_4829_jpg, door).
holds(s_4829_jpg, window).
holds(s_4829_jpg, awning).
holds(s_4829_jpg, porch).
holds(s_4829_jpg, tiledrooftop).
holds(s_4829_jpg, vendingmachine).
holds(s_4829_jpg, statue).
holds(s_4829_jpg, residential).

sample(s_12250_jpg).
holds(s_12250_jpg, building).
holds(s_12250_jpg, feature).
holds(s_12250_jpg, constructionsite).
holds(s_12250_jpg, awning).
holds(s_12250_jpg, billboard).
holds(s_12250_jpg, porch).
holds(s_12250_jpg, tiledrooftop).
holds(s_12250_jpg, wallsign).
holds(s_12250_jpg, chimney).
holds(s_12250_jpg, pipe).
holds(s_12250_jpg, machine).
holds(s_12250_jpg, industrial).

sample(s_9316_jpg).
holds(s_9316_jpg, building).
holds(s_9316_jpg, feature).
holds(s_9316_jpg, constructionsite).
holds(s_9316_jpg, awning).
holds(s_9316_jpg, billboard).
holds(s_9316_jpg, porch).
holds(s_9316_jpg, tiledrooftop).
holds(s_9316_jpg, wallsign).
holds(s_9316_jpg, chimney).
holds(s_9316_jpg, pipe).
holds(s_9316_jpg, machine).
holds(s_9316_jpg, industrial).

sample(s_3695_jpg).
holds(s_3695_jpg, building).
holds(s_3695_jpg, feature).
holds(s_3695_jpg, suburban).
holds(s_3695_jpg, door).
holds(s_3695_jpg, window).
holds(s_3695_jpg, awning).
holds(s_3695_jpg, table).
holds(s_3695_jpg, tiledrooftop).
holds(s_3695_jpg, vendingmachine).
holds(s_3695_jpg, wallsign).
holds(s_3695_jpg, statue).
holds(s_3695_jpg, pipe).
holds(s_3695_jpg, car).
holds(s_3695_jpg, residential).

sample(s_9308_jpg).
holds(s_9308_jpg, building).
holds(s_9308_jpg, feature).
holds(s_9308_jpg, suburban).
holds(s_9308_jpg, door).
holds(s_9308_jpg, window).
holds(s_9308_jpg, awning).
holds(s_9308_jpg, table).
holds(s_9308_jpg, tiledrooftop).
holds(s_9308_jpg, vendingmachine).
holds(s_9308_jpg, wallsign).
holds(s_9308_jpg, statue).
holds(s_9308_jpg, pipe).
holds(s_9308_jpg, car).
holds(s_9308_jpg, residential).

sample(s_15132_jpg).
holds(s_15132_jpg, building).
holds(s_15132_jpg, feature).
holds(s_15132_jpg, hotel).
holds(s_15132_jpg, door).
holds(s_15132_jpg, awning).
holds(s_15132_jpg, billboard).
holds(s_15132_jpg, porch).
holds(s_15132_jpg, sign).
holds(s_15132_jpg, tiledrooftop).
holds(s_15132_jpg, chimney).
holds(s_15132_jpg, pipe).
holds(s_15132_jpg, machine).
holds(s_15132_jpg, commercial).

sample(s_6248_jpg).
holds(s_6248_jpg, building).
holds(s_6248_jpg, feature).
holds(s_6248_jpg, suburban).
holds(s_6248_jpg, door).
holds(s_6248_jpg, window).
holds(s_6248_jpg, awning).
holds(s_6248_jpg, porch).
holds(s_6248_jpg, tiledrooftop).
holds(s_6248_jpg, vendingmachine).
holds(s_6248_jpg, wallsign).
holds(s_6248_jpg, statue).
holds(s_6248_jpg, residential).

sample(s_12361_jpg).
holds(s_12361_jpg, building).
holds(s_12361_jpg, feature).
holds(s_12361_jpg, constructionsite).
holds(s_12361_jpg, door).
holds(s_12361_jpg, awning).
holds(s_12361_jpg, billboard).
holds(s_12361_jpg, porch).
holds(s_12361_jpg, tiledrooftop).
holds(s_12361_jpg, vendingmachine).
holds(s_12361_jpg, wallsign).
holds(s_12361_jpg, chimney).
holds(s_12361_jpg, pipe).
holds(s_12361_jpg, machine).
holds(s_12361_jpg, industrial).

sample(s_15365_jpg).
holds(s_15365_jpg, building).
holds(s_15365_jpg, feature).
holds(s_15365_jpg, suburban).
holds(s_15365_jpg, door).
holds(s_15365_jpg, window).
holds(s_15365_jpg, awning).
holds(s_15365_jpg, porch).
holds(s_15365_jpg, table).
holds(s_15365_jpg, tiledrooftop).
holds(s_15365_jpg, vendingmachine).
holds(s_15365_jpg, wallsign).
holds(s_15365_jpg, statue).
holds(s_15365_jpg, residential).

sample(s_3290_jpg).
holds(s_3290_jpg, building).
holds(s_3290_jpg, feature).
holds(s_3290_jpg, suburban).
holds(s_3290_jpg, door).
holds(s_3290_jpg, window).
holds(s_3290_jpg, awning).
holds(s_3290_jpg, porch).
holds(s_3290_jpg, tiledrooftop).
holds(s_3290_jpg, vendingmachine).
holds(s_3290_jpg, statue).
holds(s_3290_jpg, residential).

sample(s_2291_jpg).
holds(s_2291_jpg, building).
holds(s_2291_jpg, feature).
holds(s_2291_jpg, suburban).
holds(s_2291_jpg, door).
holds(s_2291_jpg, window).
holds(s_2291_jpg, awning).
holds(s_2291_jpg, porch).
holds(s_2291_jpg, tiledrooftop).
holds(s_2291_jpg, vendingmachine).
holds(s_2291_jpg, wallsign).
holds(s_2291_jpg, statue).
holds(s_2291_jpg, residential).

sample(s_5645_jpg).
holds(s_5645_jpg, building).
holds(s_5645_jpg, feature).
holds(s_5645_jpg, suburban).
holds(s_5645_jpg, door).
holds(s_5645_jpg, window).
holds(s_5645_jpg, awning).
holds(s_5645_jpg, table).
holds(s_5645_jpg, tiledrooftop).
holds(s_5645_jpg, vendingmachine).
holds(s_5645_jpg, wallsign).
holds(s_5645_jpg, statue).
holds(s_5645_jpg, pipe).
holds(s_5645_jpg, residential).

sample(s_7908_jpg).
holds(s_7908_jpg, building).
holds(s_7908_jpg, feature).
holds(s_7908_jpg, hotel).
holds(s_7908_jpg, door).
holds(s_7908_jpg, awning).
holds(s_7908_jpg, porch).
holds(s_7908_jpg, sign).
holds(s_7908_jpg, tiledrooftop).
holds(s_7908_jpg, statue).
holds(s_7908_jpg, machine).
holds(s_7908_jpg, commercial).

sample(s_12199_jpg).
holds(s_12199_jpg, building).
holds(s_12199_jpg, feature).
holds(s_12199_jpg, constructionsite).
holds(s_12199_jpg, awning).
holds(s_12199_jpg, billboard).
holds(s_12199_jpg, porch).
holds(s_12199_jpg, tiledrooftop).
holds(s_12199_jpg, chimney).
holds(s_12199_jpg, machine).
holds(s_12199_jpg, industrial).

sample(s_14083_jpg).
holds(s_14083_jpg, building).
holds(s_14083_jpg, feature).
holds(s_14083_jpg, constructionsite).
holds(s_14083_jpg, awning).
holds(s_14083_jpg, billboard).
holds(s_14083_jpg, porch).
holds(s_14083_jpg, tiledrooftop).
holds(s_14083_jpg, wallsign).
holds(s_14083_jpg, chimney).
holds(s_14083_jpg, pipe).
holds(s_14083_jpg, machine).
holds(s_14083_jpg, industrial).

sample(s_4193_jpg).
holds(s_4193_jpg, building).
holds(s_4193_jpg, feature).
holds(s_4193_jpg, suburban).
holds(s_4193_jpg, door).
holds(s_4193_jpg, window).
holds(s_4193_jpg, awning).
holds(s_4193_jpg, porch).
holds(s_4193_jpg, tiledrooftop).
holds(s_4193_jpg, vendingmachine).
holds(s_4193_jpg, wallsign).
holds(s_4193_jpg, statue).
holds(s_4193_jpg, pipe).
holds(s_4193_jpg, residential).

sample(s_4683_jpg).
holds(s_4683_jpg, building).
holds(s_4683_jpg, feature).
holds(s_4683_jpg, hotel).
holds(s_4683_jpg, door).
holds(s_4683_jpg, awning).
holds(s_4683_jpg, billboard).
holds(s_4683_jpg, porch).
holds(s_4683_jpg, sign).
holds(s_4683_jpg, tiledrooftop).
holds(s_4683_jpg, chimney).
holds(s_4683_jpg, pipe).
holds(s_4683_jpg, machine).
holds(s_4683_jpg, commercial).

sample(s_1970_jpg).
holds(s_1970_jpg, building).
holds(s_1970_jpg, feature).
holds(s_1970_jpg, suburban).
holds(s_1970_jpg, door).
holds(s_1970_jpg, awning).
holds(s_1970_jpg, table).
holds(s_1970_jpg, tiledrooftop).
holds(s_1970_jpg, vendingmachine).
holds(s_1970_jpg, wallsign).
holds(s_1970_jpg, statue).
holds(s_1970_jpg, chimney).
holds(s_1970_jpg, pipe).
holds(s_1970_jpg, truck).
holds(s_1970_jpg, car).
holds(s_1970_jpg, residential).

sample(s_10447_jpg).
holds(s_10447_jpg, building).
holds(s_10447_jpg, feature).
holds(s_10447_jpg, constructionsite).
holds(s_10447_jpg, awning).
holds(s_10447_jpg, billboard).
holds(s_10447_jpg, porch).
holds(s_10447_jpg, tiledrooftop).
holds(s_10447_jpg, chimney).
holds(s_10447_jpg, pipe).
holds(s_10447_jpg, machine).
holds(s_10447_jpg, industrial).

