sample(s_2210_jpg).
holds(s_2210_jpg, building).
holds(s_2210_jpg, feature).
holds(s_2210_jpg, sign).
holds(s_2210_jpg, table).
holds(s_2210_jpg, tiledrooftop).
holds(s_2210_jpg, vendingmachine).
holds(s_2210_jpg, statue).
holds(s_2210_jpg, pipe).
holds(s_2210_jpg, machine).

sample(s_6669_jpg).
holds(s_6669_jpg, building).
holds(s_6669_jpg, feature).
holds(s_6669_jpg, hotel).
holds(s_6669_jpg, door).
holds(s_6669_jpg, billboard).
holds(s_6669_jpg, sign).
holds(s_6669_jpg, tiledroof).
holds(s_6669_jpg, tiledrooftop).
holds(s_6669_jpg, wallsign).
holds(s_6669_jpg, chimney).
holds(s_6669_jpg, pipe).
holds(s_6669_jpg, car).
holds(s_6669_jpg, commercial).

sample(s_2252_jpg).
holds(s_2252_jpg, building).
holds(s_2252_jpg, feature).
holds(s_2252_jpg, porch).
holds(s_2252_jpg, sign).
holds(s_2252_jpg, table).
holds(s_2252_jpg, tiledrooftop).
holds(s_2252_jpg, vendingmachine).
holds(s_2252_jpg, statue).
holds(s_2252_jpg, pipe).

sample(s_7462_jpg).
holds(s_7462_jpg, building).
holds(s_7462_jpg, feature).
holds(s_7462_jpg, watertreatment).
holds(s_7462_jpg, door).
holds(s_7462_jpg, billboard).
holds(s_7462_jpg, porch).
holds(s_7462_jpg, sign).
holds(s_7462_jpg, tiledroof).
holds(s_7462_jpg, tiledrooftop).
holds(s_7462_jpg, wallsign).
holds(s_7462_jpg, industrial).

sample(s_6845_jpg).
holds(s_6845_jpg, building).
holds(s_6845_jpg, feature).
holds(s_6845_jpg, porch).
holds(s_6845_jpg, sign).
holds(s_6845_jpg, table).
holds(s_6845_jpg, tiledrooftop).
holds(s_6845_jpg, vendingmachine).
holds(s_6845_jpg, statue).
holds(s_6845_jpg, pipe).

sample(s_6946_jpg).
holds(s_6946_jpg, building).
holds(s_6946_jpg, feature).
holds(s_6946_jpg, watertreatment).
holds(s_6946_jpg, door).
holds(s_6946_jpg, billboard).
holds(s_6946_jpg, porch).
holds(s_6946_jpg, sign).
holds(s_6946_jpg, tiledroof).
holds(s_6946_jpg, wallsign).
holds(s_6946_jpg, chimney).
holds(s_6946_jpg, pipe).
holds(s_6946_jpg, industrial).

sample(s_688_jpg).
holds(s_688_jpg, building).
holds(s_688_jpg, feature).
holds(s_688_jpg, watertreatment).
holds(s_688_jpg, door).
holds(s_688_jpg, billboard).
holds(s_688_jpg, porch).
holds(s_688_jpg, sign).
holds(s_688_jpg, tiledroof).
holds(s_688_jpg, tiledrooftop).
holds(s_688_jpg, wallsign).
holds(s_688_jpg, pipe).
holds(s_688_jpg, industrial).

sample(s_14639_jpg).
holds(s_14639_jpg, building).
holds(s_14639_jpg, feature).
holds(s_14639_jpg, window).
holds(s_14639_jpg, porch).
holds(s_14639_jpg, table).
holds(s_14639_jpg, tiledrooftop).
holds(s_14639_jpg, vendingmachine).
holds(s_14639_jpg, statue).
holds(s_14639_jpg, pipe).

sample(s_10733_jpg).
holds(s_10733_jpg, building).
holds(s_10733_jpg, feature).
holds(s_10733_jpg, window).
holds(s_10733_jpg, porch).
holds(s_10733_jpg, sign).
holds(s_10733_jpg, table).
holds(s_10733_jpg, tiledrooftop).
holds(s_10733_jpg, vendingmachine).
holds(s_10733_jpg, statue).
holds(s_10733_jpg, pipe).

sample(s_12725_jpg).
holds(s_12725_jpg, building).
holds(s_12725_jpg, feature).
holds(s_12725_jpg, sign).
holds(s_12725_jpg, table).
holds(s_12725_jpg, tiledrooftop).
holds(s_12725_jpg, vendingmachine).
holds(s_12725_jpg, statue).
holds(s_12725_jpg, pipe).
holds(s_12725_jpg, machine).

sample(s_12647_jpg).
holds(s_12647_jpg, building).
holds(s_12647_jpg, feature).
holds(s_12647_jpg, porch).
holds(s_12647_jpg, sign).
holds(s_12647_jpg, table).
holds(s_12647_jpg, tiledrooftop).
holds(s_12647_jpg, vendingmachine).
holds(s_12647_jpg, statue).
holds(s_12647_jpg, pipe).
holds(s_12647_jpg, machine).

sample(s_7503_jpg).
holds(s_7503_jpg, building).
holds(s_7503_jpg, feature).
holds(s_7503_jpg, hotel).
holds(s_7503_jpg, door).
holds(s_7503_jpg, billboard).
holds(s_7503_jpg, porch).
holds(s_7503_jpg, sign).
holds(s_7503_jpg, tiledroof).
holds(s_7503_jpg, tiledrooftop).
holds(s_7503_jpg, vendingmachine).
holds(s_7503_jpg, wallsign).
holds(s_7503_jpg, chimney).
holds(s_7503_jpg, pipe).
holds(s_7503_jpg, machine).
holds(s_7503_jpg, car).
holds(s_7503_jpg, commercial).

sample(s_2695_jpg).
holds(s_2695_jpg, building).
holds(s_2695_jpg, feature).
holds(s_2695_jpg, watertreatment).
holds(s_2695_jpg, door).
holds(s_2695_jpg, billboard).
holds(s_2695_jpg, porch).
holds(s_2695_jpg, sign).
holds(s_2695_jpg, tiledroof).
holds(s_2695_jpg, wallsign).
holds(s_2695_jpg, industrial).

sample(s_12097_jpg).
holds(s_12097_jpg, building).
holds(s_12097_jpg, feature).
holds(s_12097_jpg, watertreatment).
holds(s_12097_jpg, door).
holds(s_12097_jpg, billboard).
holds(s_12097_jpg, porch).
holds(s_12097_jpg, sign).
holds(s_12097_jpg, tiledroof).
holds(s_12097_jpg, tiledrooftop).
holds(s_12097_jpg, wallsign).
holds(s_12097_jpg, industrial).

sample(s_1119_jpg).
holds(s_1119_jpg, building).
holds(s_1119_jpg, feature).
holds(s_1119_jpg, hotel).
holds(s_1119_jpg, door).
holds(s_1119_jpg, billboard).
holds(s_1119_jpg, porch).
holds(s_1119_jpg, sign).
holds(s_1119_jpg, tiledroof).
holds(s_1119_jpg, tiledrooftop).
holds(s_1119_jpg, vendingmachine).
holds(s_1119_jpg, wallsign).
holds(s_1119_jpg, chimney).
holds(s_1119_jpg, pipe).
holds(s_1119_jpg, machine).
holds(s_1119_jpg, car).
holds(s_1119_jpg, commercial).

sample(s_3657_jpg).
holds(s_3657_jpg, building).
holds(s_3657_jpg, feature).
holds(s_3657_jpg, hotel).
holds(s_3657_jpg, door).
holds(s_3657_jpg, billboard).
holds(s_3657_jpg, porch).
holds(s_3657_jpg, sign).
holds(s_3657_jpg, tiledroof).
holds(s_3657_jpg, tiledrooftop).
holds(s_3657_jpg, wallsign).
holds(s_3657_jpg, chimney).
holds(s_3657_jpg, pipe).
holds(s_3657_jpg, car).
holds(s_3657_jpg, commercial).

sample(s_8674_jpg).
holds(s_8674_jpg, building).
holds(s_8674_jpg, feature).
holds(s_8674_jpg, watertreatment).
holds(s_8674_jpg, door).
holds(s_8674_jpg, billboard).
holds(s_8674_jpg, porch).
holds(s_8674_jpg, sign).
holds(s_8674_jpg, tiledroof).
holds(s_8674_jpg, tiledrooftop).
holds(s_8674_jpg, wallsign).
holds(s_8674_jpg, industrial).

sample(s_7572_jpg).
holds(s_7572_jpg, building).
holds(s_7572_jpg, feature).
holds(s_7572_jpg, hotel).
holds(s_7572_jpg, billboard).
holds(s_7572_jpg, sign).
holds(s_7572_jpg, table).
holds(s_7572_jpg, tiledroof).
holds(s_7572_jpg, tiledrooftop).
holds(s_7572_jpg, vendingmachine).
holds(s_7572_jpg, statue).
holds(s_7572_jpg, chimney).
holds(s_7572_jpg, pipe).
holds(s_7572_jpg, machine).
holds(s_7572_jpg, car).
holds(s_7572_jpg, commercial).

sample(s_108_jpg).
holds(s_108_jpg, building).
holds(s_108_jpg, feature).
holds(s_108_jpg, hotel).
holds(s_108_jpg, door).
holds(s_108_jpg, billboard).
holds(s_108_jpg, porch).
holds(s_108_jpg, sign).
holds(s_108_jpg, tiledroof).
holds(s_108_jpg, tiledrooftop).
holds(s_108_jpg, wallsign).
holds(s_108_jpg, chimney).
holds(s_108_jpg, pipe).
holds(s_108_jpg, car).
holds(s_108_jpg, commercial).

sample(s_9150_jpg).
holds(s_9150_jpg, building).
holds(s_9150_jpg, feature).
holds(s_9150_jpg, hotel).
holds(s_9150_jpg, door).
holds(s_9150_jpg, billboard).
holds(s_9150_jpg, porch).
holds(s_9150_jpg, sign).
holds(s_9150_jpg, tiledroof).
holds(s_9150_jpg, tiledrooftop).
holds(s_9150_jpg, vendingmachine).
holds(s_9150_jpg, wallsign).
holds(s_9150_jpg, chimney).
holds(s_9150_jpg, pipe).
holds(s_9150_jpg, car).
holds(s_9150_jpg, commercial).

sample(s_1835_jpg).
holds(s_1835_jpg, building).
holds(s_1835_jpg, feature).
holds(s_1835_jpg, sign).
holds(s_1835_jpg, table).
holds(s_1835_jpg, tiledrooftop).
holds(s_1835_jpg, vendingmachine).
holds(s_1835_jpg, statue).
holds(s_1835_jpg, pipe).

sample(s_4458_jpg).
holds(s_4458_jpg, building).
holds(s_4458_jpg, feature).
holds(s_4458_jpg, hotel).
holds(s_4458_jpg, billboard).
holds(s_4458_jpg, porch).
holds(s_4458_jpg, sign).
holds(s_4458_jpg, table).
holds(s_4458_jpg, tiledroof).
holds(s_4458_jpg, tiledrooftop).
holds(s_4458_jpg, vendingmachine).
holds(s_4458_jpg, wallsign).
holds(s_4458_jpg, chimney).
holds(s_4458_jpg, pipe).
holds(s_4458_jpg, machine).
holds(s_4458_jpg, car).
holds(s_4458_jpg, commercial).

sample(s_6293_jpg).
holds(s_6293_jpg, building).
holds(s_6293_jpg, feature).
holds(s_6293_jpg, sign).
holds(s_6293_jpg, table).
holds(s_6293_jpg, tiledrooftop).
holds(s_6293_jpg, vendingmachine).
holds(s_6293_jpg, statue).
holds(s_6293_jpg, pipe).

sample(s_11453_jpg).
holds(s_11453_jpg, building).
holds(s_11453_jpg, feature).
holds(s_11453_jpg, billboard).
holds(s_11453_jpg, sign).
holds(s_11453_jpg, table).
holds(s_11453_jpg, tiledrooftop).
holds(s_11453_jpg, vendingmachine).
holds(s_11453_jpg, statue).
holds(s_11453_jpg, pipe).
holds(s_11453_jpg, machine).

sample(s_11071_jpg).
holds(s_11071_jpg, building).
holds(s_11071_jpg, feature).
holds(s_11071_jpg, watertreatment).
holds(s_11071_jpg, door).
holds(s_11071_jpg, billboard).
holds(s_11071_jpg, porch).
holds(s_11071_jpg, sign).
holds(s_11071_jpg, tiledroof).
holds(s_11071_jpg, wallsign).
holds(s_11071_jpg, chimney).
holds(s_11071_jpg, pipe).
holds(s_11071_jpg, industrial).

sample(s_5661_jpg).
holds(s_5661_jpg, building).
holds(s_5661_jpg, feature).
holds(s_5661_jpg, hotel).
holds(s_5661_jpg, door).
holds(s_5661_jpg, billboard).
holds(s_5661_jpg, porch).
holds(s_5661_jpg, sign).
holds(s_5661_jpg, table).
holds(s_5661_jpg, tiledroof).
holds(s_5661_jpg, tiledrooftop).
holds(s_5661_jpg, vendingmachine).
holds(s_5661_jpg, wallsign).
holds(s_5661_jpg, chimney).
holds(s_5661_jpg, pipe).
holds(s_5661_jpg, machine).
holds(s_5661_jpg, car).
holds(s_5661_jpg, commercial).

sample(s_10680_jpg).
holds(s_10680_jpg, building).
holds(s_10680_jpg, feature).
holds(s_10680_jpg, hotel).
holds(s_10680_jpg, door).
holds(s_10680_jpg, billboard).
holds(s_10680_jpg, sign).
holds(s_10680_jpg, tiledroof).
holds(s_10680_jpg, tiledrooftop).
holds(s_10680_jpg, wallsign).
holds(s_10680_jpg, chimney).
holds(s_10680_jpg, pipe).
holds(s_10680_jpg, car).
holds(s_10680_jpg, commercial).

sample(s_11405_jpg).
holds(s_11405_jpg, building).
holds(s_11405_jpg, feature).
holds(s_11405_jpg, porch).
holds(s_11405_jpg, sign).
holds(s_11405_jpg, table).
holds(s_11405_jpg, tiledrooftop).
holds(s_11405_jpg, vendingmachine).
holds(s_11405_jpg, statue).

sample(s_4301_jpg).
holds(s_4301_jpg, building).
holds(s_4301_jpg, feature).
holds(s_4301_jpg, porch).
holds(s_4301_jpg, sign).
holds(s_4301_jpg, table).
holds(s_4301_jpg, tiledrooftop).
holds(s_4301_jpg, vendingmachine).
holds(s_4301_jpg, statue).

sample(s_1960_jpg).
holds(s_1960_jpg, building).
holds(s_1960_jpg, feature).
holds(s_1960_jpg, watertreatment).
holds(s_1960_jpg, door).
holds(s_1960_jpg, billboard).
holds(s_1960_jpg, porch).
holds(s_1960_jpg, sign).
holds(s_1960_jpg, tiledroof).
holds(s_1960_jpg, tiledrooftop).
holds(s_1960_jpg, wallsign).
holds(s_1960_jpg, chimney).
holds(s_1960_jpg, pipe).
holds(s_1960_jpg, industrial).

sample(s_1923_jpg).
holds(s_1923_jpg, building).
holds(s_1923_jpg, feature).
holds(s_1923_jpg, hotel).
holds(s_1923_jpg, billboard).
holds(s_1923_jpg, porch).
holds(s_1923_jpg, sign).
holds(s_1923_jpg, table).
holds(s_1923_jpg, tiledroof).
holds(s_1923_jpg, tiledrooftop).
holds(s_1923_jpg, vendingmachine).
holds(s_1923_jpg, statue).
holds(s_1923_jpg, chimney).
holds(s_1923_jpg, pipe).
holds(s_1923_jpg, machine).
holds(s_1923_jpg, car).
holds(s_1923_jpg, commercial).

sample(s_417_jpg).
holds(s_417_jpg, building).
holds(s_417_jpg, feature).
holds(s_417_jpg, hotel).
holds(s_417_jpg, billboard).
holds(s_417_jpg, porch).
holds(s_417_jpg, sign).
holds(s_417_jpg, table).
holds(s_417_jpg, tiledroof).
holds(s_417_jpg, tiledrooftop).
holds(s_417_jpg, vendingmachine).
holds(s_417_jpg, wallsign).
holds(s_417_jpg, chimney).
holds(s_417_jpg, pipe).
holds(s_417_jpg, machine).
holds(s_417_jpg, car).
holds(s_417_jpg, commercial).

sample(s_10052_jpg).
holds(s_10052_jpg, building).
holds(s_10052_jpg, feature).
holds(s_10052_jpg, billboard).
holds(s_10052_jpg, sign).
holds(s_10052_jpg, table).
holds(s_10052_jpg, tiledrooftop).
holds(s_10052_jpg, vendingmachine).
holds(s_10052_jpg, statue).
holds(s_10052_jpg, pipe).
holds(s_10052_jpg, machine).

sample(s_3362_jpg).
holds(s_3362_jpg, building).
holds(s_3362_jpg, feature).
holds(s_3362_jpg, sign).
holds(s_3362_jpg, table).
holds(s_3362_jpg, tiledrooftop).
holds(s_3362_jpg, vendingmachine).
holds(s_3362_jpg, statue).
holds(s_3362_jpg, pipe).
holds(s_3362_jpg, machine).

sample(s_9192_jpg).
holds(s_9192_jpg, building).
holds(s_9192_jpg, feature).
holds(s_9192_jpg, hotel).
holds(s_9192_jpg, door).
holds(s_9192_jpg, billboard).
holds(s_9192_jpg, porch).
holds(s_9192_jpg, sign).
holds(s_9192_jpg, tiledroof).
holds(s_9192_jpg, tiledrooftop).
holds(s_9192_jpg, vendingmachine).
holds(s_9192_jpg, wallsign).
holds(s_9192_jpg, chimney).
holds(s_9192_jpg, pipe).
holds(s_9192_jpg, machine).
holds(s_9192_jpg, car).
holds(s_9192_jpg, commercial).

sample(s_2884_jpg).
holds(s_2884_jpg, building).
holds(s_2884_jpg, feature).
holds(s_2884_jpg, watertreatment).
holds(s_2884_jpg, door).
holds(s_2884_jpg, billboard).
holds(s_2884_jpg, porch).
holds(s_2884_jpg, sign).
holds(s_2884_jpg, tiledroof).
holds(s_2884_jpg, tiledrooftop).
holds(s_2884_jpg, wallsign).
holds(s_2884_jpg, pipe).
holds(s_2884_jpg, industrial).

sample(s_12518_jpg).
holds(s_12518_jpg, building).
holds(s_12518_jpg, feature).
holds(s_12518_jpg, porch).
holds(s_12518_jpg, sign).
holds(s_12518_jpg, table).
holds(s_12518_jpg, tiledrooftop).
holds(s_12518_jpg, vendingmachine).
holds(s_12518_jpg, statue).

sample(s_3022_jpg).
holds(s_3022_jpg, building).
holds(s_3022_jpg, feature).
holds(s_3022_jpg, watertreatment).
holds(s_3022_jpg, door).
holds(s_3022_jpg, billboard).
holds(s_3022_jpg, porch).
holds(s_3022_jpg, sign).
holds(s_3022_jpg, tiledroof).
holds(s_3022_jpg, wallsign).
holds(s_3022_jpg, industrial).

sample(s_1299_jpg).
holds(s_1299_jpg, building).
holds(s_1299_jpg, feature).
holds(s_1299_jpg, hotel).
holds(s_1299_jpg, door).
holds(s_1299_jpg, billboard).
holds(s_1299_jpg, porch).
holds(s_1299_jpg, sign).
holds(s_1299_jpg, tiledroof).
holds(s_1299_jpg, wallsign).
holds(s_1299_jpg, chimney).
holds(s_1299_jpg, pipe).
holds(s_1299_jpg, car).
holds(s_1299_jpg, commercial).

sample(s_6495_jpg).
holds(s_6495_jpg, building).
holds(s_6495_jpg, feature).
holds(s_6495_jpg, hotel).
holds(s_6495_jpg, door).
holds(s_6495_jpg, billboard).
holds(s_6495_jpg, sign).
holds(s_6495_jpg, tiledroof).
holds(s_6495_jpg, tiledrooftop).
holds(s_6495_jpg, wallsign).
holds(s_6495_jpg, chimney).
holds(s_6495_jpg, pipe).
holds(s_6495_jpg, car).
holds(s_6495_jpg, commercial).

sample(s_10282_jpg).
holds(s_10282_jpg, building).
holds(s_10282_jpg, feature).
holds(s_10282_jpg, watertreatment).
holds(s_10282_jpg, door).
holds(s_10282_jpg, billboard).
holds(s_10282_jpg, porch).
holds(s_10282_jpg, sign).
holds(s_10282_jpg, tiledroof).
holds(s_10282_jpg, wallsign).
holds(s_10282_jpg, industrial).

sample(s_13646_jpg).
holds(s_13646_jpg, building).
holds(s_13646_jpg, feature).
holds(s_13646_jpg, sign).
holds(s_13646_jpg, table).
holds(s_13646_jpg, tiledrooftop).
holds(s_13646_jpg, vendingmachine).
holds(s_13646_jpg, statue).
holds(s_13646_jpg, pipe).
holds(s_13646_jpg, machine).

sample(s_8105_jpg).
holds(s_8105_jpg, building).
holds(s_8105_jpg, feature).
holds(s_8105_jpg, sign).
holds(s_8105_jpg, table).
holds(s_8105_jpg, tiledrooftop).
holds(s_8105_jpg, vendingmachine).
holds(s_8105_jpg, statue).
holds(s_8105_jpg, pipe).

sample(s_5928_jpg).
holds(s_5928_jpg, building).
holds(s_5928_jpg, feature).
holds(s_5928_jpg, hotel).
holds(s_5928_jpg, door).
holds(s_5928_jpg, billboard).
holds(s_5928_jpg, sign).
holds(s_5928_jpg, tiledroof).
holds(s_5928_jpg, tiledrooftop).
holds(s_5928_jpg, wallsign).
holds(s_5928_jpg, chimney).
holds(s_5928_jpg, pipe).
holds(s_5928_jpg, car).
holds(s_5928_jpg, commercial).

sample(s_3875_jpg).
holds(s_3875_jpg, building).
holds(s_3875_jpg, feature).
holds(s_3875_jpg, sign).
holds(s_3875_jpg, table).
holds(s_3875_jpg, tiledrooftop).
holds(s_3875_jpg, vendingmachine).
holds(s_3875_jpg, statue).
holds(s_3875_jpg, pipe).

sample(s_1010_jpg).
holds(s_1010_jpg, building).
holds(s_1010_jpg, feature).
holds(s_1010_jpg, sign).
holds(s_1010_jpg, table).
holds(s_1010_jpg, tiledrooftop).
holds(s_1010_jpg, vendingmachine).
holds(s_1010_jpg, statue).
holds(s_1010_jpg, pipe).

sample(s_3624_jpg).
holds(s_3624_jpg, building).
holds(s_3624_jpg, feature).
holds(s_3624_jpg, hotel).
holds(s_3624_jpg, billboard).
holds(s_3624_jpg, porch).
holds(s_3624_jpg, sign).
holds(s_3624_jpg, table).
holds(s_3624_jpg, tiledroof).
holds(s_3624_jpg, tiledrooftop).
holds(s_3624_jpg, vendingmachine).
holds(s_3624_jpg, wallsign).
holds(s_3624_jpg, chimney).
holds(s_3624_jpg, pipe).
holds(s_3624_jpg, car).
holds(s_3624_jpg, commercial).

sample(s_11988_jpg).
holds(s_11988_jpg, building).
holds(s_11988_jpg, feature).
holds(s_11988_jpg, hotel).
holds(s_11988_jpg, billboard).
holds(s_11988_jpg, sign).
holds(s_11988_jpg, table).
holds(s_11988_jpg, tiledroof).
holds(s_11988_jpg, tiledrooftop).
holds(s_11988_jpg, vendingmachine).
holds(s_11988_jpg, statue).
holds(s_11988_jpg, chimney).
holds(s_11988_jpg, pipe).
holds(s_11988_jpg, machine).
holds(s_11988_jpg, car).
holds(s_11988_jpg, commercial).

sample(s_14993_jpg).
holds(s_14993_jpg, building).
holds(s_14993_jpg, feature).
holds(s_14993_jpg, sign).
holds(s_14993_jpg, table).
holds(s_14993_jpg, tiledrooftop).
holds(s_14993_jpg, vendingmachine).
holds(s_14993_jpg, statue).
holds(s_14993_jpg, pipe).

sample(s_13559_jpg).
holds(s_13559_jpg, building).
holds(s_13559_jpg, feature).
holds(s_13559_jpg, billboard).
holds(s_13559_jpg, porch).
holds(s_13559_jpg, sign).
holds(s_13559_jpg, table).
holds(s_13559_jpg, tiledrooftop).
holds(s_13559_jpg, vendingmachine).
holds(s_13559_jpg, statue).
holds(s_13559_jpg, pipe).
holds(s_13559_jpg, machine).

sample(s_12328_jpg).
holds(s_12328_jpg, building).
holds(s_12328_jpg, feature).
holds(s_12328_jpg, watertreatment).
holds(s_12328_jpg, door).
holds(s_12328_jpg, billboard).
holds(s_12328_jpg, porch).
holds(s_12328_jpg, sign).
holds(s_12328_jpg, tiledroof).
holds(s_12328_jpg, wallsign).
holds(s_12328_jpg, pipe).
holds(s_12328_jpg, industrial).

sample(s_8777_jpg).
holds(s_8777_jpg, building).
holds(s_8777_jpg, feature).
holds(s_8777_jpg, sign).
holds(s_8777_jpg, table).
holds(s_8777_jpg, tiledrooftop).
holds(s_8777_jpg, vendingmachine).
holds(s_8777_jpg, statue).
holds(s_8777_jpg, pipe).
holds(s_8777_jpg, machine).

sample(s_8196_jpg).
holds(s_8196_jpg, building).
holds(s_8196_jpg, feature).
holds(s_8196_jpg, hotel).
holds(s_8196_jpg, door).
holds(s_8196_jpg, billboard).
holds(s_8196_jpg, porch).
holds(s_8196_jpg, sign).
holds(s_8196_jpg, tiledroof).
holds(s_8196_jpg, tiledrooftop).
holds(s_8196_jpg, wallsign).
holds(s_8196_jpg, chimney).
holds(s_8196_jpg, pipe).
holds(s_8196_jpg, car).
holds(s_8196_jpg, commercial).

sample(s_13337_jpg).
holds(s_13337_jpg, building).
holds(s_13337_jpg, feature).
holds(s_13337_jpg, porch).
holds(s_13337_jpg, sign).
holds(s_13337_jpg, table).
holds(s_13337_jpg, tiledrooftop).
holds(s_13337_jpg, vendingmachine).
holds(s_13337_jpg, statue).
holds(s_13337_jpg, pipe).
holds(s_13337_jpg, machine).

sample(s_14457_jpg).
holds(s_14457_jpg, building).
holds(s_14457_jpg, feature).
holds(s_14457_jpg, hotel).
holds(s_14457_jpg, porch).
holds(s_14457_jpg, sign).
holds(s_14457_jpg, table).
holds(s_14457_jpg, tiledroof).
holds(s_14457_jpg, tiledrooftop).
holds(s_14457_jpg, vendingmachine).
holds(s_14457_jpg, statue).
holds(s_14457_jpg, chimney).
holds(s_14457_jpg, pipe).
holds(s_14457_jpg, car).
holds(s_14457_jpg, commercial).

sample(s_8008_jpg).
holds(s_8008_jpg, building).
holds(s_8008_jpg, feature).
holds(s_8008_jpg, watertreatment).
holds(s_8008_jpg, door).
holds(s_8008_jpg, billboard).
holds(s_8008_jpg, porch).
holds(s_8008_jpg, sign).
holds(s_8008_jpg, tiledroof).
holds(s_8008_jpg, tiledrooftop).
holds(s_8008_jpg, wallsign).
holds(s_8008_jpg, pipe).
holds(s_8008_jpg, industrial).

sample(s_5539_jpg).
holds(s_5539_jpg, building).
holds(s_5539_jpg, feature).
holds(s_5539_jpg, watertreatment).
holds(s_5539_jpg, door).
holds(s_5539_jpg, billboard).
holds(s_5539_jpg, porch).
holds(s_5539_jpg, sign).
holds(s_5539_jpg, tiledroof).
holds(s_5539_jpg, wallsign).
holds(s_5539_jpg, industrial).

sample(s_7729_jpg).
holds(s_7729_jpg, building).
holds(s_7729_jpg, feature).
holds(s_7729_jpg, watertreatment).
holds(s_7729_jpg, door).
holds(s_7729_jpg, billboard).
holds(s_7729_jpg, porch).
holds(s_7729_jpg, sign).
holds(s_7729_jpg, tiledroof).
holds(s_7729_jpg, wallsign).
holds(s_7729_jpg, industrial).

sample(s_6894_jpg).
holds(s_6894_jpg, building).
holds(s_6894_jpg, feature).
holds(s_6894_jpg, hotel).
holds(s_6894_jpg, door).
holds(s_6894_jpg, billboard).
holds(s_6894_jpg, porch).
holds(s_6894_jpg, sign).
holds(s_6894_jpg, tiledroof).
holds(s_6894_jpg, tiledrooftop).
holds(s_6894_jpg, wallsign).
holds(s_6894_jpg, chimney).
holds(s_6894_jpg, pipe).
holds(s_6894_jpg, car).
holds(s_6894_jpg, commercial).

sample(s_1877_jpg).
holds(s_1877_jpg, building).
holds(s_1877_jpg, feature).
holds(s_1877_jpg, sign).
holds(s_1877_jpg, table).
holds(s_1877_jpg, tiledrooftop).
holds(s_1877_jpg, vendingmachine).
holds(s_1877_jpg, statue).
holds(s_1877_jpg, pipe).
holds(s_1877_jpg, machine).

sample(s_6064_jpg).
holds(s_6064_jpg, building).
holds(s_6064_jpg, feature).
holds(s_6064_jpg, watertreatment).
holds(s_6064_jpg, door).
holds(s_6064_jpg, billboard).
holds(s_6064_jpg, porch).
holds(s_6064_jpg, sign).
holds(s_6064_jpg, tiledroof).
holds(s_6064_jpg, wallsign).
holds(s_6064_jpg, chimney).
holds(s_6064_jpg, pipe).
holds(s_6064_jpg, industrial).

sample(s_2405_jpg).
holds(s_2405_jpg, building).
holds(s_2405_jpg, feature).
holds(s_2405_jpg, sign).
holds(s_2405_jpg, table).
holds(s_2405_jpg, tiledrooftop).
holds(s_2405_jpg, vendingmachine).
holds(s_2405_jpg, statue).
holds(s_2405_jpg, pipe).
holds(s_2405_jpg, machine).

sample(s_12426_jpg).
holds(s_12426_jpg, building).
holds(s_12426_jpg, feature).
holds(s_12426_jpg, hotel).
holds(s_12426_jpg, billboard).
holds(s_12426_jpg, porch).
holds(s_12426_jpg, sign).
holds(s_12426_jpg, table).
holds(s_12426_jpg, tiledroof).
holds(s_12426_jpg, tiledrooftop).
holds(s_12426_jpg, chimney).
holds(s_12426_jpg, pipe).
holds(s_12426_jpg, car).
holds(s_12426_jpg, commercial).

sample(s_10998_jpg).
holds(s_10998_jpg, building).
holds(s_10998_jpg, feature).
holds(s_10998_jpg, hotel).
holds(s_10998_jpg, billboard).
holds(s_10998_jpg, porch).
holds(s_10998_jpg, sign).
holds(s_10998_jpg, table).
holds(s_10998_jpg, tiledroof).
holds(s_10998_jpg, tiledrooftop).
holds(s_10998_jpg, vendingmachine).
holds(s_10998_jpg, statue).
holds(s_10998_jpg, chimney).
holds(s_10998_jpg, pipe).
holds(s_10998_jpg, machine).
holds(s_10998_jpg, car).
holds(s_10998_jpg, commercial).

sample(s_8519_jpg).
holds(s_8519_jpg, building).
holds(s_8519_jpg, feature).
holds(s_8519_jpg, sign).
holds(s_8519_jpg, table).
holds(s_8519_jpg, tiledrooftop).
holds(s_8519_jpg, vendingmachine).
holds(s_8519_jpg, statue).
holds(s_8519_jpg, pipe).
holds(s_8519_jpg, machine).

sample(s_435_jpg).
holds(s_435_jpg, building).
holds(s_435_jpg, feature).
holds(s_435_jpg, billboard).
holds(s_435_jpg, sign).
holds(s_435_jpg, table).
holds(s_435_jpg, tiledrooftop).
holds(s_435_jpg, vendingmachine).
holds(s_435_jpg, statue).
holds(s_435_jpg, pipe).
holds(s_435_jpg, machine).

sample(s_12324_jpg).
holds(s_12324_jpg, building).
holds(s_12324_jpg, feature).
holds(s_12324_jpg, hotel).
holds(s_12324_jpg, door).
holds(s_12324_jpg, billboard).
holds(s_12324_jpg, porch).
holds(s_12324_jpg, sign).
holds(s_12324_jpg, tiledroof).
holds(s_12324_jpg, tiledrooftop).
holds(s_12324_jpg, vendingmachine).
holds(s_12324_jpg, wallsign).
holds(s_12324_jpg, chimney).
holds(s_12324_jpg, pipe).
holds(s_12324_jpg, car).
holds(s_12324_jpg, commercial).

sample(s_7032_jpg).
holds(s_7032_jpg, building).
holds(s_7032_jpg, feature).
holds(s_7032_jpg, hotel).
holds(s_7032_jpg, billboard).
holds(s_7032_jpg, sign).
holds(s_7032_jpg, table).
holds(s_7032_jpg, tiledroof).
holds(s_7032_jpg, tiledrooftop).
holds(s_7032_jpg, vendingmachine).
holds(s_7032_jpg, chimney).
holds(s_7032_jpg, pipe).
holds(s_7032_jpg, machine).
holds(s_7032_jpg, car).
holds(s_7032_jpg, commercial).

sample(s_9102_jpg).
holds(s_9102_jpg, building).
holds(s_9102_jpg, feature).
holds(s_9102_jpg, hotel).
holds(s_9102_jpg, billboard).
holds(s_9102_jpg, porch).
holds(s_9102_jpg, sign).
holds(s_9102_jpg, table).
holds(s_9102_jpg, tiledroof).
holds(s_9102_jpg, tiledrooftop).
holds(s_9102_jpg, vendingmachine).
holds(s_9102_jpg, statue).
holds(s_9102_jpg, chimney).
holds(s_9102_jpg, pipe).
holds(s_9102_jpg, machine).
holds(s_9102_jpg, car).
holds(s_9102_jpg, commercial).

sample(s_12814_jpg).
holds(s_12814_jpg, building).
holds(s_12814_jpg, feature).
holds(s_12814_jpg, hotel).
holds(s_12814_jpg, door).
holds(s_12814_jpg, billboard).
holds(s_12814_jpg, sign).
holds(s_12814_jpg, tiledroof).
holds(s_12814_jpg, tiledrooftop).
holds(s_12814_jpg, wallsign).
holds(s_12814_jpg, pipe).
holds(s_12814_jpg, industrial).

sample(s_2973_jpg).
holds(s_2973_jpg, building).
holds(s_2973_jpg, feature).
holds(s_2973_jpg, hotel).
holds(s_2973_jpg, door).
holds(s_2973_jpg, billboard).
holds(s_2973_jpg, porch).
holds(s_2973_jpg, sign).
holds(s_2973_jpg, tiledroof).
holds(s_2973_jpg, tiledrooftop).
holds(s_2973_jpg, wallsign).
holds(s_2973_jpg, chimney).
holds(s_2973_jpg, pipe).
holds(s_2973_jpg, car).
holds(s_2973_jpg, commercial).

sample(s_3290_jpg).
holds(s_3290_jpg, building).
holds(s_3290_jpg, feature).
holds(s_3290_jpg, sign).
holds(s_3290_jpg, table).
holds(s_3290_jpg, tiledrooftop).
holds(s_3290_jpg, vendingmachine).
holds(s_3290_jpg, statue).
holds(s_3290_jpg, pipe).
holds(s_3290_jpg, machine).

sample(s_2524_jpg).
holds(s_2524_jpg, building).
holds(s_2524_jpg, feature).
holds(s_2524_jpg, watertreatment).
holds(s_2524_jpg, door).
holds(s_2524_jpg, billboard).
holds(s_2524_jpg, porch).
holds(s_2524_jpg, sign).
holds(s_2524_jpg, tiledroof).
holds(s_2524_jpg, wallsign).
holds(s_2524_jpg, industrial).

sample(s_9467_jpg).
holds(s_9467_jpg, building).
holds(s_9467_jpg, feature).
holds(s_9467_jpg, sign).
holds(s_9467_jpg, table).
holds(s_9467_jpg, tiledrooftop).
holds(s_9467_jpg, vendingmachine).
holds(s_9467_jpg, statue).
holds(s_9467_jpg, pipe).
holds(s_9467_jpg, machine).

sample(s_10458_jpg).
holds(s_10458_jpg, building).
holds(s_10458_jpg, feature).
holds(s_10458_jpg, hotel).
holds(s_10458_jpg, door).
holds(s_10458_jpg, billboard).
holds(s_10458_jpg, porch).
holds(s_10458_jpg, sign).
holds(s_10458_jpg, tiledroof).
holds(s_10458_jpg, tiledrooftop).
holds(s_10458_jpg, wallsign).
holds(s_10458_jpg, chimney).
holds(s_10458_jpg, pipe).
holds(s_10458_jpg, car).
holds(s_10458_jpg, commercial).

sample(s_11930_jpg).
holds(s_11930_jpg, building).
holds(s_11930_jpg, feature).
holds(s_11930_jpg, sign).
holds(s_11930_jpg, table).
holds(s_11930_jpg, tiledrooftop).
holds(s_11930_jpg, vendingmachine).
holds(s_11930_jpg, statue).
holds(s_11930_jpg, pipe).

sample(s_7561_jpg).
holds(s_7561_jpg, building).
holds(s_7561_jpg, feature).
holds(s_7561_jpg, watertreatment).
holds(s_7561_jpg, door).
holds(s_7561_jpg, billboard).
holds(s_7561_jpg, porch).
holds(s_7561_jpg, sign).
holds(s_7561_jpg, tiledroof).
holds(s_7561_jpg, tiledrooftop).
holds(s_7561_jpg, wallsign).
holds(s_7561_jpg, pipe).
holds(s_7561_jpg, industrial).

sample(s_8809_jpg).
holds(s_8809_jpg, building).
holds(s_8809_jpg, feature).
holds(s_8809_jpg, watertreatment).
holds(s_8809_jpg, door).
holds(s_8809_jpg, billboard).
holds(s_8809_jpg, porch).
holds(s_8809_jpg, sign).
holds(s_8809_jpg, tiledroof).
holds(s_8809_jpg, tiledrooftop).
holds(s_8809_jpg, wallsign).
holds(s_8809_jpg, industrial).

sample(s_13315_jpg).
holds(s_13315_jpg, building).
holds(s_13315_jpg, feature).
holds(s_13315_jpg, watertreatment).
holds(s_13315_jpg, door).
holds(s_13315_jpg, billboard).
holds(s_13315_jpg, porch).
holds(s_13315_jpg, sign).
holds(s_13315_jpg, tiledroof).
holds(s_13315_jpg, wallsign).
holds(s_13315_jpg, industrial).

sample(s_4427_jpg).
holds(s_4427_jpg, building).
holds(s_4427_jpg, feature).
holds(s_4427_jpg, sign).
holds(s_4427_jpg, table).
holds(s_4427_jpg, tiledrooftop).
holds(s_4427_jpg, vendingmachine).
holds(s_4427_jpg, statue).
holds(s_4427_jpg, pipe).
holds(s_4427_jpg, machine).

sample(s_3517_jpg).
holds(s_3517_jpg, building).
holds(s_3517_jpg, feature).
holds(s_3517_jpg, watertreatment).
holds(s_3517_jpg, door).
holds(s_3517_jpg, billboard).
holds(s_3517_jpg, porch).
holds(s_3517_jpg, sign).
holds(s_3517_jpg, tiledroof).
holds(s_3517_jpg, wallsign).
holds(s_3517_jpg, pipe).
holds(s_3517_jpg, industrial).

sample(s_1150_jpg).
holds(s_1150_jpg, building).
holds(s_1150_jpg, feature).
holds(s_1150_jpg, watertreatment).
holds(s_1150_jpg, door).
holds(s_1150_jpg, billboard).
holds(s_1150_jpg, porch).
holds(s_1150_jpg, sign).
holds(s_1150_jpg, tiledroof).
holds(s_1150_jpg, wallsign).
holds(s_1150_jpg, industrial).

sample(s_12455_jpg).
holds(s_12455_jpg, building).
holds(s_12455_jpg, feature).
holds(s_12455_jpg, sign).
holds(s_12455_jpg, table).
holds(s_12455_jpg, tiledrooftop).
holds(s_12455_jpg, vendingmachine).
holds(s_12455_jpg, statue).
holds(s_12455_jpg, pipe).
holds(s_12455_jpg, machine).

sample(s_3878_jpg).
holds(s_3878_jpg, building).
holds(s_3878_jpg, feature).
holds(s_3878_jpg, sign).
holds(s_3878_jpg, table).
holds(s_3878_jpg, tiledrooftop).
holds(s_3878_jpg, vendingmachine).
holds(s_3878_jpg, statue).
holds(s_3878_jpg, pipe).
holds(s_3878_jpg, machine).

sample(s_4404_jpg).
holds(s_4404_jpg, building).
holds(s_4404_jpg, feature).
holds(s_4404_jpg, hotel).
holds(s_4404_jpg, door).
holds(s_4404_jpg, billboard).
holds(s_4404_jpg, porch).
holds(s_4404_jpg, sign).
holds(s_4404_jpg, tiledroof).
holds(s_4404_jpg, tiledrooftop).
holds(s_4404_jpg, wallsign).
holds(s_4404_jpg, chimney).
holds(s_4404_jpg, pipe).
holds(s_4404_jpg, car).
holds(s_4404_jpg, commercial).

sample(s_7163_jpg).
holds(s_7163_jpg, building).
holds(s_7163_jpg, feature).
holds(s_7163_jpg, porch).
holds(s_7163_jpg, sign).
holds(s_7163_jpg, table).
holds(s_7163_jpg, tiledrooftop).
holds(s_7163_jpg, vendingmachine).
holds(s_7163_jpg, statue).
holds(s_7163_jpg, pipe).

sample(s_8881_jpg).
holds(s_8881_jpg, building).
holds(s_8881_jpg, feature).
holds(s_8881_jpg, watertreatment).
holds(s_8881_jpg, door).
holds(s_8881_jpg, billboard).
holds(s_8881_jpg, porch).
holds(s_8881_jpg, sign).
holds(s_8881_jpg, tiledroof).
holds(s_8881_jpg, wallsign).
holds(s_8881_jpg, industrial).

sample(s_13820_jpg).
holds(s_13820_jpg, building).
holds(s_13820_jpg, feature).
holds(s_13820_jpg, sign).
holds(s_13820_jpg, table).
holds(s_13820_jpg, tiledrooftop).
holds(s_13820_jpg, vendingmachine).
holds(s_13820_jpg, statue).
holds(s_13820_jpg, pipe).
holds(s_13820_jpg, machine).

sample(s_15895_jpg).
holds(s_15895_jpg, building).
holds(s_15895_jpg, feature).
holds(s_15895_jpg, watertreatment).
holds(s_15895_jpg, door).
holds(s_15895_jpg, billboard).
holds(s_15895_jpg, porch).
holds(s_15895_jpg, sign).
holds(s_15895_jpg, tiledroof).
holds(s_15895_jpg, tiledrooftop).
holds(s_15895_jpg, wallsign).
holds(s_15895_jpg, pipe).
holds(s_15895_jpg, industrial).

sample(s_10455_jpg).
holds(s_10455_jpg, building).
holds(s_10455_jpg, feature).
holds(s_10455_jpg, hotel).
holds(s_10455_jpg, door).
holds(s_10455_jpg, billboard).
holds(s_10455_jpg, porch).
holds(s_10455_jpg, sign).
holds(s_10455_jpg, tiledroof).
holds(s_10455_jpg, tiledrooftop).
holds(s_10455_jpg, wallsign).
holds(s_10455_jpg, chimney).
holds(s_10455_jpg, pipe).
holds(s_10455_jpg, car).
holds(s_10455_jpg, commercial).

sample(s_3612_jpg).
holds(s_3612_jpg, building).
holds(s_3612_jpg, feature).
holds(s_3612_jpg, hotel).
holds(s_3612_jpg, billboard).
holds(s_3612_jpg, porch).
holds(s_3612_jpg, sign).
holds(s_3612_jpg, table).
holds(s_3612_jpg, tiledroof).
holds(s_3612_jpg, tiledrooftop).
holds(s_3612_jpg, vendingmachine).
holds(s_3612_jpg, wallsign).
holds(s_3612_jpg, chimney).
holds(s_3612_jpg, pipe).
holds(s_3612_jpg, machine).
holds(s_3612_jpg, car).
holds(s_3612_jpg, commercial).

sample(s_5342_jpg).
holds(s_5342_jpg, building).
holds(s_5342_jpg, feature).
holds(s_5342_jpg, porch).
holds(s_5342_jpg, sign).
holds(s_5342_jpg, table).
holds(s_5342_jpg, tiledrooftop).
holds(s_5342_jpg, vendingmachine).
holds(s_5342_jpg, statue).
holds(s_5342_jpg, pipe).

sample(s_6796_jpg).
holds(s_6796_jpg, building).
holds(s_6796_jpg, feature).
holds(s_6796_jpg, watertreatment).
holds(s_6796_jpg, door).
holds(s_6796_jpg, billboard).
holds(s_6796_jpg, porch).
holds(s_6796_jpg, sign).
holds(s_6796_jpg, tiledroof).
holds(s_6796_jpg, wallsign).
holds(s_6796_jpg, pipe).
holds(s_6796_jpg, industrial).

sample(s_10179_jpg).
holds(s_10179_jpg, building).
holds(s_10179_jpg, feature).
holds(s_10179_jpg, hotel).
holds(s_10179_jpg, door).
holds(s_10179_jpg, billboard).
holds(s_10179_jpg, porch).
holds(s_10179_jpg, sign).
holds(s_10179_jpg, tiledroof).
holds(s_10179_jpg, tiledrooftop).
holds(s_10179_jpg, wallsign).
holds(s_10179_jpg, chimney).
holds(s_10179_jpg, pipe).
holds(s_10179_jpg, car).
holds(s_10179_jpg, commercial).

sample(s_12694_jpg).
holds(s_12694_jpg, building).
holds(s_12694_jpg, feature).
holds(s_12694_jpg, watertreatment).
holds(s_12694_jpg, door).
holds(s_12694_jpg, billboard).
holds(s_12694_jpg, porch).
holds(s_12694_jpg, sign).
holds(s_12694_jpg, tiledroof).
holds(s_12694_jpg, tiledrooftop).
holds(s_12694_jpg, wallsign).
holds(s_12694_jpg, pipe).
holds(s_12694_jpg, industrial).

sample(s_15356_jpg).
holds(s_15356_jpg, building).
holds(s_15356_jpg, feature).
holds(s_15356_jpg, porch).
holds(s_15356_jpg, sign).
holds(s_15356_jpg, table).
holds(s_15356_jpg, tiledrooftop).
holds(s_15356_jpg, vendingmachine).
holds(s_15356_jpg, statue).
holds(s_15356_jpg, pipe).
holds(s_15356_jpg, machine).

sample(s_8315_jpg).
holds(s_8315_jpg, building).
holds(s_8315_jpg, feature).
holds(s_8315_jpg, billboard).
holds(s_8315_jpg, porch).
holds(s_8315_jpg, sign).
holds(s_8315_jpg, table).
holds(s_8315_jpg, tiledrooftop).
holds(s_8315_jpg, vendingmachine).
holds(s_8315_jpg, statue).

sample(s_4164_jpg).
holds(s_4164_jpg, building).
holds(s_4164_jpg, feature).
holds(s_4164_jpg, hotel).
holds(s_4164_jpg, door).
holds(s_4164_jpg, billboard).
holds(s_4164_jpg, porch).
holds(s_4164_jpg, sign).
holds(s_4164_jpg, tiledroof).
holds(s_4164_jpg, tiledrooftop).
holds(s_4164_jpg, wallsign).
holds(s_4164_jpg, chimney).
holds(s_4164_jpg, pipe).
holds(s_4164_jpg, car).
holds(s_4164_jpg, commercial).

sample(s_11997_jpg).
holds(s_11997_jpg, building).
holds(s_11997_jpg, feature).
holds(s_11997_jpg, hotel).
holds(s_11997_jpg, door).
holds(s_11997_jpg, billboard).
holds(s_11997_jpg, sign).
holds(s_11997_jpg, tiledroof).
holds(s_11997_jpg, tiledrooftop).
holds(s_11997_jpg, wallsign).
holds(s_11997_jpg, chimney).
holds(s_11997_jpg, pipe).
holds(s_11997_jpg, car).
holds(s_11997_jpg, commercial).

sample(s_15073_jpg).
holds(s_15073_jpg, building).
holds(s_15073_jpg, feature).
holds(s_15073_jpg, watertreatment).
holds(s_15073_jpg, door).
holds(s_15073_jpg, billboard).
holds(s_15073_jpg, porch).
holds(s_15073_jpg, sign).
holds(s_15073_jpg, tiledroof).
holds(s_15073_jpg, wallsign).
holds(s_15073_jpg, pipe).
holds(s_15073_jpg, industrial).

sample(s_1642_jpg).
holds(s_1642_jpg, building).
holds(s_1642_jpg, feature).
holds(s_1642_jpg, watertreatment).
holds(s_1642_jpg, door).
holds(s_1642_jpg, billboard).
holds(s_1642_jpg, porch).
holds(s_1642_jpg, sign).
holds(s_1642_jpg, tiledroof).
holds(s_1642_jpg, wallsign).
holds(s_1642_jpg, chimney).
holds(s_1642_jpg, pipe).
holds(s_1642_jpg, industrial).

sample(s_1762_jpg).
holds(s_1762_jpg, building).
holds(s_1762_jpg, feature).
holds(s_1762_jpg, watertreatment).
holds(s_1762_jpg, door).
holds(s_1762_jpg, billboard).
holds(s_1762_jpg, porch).
holds(s_1762_jpg, sign).
holds(s_1762_jpg, tiledroof).
holds(s_1762_jpg, wallsign).
holds(s_1762_jpg, pipe).
holds(s_1762_jpg, industrial).

sample(s_4436_jpg).
holds(s_4436_jpg, building).
holds(s_4436_jpg, feature).
holds(s_4436_jpg, porch).
holds(s_4436_jpg, sign).
holds(s_4436_jpg, table).
holds(s_4436_jpg, tiledrooftop).
holds(s_4436_jpg, vendingmachine).
holds(s_4436_jpg, statue).
holds(s_4436_jpg, pipe).
holds(s_4436_jpg, machine).

sample(s_14180_jpg).
holds(s_14180_jpg, building).
holds(s_14180_jpg, feature).
holds(s_14180_jpg, sign).
holds(s_14180_jpg, table).
holds(s_14180_jpg, tiledrooftop).
holds(s_14180_jpg, vendingmachine).
holds(s_14180_jpg, statue).
holds(s_14180_jpg, pipe).
holds(s_14180_jpg, machine).

sample(s_592_jpg).
holds(s_592_jpg, building).
holds(s_592_jpg, feature).
holds(s_592_jpg, watertreatment).
holds(s_592_jpg, door).
holds(s_592_jpg, billboard).
holds(s_592_jpg, porch).
holds(s_592_jpg, sign).
holds(s_592_jpg, tiledroof).
holds(s_592_jpg, wallsign).
holds(s_592_jpg, industrial).

sample(s_6382_jpg).
holds(s_6382_jpg, building).
holds(s_6382_jpg, feature).
holds(s_6382_jpg, watertreatment).
holds(s_6382_jpg, door).
holds(s_6382_jpg, billboard).
holds(s_6382_jpg, porch).
holds(s_6382_jpg, sign).
holds(s_6382_jpg, tiledroof).
holds(s_6382_jpg, wallsign).
holds(s_6382_jpg, industrial).

sample(s_15486_jpg).
holds(s_15486_jpg, building).
holds(s_15486_jpg, feature).
holds(s_15486_jpg, hotel).
holds(s_15486_jpg, billboard).
holds(s_15486_jpg, porch).
holds(s_15486_jpg, sign).
holds(s_15486_jpg, table).
holds(s_15486_jpg, tiledroof).
holds(s_15486_jpg, tiledrooftop).
holds(s_15486_jpg, vendingmachine).
holds(s_15486_jpg, statue).
holds(s_15486_jpg, chimney).
holds(s_15486_jpg, pipe).
holds(s_15486_jpg, machine).
holds(s_15486_jpg, car).
holds(s_15486_jpg, commercial).

sample(s_429_jpg).
holds(s_429_jpg, building).
holds(s_429_jpg, feature).
holds(s_429_jpg, hotel).
holds(s_429_jpg, door).
holds(s_429_jpg, billboard).
holds(s_429_jpg, porch).
holds(s_429_jpg, sign).
holds(s_429_jpg, tiledroof).
holds(s_429_jpg, tiledrooftop).
holds(s_429_jpg, wallsign).
holds(s_429_jpg, chimney).
holds(s_429_jpg, pipe).
holds(s_429_jpg, car).
holds(s_429_jpg, commercial).

sample(s_1253_jpg).
holds(s_1253_jpg, building).
holds(s_1253_jpg, feature).
holds(s_1253_jpg, porch).
holds(s_1253_jpg, sign).
holds(s_1253_jpg, table).
holds(s_1253_jpg, tiledrooftop).
holds(s_1253_jpg, vendingmachine).
holds(s_1253_jpg, statue).
holds(s_1253_jpg, pipe).
holds(s_1253_jpg, machine).

sample(s_11471_jpg).
holds(s_11471_jpg, building).
holds(s_11471_jpg, feature).
holds(s_11471_jpg, porch).
holds(s_11471_jpg, sign).
holds(s_11471_jpg, table).
holds(s_11471_jpg, tiledrooftop).
holds(s_11471_jpg, vendingmachine).
holds(s_11471_jpg, statue).
holds(s_11471_jpg, pipe).

sample(s_11309_jpg).
holds(s_11309_jpg, building).
holds(s_11309_jpg, feature).
holds(s_11309_jpg, sign).
holds(s_11309_jpg, table).
holds(s_11309_jpg, tiledrooftop).
holds(s_11309_jpg, vendingmachine).
holds(s_11309_jpg, statue).
holds(s_11309_jpg, pipe).

sample(s_10252_jpg).
holds(s_10252_jpg, building).
holds(s_10252_jpg, feature).
holds(s_10252_jpg, watertreatment).
holds(s_10252_jpg, door).
holds(s_10252_jpg, billboard).
holds(s_10252_jpg, porch).
holds(s_10252_jpg, sign).
holds(s_10252_jpg, tiledroof).
holds(s_10252_jpg, tiledrooftop).
holds(s_10252_jpg, wallsign).
holds(s_10252_jpg, chimney).
holds(s_10252_jpg, pipe).
holds(s_10252_jpg, industrial).

sample(s_8064_jpg).
holds(s_8064_jpg, building).
holds(s_8064_jpg, feature).
holds(s_8064_jpg, hotel).
holds(s_8064_jpg, door).
holds(s_8064_jpg, billboard).
holds(s_8064_jpg, porch).
holds(s_8064_jpg, sign).
holds(s_8064_jpg, tiledroof).
holds(s_8064_jpg, tiledrooftop).
holds(s_8064_jpg, vendingmachine).
holds(s_8064_jpg, wallsign).
holds(s_8064_jpg, chimney).
holds(s_8064_jpg, pipe).
holds(s_8064_jpg, machine).
holds(s_8064_jpg, car).
holds(s_8064_jpg, commercial).

sample(s_12852_jpg).
holds(s_12852_jpg, building).
holds(s_12852_jpg, feature).
holds(s_12852_jpg, hotel).
holds(s_12852_jpg, billboard).
holds(s_12852_jpg, porch).
holds(s_12852_jpg, sign).
holds(s_12852_jpg, table).
holds(s_12852_jpg, tiledroof).
holds(s_12852_jpg, tiledrooftop).
holds(s_12852_jpg, vendingmachine).
holds(s_12852_jpg, wallsign).
holds(s_12852_jpg, chimney).
holds(s_12852_jpg, pipe).
holds(s_12852_jpg, machine).
holds(s_12852_jpg, car).
holds(s_12852_jpg, commercial).

sample(s_4294_jpg).
holds(s_4294_jpg, building).
holds(s_4294_jpg, feature).
holds(s_4294_jpg, watertreatment).
holds(s_4294_jpg, door).
holds(s_4294_jpg, billboard).
holds(s_4294_jpg, porch).
holds(s_4294_jpg, sign).
holds(s_4294_jpg, tiledroof).
holds(s_4294_jpg, wallsign).
holds(s_4294_jpg, industrial).

sample(s_12707_jpg).
holds(s_12707_jpg, building).
holds(s_12707_jpg, feature).
holds(s_12707_jpg, window).
holds(s_12707_jpg, porch).
holds(s_12707_jpg, sign).
holds(s_12707_jpg, table).
holds(s_12707_jpg, tiledrooftop).
holds(s_12707_jpg, vendingmachine).
holds(s_12707_jpg, statue).
holds(s_12707_jpg, pipe).

sample(s_7092_jpg).
holds(s_7092_jpg, building).
holds(s_7092_jpg, feature).
holds(s_7092_jpg, hotel).
holds(s_7092_jpg, door).
holds(s_7092_jpg, billboard).
holds(s_7092_jpg, sign).
holds(s_7092_jpg, tiledroof).
holds(s_7092_jpg, tiledrooftop).
holds(s_7092_jpg, wallsign).
holds(s_7092_jpg, chimney).
holds(s_7092_jpg, pipe).
holds(s_7092_jpg, car).
holds(s_7092_jpg, commercial).

sample(s_4532_jpg).
holds(s_4532_jpg, building).
holds(s_4532_jpg, feature).
holds(s_4532_jpg, sign).
holds(s_4532_jpg, table).
holds(s_4532_jpg, tiledrooftop).
holds(s_4532_jpg, vendingmachine).
holds(s_4532_jpg, statue).
holds(s_4532_jpg, pipe).
holds(s_4532_jpg, machine).

sample(s_11464_jpg).
holds(s_11464_jpg, building).
holds(s_11464_jpg, feature).
holds(s_11464_jpg, watertreatment).
holds(s_11464_jpg, door).
holds(s_11464_jpg, billboard).
holds(s_11464_jpg, porch).
holds(s_11464_jpg, sign).
holds(s_11464_jpg, tiledroof).
holds(s_11464_jpg, wallsign).
holds(s_11464_jpg, industrial).

sample(s_10741_jpg).
holds(s_10741_jpg, building).
holds(s_10741_jpg, feature).
holds(s_10741_jpg, watertreatment).
holds(s_10741_jpg, door).
holds(s_10741_jpg, billboard).
holds(s_10741_jpg, porch).
holds(s_10741_jpg, sign).
holds(s_10741_jpg, tiledroof).
holds(s_10741_jpg, tiledrooftop).
holds(s_10741_jpg, wallsign).
holds(s_10741_jpg, industrial).

sample(s_10259_jpg).
holds(s_10259_jpg, building).
holds(s_10259_jpg, feature).
holds(s_10259_jpg, sign).
holds(s_10259_jpg, table).
holds(s_10259_jpg, tiledrooftop).
holds(s_10259_jpg, vendingmachine).
holds(s_10259_jpg, statue).
holds(s_10259_jpg, pipe).
holds(s_10259_jpg, machine).

sample(s_102_jpg).
holds(s_102_jpg, building).
holds(s_102_jpg, feature).
holds(s_102_jpg, hotel).
holds(s_102_jpg, billboard).
holds(s_102_jpg, sign).
holds(s_102_jpg, table).
holds(s_102_jpg, tiledroof).
holds(s_102_jpg, tiledrooftop).
holds(s_102_jpg, vendingmachine).
holds(s_102_jpg, statue).
holds(s_102_jpg, chimney).
holds(s_102_jpg, pipe).
holds(s_102_jpg, machine).
holds(s_102_jpg, car).
holds(s_102_jpg, commercial).

sample(s_359_jpg).
holds(s_359_jpg, building).
holds(s_359_jpg, feature).
holds(s_359_jpg, porch).
holds(s_359_jpg, sign).
holds(s_359_jpg, table).
holds(s_359_jpg, tiledrooftop).
holds(s_359_jpg, vendingmachine).
holds(s_359_jpg, statue).

sample(s_11953_jpg).
holds(s_11953_jpg, building).
holds(s_11953_jpg, feature).
holds(s_11953_jpg, watertreatment).
holds(s_11953_jpg, door).
holds(s_11953_jpg, billboard).
holds(s_11953_jpg, porch).
holds(s_11953_jpg, sign).
holds(s_11953_jpg, tiledroof).
holds(s_11953_jpg, wallsign).
holds(s_11953_jpg, industrial).

sample(s_4954_jpg).
holds(s_4954_jpg, building).
holds(s_4954_jpg, feature).
holds(s_4954_jpg, watertreatment).
holds(s_4954_jpg, door).
holds(s_4954_jpg, billboard).
holds(s_4954_jpg, porch).
holds(s_4954_jpg, sign).
holds(s_4954_jpg, tiledroof).
holds(s_4954_jpg, wallsign).
holds(s_4954_jpg, pipe).
holds(s_4954_jpg, industrial).

sample(s_15298_jpg).
holds(s_15298_jpg, building).
holds(s_15298_jpg, feature).
holds(s_15298_jpg, watertreatment).
holds(s_15298_jpg, door).
holds(s_15298_jpg, billboard).
holds(s_15298_jpg, porch).
holds(s_15298_jpg, sign).
holds(s_15298_jpg, tiledroof).
holds(s_15298_jpg, wallsign).
holds(s_15298_jpg, industrial).

sample(s_14983_jpg).
holds(s_14983_jpg, building).
holds(s_14983_jpg, feature).
holds(s_14983_jpg, watertreatment).
holds(s_14983_jpg, door).
holds(s_14983_jpg, billboard).
holds(s_14983_jpg, porch).
holds(s_14983_jpg, sign).
holds(s_14983_jpg, tiledroof).
holds(s_14983_jpg, tiledrooftop).
holds(s_14983_jpg, wallsign).
holds(s_14983_jpg, industrial).

sample(s_6724_jpg).
holds(s_6724_jpg, building).
holds(s_6724_jpg, feature).
holds(s_6724_jpg, watertreatment).
holds(s_6724_jpg, door).
holds(s_6724_jpg, billboard).
holds(s_6724_jpg, porch).
holds(s_6724_jpg, sign).
holds(s_6724_jpg, tiledroof).
holds(s_6724_jpg, wallsign).
holds(s_6724_jpg, industrial).

sample(s_11325_jpg).
holds(s_11325_jpg, building).
holds(s_11325_jpg, feature).
holds(s_11325_jpg, hotel).
holds(s_11325_jpg, door).
holds(s_11325_jpg, billboard).
holds(s_11325_jpg, porch).
holds(s_11325_jpg, sign).
holds(s_11325_jpg, tiledroof).
holds(s_11325_jpg, tiledrooftop).
holds(s_11325_jpg, wallsign).
holds(s_11325_jpg, chimney).
holds(s_11325_jpg, pipe).
holds(s_11325_jpg, car).
holds(s_11325_jpg, commercial).

sample(s_8363_jpg).
holds(s_8363_jpg, building).
holds(s_8363_jpg, feature).
holds(s_8363_jpg, sign).
holds(s_8363_jpg, table).
holds(s_8363_jpg, tiledrooftop).
holds(s_8363_jpg, vendingmachine).
holds(s_8363_jpg, statue).
holds(s_8363_jpg, pipe).

sample(s_10716_jpg).
holds(s_10716_jpg, building).
holds(s_10716_jpg, feature).
holds(s_10716_jpg, hotel).
holds(s_10716_jpg, billboard).
holds(s_10716_jpg, sign).
holds(s_10716_jpg, table).
holds(s_10716_jpg, tiledroof).
holds(s_10716_jpg, tiledrooftop).
holds(s_10716_jpg, vendingmachine).
holds(s_10716_jpg, chimney).
holds(s_10716_jpg, pipe).
holds(s_10716_jpg, machine).
holds(s_10716_jpg, car).
holds(s_10716_jpg, commercial).

sample(s_7600_jpg).
holds(s_7600_jpg, building).
holds(s_7600_jpg, feature).
holds(s_7600_jpg, watertreatment).
holds(s_7600_jpg, door).
holds(s_7600_jpg, billboard).
holds(s_7600_jpg, porch).
holds(s_7600_jpg, sign).
holds(s_7600_jpg, tiledroof).
holds(s_7600_jpg, wallsign).
holds(s_7600_jpg, industrial).

sample(s_9439_jpg).
holds(s_9439_jpg, building).
holds(s_9439_jpg, feature).
holds(s_9439_jpg, watertreatment).
holds(s_9439_jpg, door).
holds(s_9439_jpg, billboard).
holds(s_9439_jpg, porch).
holds(s_9439_jpg, sign).
holds(s_9439_jpg, tiledroof).
holds(s_9439_jpg, wallsign).
holds(s_9439_jpg, chimney).
holds(s_9439_jpg, pipe).
holds(s_9439_jpg, industrial).

sample(s_9838_jpg).
holds(s_9838_jpg, building).
holds(s_9838_jpg, feature).
holds(s_9838_jpg, watertreatment).
holds(s_9838_jpg, porch).
holds(s_9838_jpg, sign).
holds(s_9838_jpg, table).
holds(s_9838_jpg, tiledroof).
holds(s_9838_jpg, vendingmachine).
holds(s_9838_jpg, statue).
holds(s_9838_jpg, pipe).
holds(s_9838_jpg, industrial).

sample(s_9314_jpg).
holds(s_9314_jpg, building).
holds(s_9314_jpg, feature).
holds(s_9314_jpg, sign).
holds(s_9314_jpg, table).
holds(s_9314_jpg, tiledrooftop).
holds(s_9314_jpg, vendingmachine).
holds(s_9314_jpg, statue).
holds(s_9314_jpg, pipe).
holds(s_9314_jpg, machine).

sample(s_6246_jpg).
holds(s_6246_jpg, building).
holds(s_6246_jpg, feature).
holds(s_6246_jpg, hotel).
holds(s_6246_jpg, billboard).
holds(s_6246_jpg, porch).
holds(s_6246_jpg, sign).
holds(s_6246_jpg, table).
holds(s_6246_jpg, tiledroof).
holds(s_6246_jpg, tiledrooftop).
holds(s_6246_jpg, vendingmachine).
holds(s_6246_jpg, statue).
holds(s_6246_jpg, chimney).
holds(s_6246_jpg, pipe).
holds(s_6246_jpg, machine).
holds(s_6246_jpg, car).
holds(s_6246_jpg, commercial).

sample(s_11557_jpg).
holds(s_11557_jpg, building).
holds(s_11557_jpg, feature).
holds(s_11557_jpg, watertreatment).
holds(s_11557_jpg, door).
holds(s_11557_jpg, billboard).
holds(s_11557_jpg, porch).
holds(s_11557_jpg, sign).
holds(s_11557_jpg, tiledroof).
holds(s_11557_jpg, tiledrooftop).
holds(s_11557_jpg, wallsign).
holds(s_11557_jpg, industrial).

sample(s_12271_jpg).
holds(s_12271_jpg, building).
holds(s_12271_jpg, feature).
holds(s_12271_jpg, watertreatment).
holds(s_12271_jpg, door).
holds(s_12271_jpg, billboard).
holds(s_12271_jpg, porch).
holds(s_12271_jpg, sign).
holds(s_12271_jpg, tiledroof).
holds(s_12271_jpg, tiledrooftop).
holds(s_12271_jpg, wallsign).
holds(s_12271_jpg, pipe).
holds(s_12271_jpg, industrial).

sample(s_1845_jpg).
holds(s_1845_jpg, building).
holds(s_1845_jpg, feature).
holds(s_1845_jpg, hotel).
holds(s_1845_jpg, door).
holds(s_1845_jpg, billboard).
holds(s_1845_jpg, porch).
holds(s_1845_jpg, sign).
holds(s_1845_jpg, table).
holds(s_1845_jpg, tiledroof).
holds(s_1845_jpg, tiledrooftop).
holds(s_1845_jpg, vendingmachine).
holds(s_1845_jpg, wallsign).
holds(s_1845_jpg, chimney).
holds(s_1845_jpg, pipe).
holds(s_1845_jpg, machine).
holds(s_1845_jpg, car).
holds(s_1845_jpg, commercial).

sample(s_6795_jpg).
holds(s_6795_jpg, building).
holds(s_6795_jpg, feature).
holds(s_6795_jpg, hotel).
holds(s_6795_jpg, billboard).
holds(s_6795_jpg, sign).
holds(s_6795_jpg, tiledroof).
holds(s_6795_jpg, tiledrooftop).
holds(s_6795_jpg, chimney).
holds(s_6795_jpg, pipe).
holds(s_6795_jpg, car).
holds(s_6795_jpg, commercial).

sample(s_13615_jpg).
holds(s_13615_jpg, building).
holds(s_13615_jpg, feature).
holds(s_13615_jpg, watertreatment).
holds(s_13615_jpg, door).
holds(s_13615_jpg, billboard).
holds(s_13615_jpg, porch).
holds(s_13615_jpg, sign).
holds(s_13615_jpg, tiledroof).
holds(s_13615_jpg, wallsign).
holds(s_13615_jpg, industrial).

sample(s_1368_jpg).
holds(s_1368_jpg, building).
holds(s_1368_jpg, feature).
holds(s_1368_jpg, hotel).
holds(s_1368_jpg, door).
holds(s_1368_jpg, billboard).
holds(s_1368_jpg, porch).
holds(s_1368_jpg, sign).
holds(s_1368_jpg, tiledroof).
holds(s_1368_jpg, tiledrooftop).
holds(s_1368_jpg, vendingmachine).
holds(s_1368_jpg, wallsign).
holds(s_1368_jpg, chimney).
holds(s_1368_jpg, pipe).
holds(s_1368_jpg, machine).
holds(s_1368_jpg, car).
holds(s_1368_jpg, commercial).

sample(s_9764_jpg).
holds(s_9764_jpg, building).
holds(s_9764_jpg, feature).
holds(s_9764_jpg, sign).
holds(s_9764_jpg, table).
holds(s_9764_jpg, tiledrooftop).
holds(s_9764_jpg, vendingmachine).
holds(s_9764_jpg, statue).
holds(s_9764_jpg, pipe).

sample(s_2333_jpg).
holds(s_2333_jpg, building).
holds(s_2333_jpg, feature).
holds(s_2333_jpg, sign).
holds(s_2333_jpg, table).
holds(s_2333_jpg, tiledrooftop).
holds(s_2333_jpg, vendingmachine).
holds(s_2333_jpg, statue).
holds(s_2333_jpg, pipe).
holds(s_2333_jpg, machine).

sample(s_5685_jpg).
holds(s_5685_jpg, building).
holds(s_5685_jpg, feature).
holds(s_5685_jpg, hotel).
holds(s_5685_jpg, door).
holds(s_5685_jpg, billboard).
holds(s_5685_jpg, porch).
holds(s_5685_jpg, sign).
holds(s_5685_jpg, tiledroof).
holds(s_5685_jpg, tiledrooftop).
holds(s_5685_jpg, vendingmachine).
holds(s_5685_jpg, wallsign).
holds(s_5685_jpg, chimney).
holds(s_5685_jpg, pipe).
holds(s_5685_jpg, car).
holds(s_5685_jpg, commercial).

sample(s_12568_jpg).
holds(s_12568_jpg, building).
holds(s_12568_jpg, feature).
holds(s_12568_jpg, watertreatment).
holds(s_12568_jpg, door).
holds(s_12568_jpg, billboard).
holds(s_12568_jpg, porch).
holds(s_12568_jpg, sign).
holds(s_12568_jpg, tiledroof).
holds(s_12568_jpg, wallsign).
holds(s_12568_jpg, industrial).

sample(s_11735_jpg).
holds(s_11735_jpg, building).
holds(s_11735_jpg, feature).
holds(s_11735_jpg, billboard).
holds(s_11735_jpg, sign).
holds(s_11735_jpg, table).
holds(s_11735_jpg, tiledrooftop).
holds(s_11735_jpg, vendingmachine).
holds(s_11735_jpg, statue).
holds(s_11735_jpg, pipe).
holds(s_11735_jpg, machine).

sample(s_5716_jpg).
holds(s_5716_jpg, building).
holds(s_5716_jpg, feature).
holds(s_5716_jpg, watertreatment).
holds(s_5716_jpg, door).
holds(s_5716_jpg, billboard).
holds(s_5716_jpg, porch).
holds(s_5716_jpg, sign).
holds(s_5716_jpg, tiledroof).
holds(s_5716_jpg, tiledrooftop).
holds(s_5716_jpg, wallsign).
holds(s_5716_jpg, pipe).
holds(s_5716_jpg, industrial).

sample(s_14585_jpg).
holds(s_14585_jpg, building).
holds(s_14585_jpg, feature).
holds(s_14585_jpg, window).
holds(s_14585_jpg, porch).
holds(s_14585_jpg, table).
holds(s_14585_jpg, tiledrooftop).
holds(s_14585_jpg, vendingmachine).
holds(s_14585_jpg, statue).

sample(s_656_jpg).
holds(s_656_jpg, building).
holds(s_656_jpg, feature).
holds(s_656_jpg, billboard).
holds(s_656_jpg, sign).
holds(s_656_jpg, table).
holds(s_656_jpg, tiledrooftop).
holds(s_656_jpg, vendingmachine).
holds(s_656_jpg, statue).
holds(s_656_jpg, pipe).
holds(s_656_jpg, machine).

sample(s_10040_jpg).
holds(s_10040_jpg, building).
holds(s_10040_jpg, feature).
holds(s_10040_jpg, porch).
holds(s_10040_jpg, sign).
holds(s_10040_jpg, table).
holds(s_10040_jpg, tiledrooftop).
holds(s_10040_jpg, vendingmachine).
holds(s_10040_jpg, statue).
holds(s_10040_jpg, pipe).
holds(s_10040_jpg, machine).

sample(s_8996_jpg).
holds(s_8996_jpg, building).
holds(s_8996_jpg, feature).
holds(s_8996_jpg, sign).
holds(s_8996_jpg, table).
holds(s_8996_jpg, tiledrooftop).
holds(s_8996_jpg, vendingmachine).
holds(s_8996_jpg, statue).

sample(s_15929_jpg).
holds(s_15929_jpg, building).
holds(s_15929_jpg, feature).
holds(s_15929_jpg, hotel).
holds(s_15929_jpg, porch).
holds(s_15929_jpg, sign).
holds(s_15929_jpg, table).
holds(s_15929_jpg, tiledrooftop).
holds(s_15929_jpg, vendingmachine).
holds(s_15929_jpg, statue).
holds(s_15929_jpg, pipe).
holds(s_15929_jpg, commercial).

sample(s_11785_jpg).
holds(s_11785_jpg, building).
holds(s_11785_jpg, feature).
holds(s_11785_jpg, watertreatment).
holds(s_11785_jpg, door).
holds(s_11785_jpg, billboard).
holds(s_11785_jpg, porch).
holds(s_11785_jpg, sign).
holds(s_11785_jpg, tiledroof).
holds(s_11785_jpg, tiledrooftop).
holds(s_11785_jpg, wallsign).
holds(s_11785_jpg, industrial).

sample(s_9345_jpg).
holds(s_9345_jpg, building).
holds(s_9345_jpg, feature).
holds(s_9345_jpg, hotel).
holds(s_9345_jpg, door).
holds(s_9345_jpg, billboard).
holds(s_9345_jpg, porch).
holds(s_9345_jpg, sign).
holds(s_9345_jpg, tiledroof).
holds(s_9345_jpg, tiledrooftop).
holds(s_9345_jpg, wallsign).
holds(s_9345_jpg, chimney).
holds(s_9345_jpg, pipe).
holds(s_9345_jpg, car).
holds(s_9345_jpg, commercial).

sample(s_11176_jpg).
holds(s_11176_jpg, building).
holds(s_11176_jpg, feature).
holds(s_11176_jpg, watertreatment).
holds(s_11176_jpg, door).
holds(s_11176_jpg, billboard).
holds(s_11176_jpg, porch).
holds(s_11176_jpg, sign).
holds(s_11176_jpg, tiledroof).
holds(s_11176_jpg, tiledrooftop).
holds(s_11176_jpg, wallsign).
holds(s_11176_jpg, chimney).
holds(s_11176_jpg, pipe).
holds(s_11176_jpg, industrial).

sample(s_6782_jpg).
holds(s_6782_jpg, building).
holds(s_6782_jpg, feature).
holds(s_6782_jpg, window).
holds(s_6782_jpg, porch).
holds(s_6782_jpg, sign).
holds(s_6782_jpg, table).
holds(s_6782_jpg, tiledrooftop).
holds(s_6782_jpg, vendingmachine).
holds(s_6782_jpg, statue).
holds(s_6782_jpg, pipe).

sample(s_10590_jpg).
holds(s_10590_jpg, building).
holds(s_10590_jpg, feature).
holds(s_10590_jpg, hotel).
holds(s_10590_jpg, door).
holds(s_10590_jpg, billboard).
holds(s_10590_jpg, porch).
holds(s_10590_jpg, sign).
holds(s_10590_jpg, tiledroof).
holds(s_10590_jpg, tiledrooftop).
holds(s_10590_jpg, wallsign).
holds(s_10590_jpg, chimney).
holds(s_10590_jpg, pipe).
holds(s_10590_jpg, car).
holds(s_10590_jpg, commercial).

sample(s_11082_jpg).
holds(s_11082_jpg, building).
holds(s_11082_jpg, feature).
holds(s_11082_jpg, hotel).
holds(s_11082_jpg, billboard).
holds(s_11082_jpg, sign).
holds(s_11082_jpg, table).
holds(s_11082_jpg, tiledroof).
holds(s_11082_jpg, tiledrooftop).
holds(s_11082_jpg, vendingmachine).
holds(s_11082_jpg, chimney).
holds(s_11082_jpg, pipe).
holds(s_11082_jpg, machine).
holds(s_11082_jpg, car).
holds(s_11082_jpg, commercial).

sample(s_4854_jpg).
holds(s_4854_jpg, building).
holds(s_4854_jpg, feature).
holds(s_4854_jpg, hotel).
holds(s_4854_jpg, door).
holds(s_4854_jpg, billboard).
holds(s_4854_jpg, porch).
holds(s_4854_jpg, sign).
holds(s_4854_jpg, tiledroof).
holds(s_4854_jpg, tiledrooftop).
holds(s_4854_jpg, wallsign).
holds(s_4854_jpg, chimney).
holds(s_4854_jpg, pipe).
holds(s_4854_jpg, car).
holds(s_4854_jpg, commercial).

sample(s_7224_jpg).
holds(s_7224_jpg, building).
holds(s_7224_jpg, feature).
holds(s_7224_jpg, hotel).
holds(s_7224_jpg, billboard).
holds(s_7224_jpg, sign).
holds(s_7224_jpg, table).
holds(s_7224_jpg, tiledroof).
holds(s_7224_jpg, tiledrooftop).
holds(s_7224_jpg, vendingmachine).
holds(s_7224_jpg, wallsign).
holds(s_7224_jpg, chimney).
holds(s_7224_jpg, pipe).
holds(s_7224_jpg, machine).
holds(s_7224_jpg, car).
holds(s_7224_jpg, commercial).

sample(s_7408_jpg).
holds(s_7408_jpg, building).
holds(s_7408_jpg, feature).
holds(s_7408_jpg, watertreatment).
holds(s_7408_jpg, door).
holds(s_7408_jpg, billboard).
holds(s_7408_jpg, porch).
holds(s_7408_jpg, sign).
holds(s_7408_jpg, tiledroof).
holds(s_7408_jpg, wallsign).
holds(s_7408_jpg, industrial).

sample(s_9415_jpg).
holds(s_9415_jpg, building).
holds(s_9415_jpg, feature).
holds(s_9415_jpg, watertreatment).
holds(s_9415_jpg, door).
holds(s_9415_jpg, billboard).
holds(s_9415_jpg, porch).
holds(s_9415_jpg, sign).
holds(s_9415_jpg, tiledroof).
holds(s_9415_jpg, wallsign).
holds(s_9415_jpg, pipe).
holds(s_9415_jpg, industrial).

sample(s_278_jpg).
holds(s_278_jpg, building).
holds(s_278_jpg, feature).
holds(s_278_jpg, window).
holds(s_278_jpg, porch).
holds(s_278_jpg, sign).
holds(s_278_jpg, table).
holds(s_278_jpg, tiledrooftop).
holds(s_278_jpg, vendingmachine).
holds(s_278_jpg, statue).
holds(s_278_jpg, pipe).

sample(s_5208_jpg).
holds(s_5208_jpg, building).
holds(s_5208_jpg, feature).
holds(s_5208_jpg, hotel).
holds(s_5208_jpg, door).
holds(s_5208_jpg, billboard).
holds(s_5208_jpg, porch).
holds(s_5208_jpg, sign).
holds(s_5208_jpg, tiledroof).
holds(s_5208_jpg, tiledrooftop).
holds(s_5208_jpg, wallsign).
holds(s_5208_jpg, chimney).
holds(s_5208_jpg, pipe).
holds(s_5208_jpg, car).
holds(s_5208_jpg, commercial).

sample(s_4206_jpg).
holds(s_4206_jpg, building).
holds(s_4206_jpg, feature).
holds(s_4206_jpg, hotel).
holds(s_4206_jpg, billboard).
holds(s_4206_jpg, porch).
holds(s_4206_jpg, sign).
holds(s_4206_jpg, table).
holds(s_4206_jpg, tiledroof).
holds(s_4206_jpg, tiledrooftop).
holds(s_4206_jpg, vendingmachine).
holds(s_4206_jpg, statue).
holds(s_4206_jpg, chimney).
holds(s_4206_jpg, pipe).
holds(s_4206_jpg, machine).
holds(s_4206_jpg, car).
holds(s_4206_jpg, commercial).

sample(s_14628_jpg).
holds(s_14628_jpg, building).
holds(s_14628_jpg, feature).
holds(s_14628_jpg, hotel).
holds(s_14628_jpg, billboard).
holds(s_14628_jpg, porch).
holds(s_14628_jpg, sign).
holds(s_14628_jpg, table).
holds(s_14628_jpg, tiledroof).
holds(s_14628_jpg, tiledrooftop).
holds(s_14628_jpg, vendingmachine).
holds(s_14628_jpg, chimney).
holds(s_14628_jpg, pipe).
holds(s_14628_jpg, machine).
holds(s_14628_jpg, car).
holds(s_14628_jpg, commercial).

sample(s_13618_jpg).
holds(s_13618_jpg, building).
holds(s_13618_jpg, feature).
holds(s_13618_jpg, watertreatment).
holds(s_13618_jpg, door).
holds(s_13618_jpg, billboard).
holds(s_13618_jpg, porch).
holds(s_13618_jpg, sign).
holds(s_13618_jpg, tiledroof).
holds(s_13618_jpg, wallsign).
holds(s_13618_jpg, chimney).
holds(s_13618_jpg, pipe).
holds(s_13618_jpg, car).
holds(s_13618_jpg, industrial).

sample(s_10615_jpg).
holds(s_10615_jpg, building).
holds(s_10615_jpg, feature).
holds(s_10615_jpg, watertreatment).
holds(s_10615_jpg, door).
holds(s_10615_jpg, billboard).
holds(s_10615_jpg, porch).
holds(s_10615_jpg, sign).
holds(s_10615_jpg, tiledroof).
holds(s_10615_jpg, tiledrooftop).
holds(s_10615_jpg, wallsign).
holds(s_10615_jpg, pipe).
holds(s_10615_jpg, industrial).

sample(s_3007_jpg).
holds(s_3007_jpg, building).
holds(s_3007_jpg, feature).
holds(s_3007_jpg, watertreatment).
holds(s_3007_jpg, door).
holds(s_3007_jpg, billboard).
holds(s_3007_jpg, porch).
holds(s_3007_jpg, sign).
holds(s_3007_jpg, tiledroof).
holds(s_3007_jpg, wallsign).
holds(s_3007_jpg, pipe).
holds(s_3007_jpg, industrial).

sample(s_7400_jpg).
holds(s_7400_jpg, building).
holds(s_7400_jpg, feature).
holds(s_7400_jpg, sign).
holds(s_7400_jpg, table).
holds(s_7400_jpg, tiledrooftop).
holds(s_7400_jpg, vendingmachine).
holds(s_7400_jpg, statue).
holds(s_7400_jpg, pipe).
holds(s_7400_jpg, machine).

sample(s_12925_jpg).
holds(s_12925_jpg, building).
holds(s_12925_jpg, feature).
holds(s_12925_jpg, watertreatment).
holds(s_12925_jpg, door).
holds(s_12925_jpg, billboard).
holds(s_12925_jpg, porch).
holds(s_12925_jpg, sign).
holds(s_12925_jpg, tiledroof).
holds(s_12925_jpg, wallsign).
holds(s_12925_jpg, industrial).

sample(s_15804_jpg).
holds(s_15804_jpg, building).
holds(s_15804_jpg, feature).
holds(s_15804_jpg, hotel).
holds(s_15804_jpg, billboard).
holds(s_15804_jpg, sign).
holds(s_15804_jpg, tiledroof).
holds(s_15804_jpg, tiledrooftop).
holds(s_15804_jpg, vendingmachine).
holds(s_15804_jpg, chimney).
holds(s_15804_jpg, pipe).
holds(s_15804_jpg, machine).
holds(s_15804_jpg, car).
holds(s_15804_jpg, commercial).

sample(s_14633_jpg).
holds(s_14633_jpg, building).
holds(s_14633_jpg, feature).
holds(s_14633_jpg, porch).
holds(s_14633_jpg, sign).
holds(s_14633_jpg, table).
holds(s_14633_jpg, tiledrooftop).
holds(s_14633_jpg, vendingmachine).
holds(s_14633_jpg, statue).
holds(s_14633_jpg, pipe).
holds(s_14633_jpg, machine).

sample(s_12045_jpg).
holds(s_12045_jpg, building).
holds(s_12045_jpg, feature).
holds(s_12045_jpg, hotel).
holds(s_12045_jpg, door).
holds(s_12045_jpg, billboard).
holds(s_12045_jpg, sign).
holds(s_12045_jpg, tiledroof).
holds(s_12045_jpg, tiledrooftop).
holds(s_12045_jpg, wallsign).
holds(s_12045_jpg, chimney).
holds(s_12045_jpg, pipe).
holds(s_12045_jpg, car).
holds(s_12045_jpg, commercial).

sample(s_7103_jpg).
holds(s_7103_jpg, building).
holds(s_7103_jpg, feature).
holds(s_7103_jpg, sign).
holds(s_7103_jpg, table).
holds(s_7103_jpg, tiledrooftop).
holds(s_7103_jpg, vendingmachine).
holds(s_7103_jpg, statue).
holds(s_7103_jpg, pipe).

sample(s_6161_jpg).
holds(s_6161_jpg, building).
holds(s_6161_jpg, feature).
holds(s_6161_jpg, porch).
holds(s_6161_jpg, sign).
holds(s_6161_jpg, table).
holds(s_6161_jpg, tiledrooftop).
holds(s_6161_jpg, vendingmachine).
holds(s_6161_jpg, statue).
holds(s_6161_jpg, pipe).

sample(s_15044_jpg).
holds(s_15044_jpg, building).
holds(s_15044_jpg, feature).
holds(s_15044_jpg, sign).
holds(s_15044_jpg, table).
holds(s_15044_jpg, tiledrooftop).
holds(s_15044_jpg, vendingmachine).
holds(s_15044_jpg, statue).
holds(s_15044_jpg, pipe).
holds(s_15044_jpg, machine).

sample(s_12531_jpg).
holds(s_12531_jpg, building).
holds(s_12531_jpg, feature).
holds(s_12531_jpg, hotel).
holds(s_12531_jpg, billboard).
holds(s_12531_jpg, sign).
holds(s_12531_jpg, table).
holds(s_12531_jpg, tiledroof).
holds(s_12531_jpg, tiledrooftop).
holds(s_12531_jpg, vendingmachine).
holds(s_12531_jpg, statue).
holds(s_12531_jpg, chimney).
holds(s_12531_jpg, pipe).
holds(s_12531_jpg, machine).
holds(s_12531_jpg, car).
holds(s_12531_jpg, commercial).

sample(s_4386_jpg).
holds(s_4386_jpg, building).
holds(s_4386_jpg, feature).
holds(s_4386_jpg, hotel).
holds(s_4386_jpg, door).
holds(s_4386_jpg, billboard).
holds(s_4386_jpg, sign).
holds(s_4386_jpg, tiledroof).
holds(s_4386_jpg, tiledrooftop).
holds(s_4386_jpg, wallsign).
holds(s_4386_jpg, chimney).
holds(s_4386_jpg, pipe).
holds(s_4386_jpg, car).
holds(s_4386_jpg, commercial).

sample(s_3768_jpg).
holds(s_3768_jpg, building).
holds(s_3768_jpg, feature).
holds(s_3768_jpg, hotel).
holds(s_3768_jpg, billboard).
holds(s_3768_jpg, sign).
holds(s_3768_jpg, table).
holds(s_3768_jpg, tiledroof).
holds(s_3768_jpg, tiledrooftop).
holds(s_3768_jpg, vendingmachine).
holds(s_3768_jpg, wallsign).
holds(s_3768_jpg, chimney).
holds(s_3768_jpg, pipe).
holds(s_3768_jpg, machine).
holds(s_3768_jpg, car).
holds(s_3768_jpg, commercial).

sample(s_9398_jpg).
holds(s_9398_jpg, building).
holds(s_9398_jpg, feature).
holds(s_9398_jpg, sign).
holds(s_9398_jpg, table).
holds(s_9398_jpg, tiledrooftop).
holds(s_9398_jpg, vendingmachine).
holds(s_9398_jpg, statue).
holds(s_9398_jpg, pipe).
holds(s_9398_jpg, machine).

sample(s_13971_jpg).
holds(s_13971_jpg, building).
holds(s_13971_jpg, feature).
holds(s_13971_jpg, hotel).
holds(s_13971_jpg, billboard).
holds(s_13971_jpg, porch).
holds(s_13971_jpg, sign).
holds(s_13971_jpg, table).
holds(s_13971_jpg, tiledroof).
holds(s_13971_jpg, tiledrooftop).
holds(s_13971_jpg, vendingmachine).
holds(s_13971_jpg, chimney).
holds(s_13971_jpg, pipe).
holds(s_13971_jpg, machine).
holds(s_13971_jpg, car).
holds(s_13971_jpg, commercial).

sample(s_1423_jpg).
holds(s_1423_jpg, building).
holds(s_1423_jpg, feature).
holds(s_1423_jpg, watertreatment).
holds(s_1423_jpg, door).
holds(s_1423_jpg, billboard).
holds(s_1423_jpg, porch).
holds(s_1423_jpg, sign).
holds(s_1423_jpg, tiledroof).
holds(s_1423_jpg, tiledrooftop).
holds(s_1423_jpg, wallsign).
holds(s_1423_jpg, industrial).

sample(s_10689_jpg).
holds(s_10689_jpg, building).
holds(s_10689_jpg, feature).
holds(s_10689_jpg, hotel).
holds(s_10689_jpg, door).
holds(s_10689_jpg, billboard).
holds(s_10689_jpg, porch).
holds(s_10689_jpg, sign).
holds(s_10689_jpg, tiledroof).
holds(s_10689_jpg, tiledrooftop).
holds(s_10689_jpg, wallsign).
holds(s_10689_jpg, chimney).
holds(s_10689_jpg, pipe).
holds(s_10689_jpg, car).
holds(s_10689_jpg, commercial).

sample(s_5938_jpg).
holds(s_5938_jpg, building).
holds(s_5938_jpg, feature).
holds(s_5938_jpg, watertreatment).
holds(s_5938_jpg, door).
holds(s_5938_jpg, billboard).
holds(s_5938_jpg, porch).
holds(s_5938_jpg, sign).
holds(s_5938_jpg, tiledroof).
holds(s_5938_jpg, wallsign).
holds(s_5938_jpg, industrial).

sample(s_15370_jpg).
holds(s_15370_jpg, building).
holds(s_15370_jpg, feature).
holds(s_15370_jpg, watertreatment).
holds(s_15370_jpg, door).
holds(s_15370_jpg, billboard).
holds(s_15370_jpg, porch).
holds(s_15370_jpg, sign).
holds(s_15370_jpg, tiledroof).
holds(s_15370_jpg, wallsign).
holds(s_15370_jpg, industrial).

sample(s_7266_jpg).
holds(s_7266_jpg, building).
holds(s_7266_jpg, feature).
holds(s_7266_jpg, hotel).
holds(s_7266_jpg, door).
holds(s_7266_jpg, billboard).
holds(s_7266_jpg, porch).
holds(s_7266_jpg, sign).
holds(s_7266_jpg, tiledroof).
holds(s_7266_jpg, tiledrooftop).
holds(s_7266_jpg, wallsign).
holds(s_7266_jpg, chimney).
holds(s_7266_jpg, pipe).
holds(s_7266_jpg, car).
holds(s_7266_jpg, commercial).

sample(s_11582_jpg).
holds(s_11582_jpg, building).
holds(s_11582_jpg, feature).
holds(s_11582_jpg, window).
holds(s_11582_jpg, porch).
holds(s_11582_jpg, sign).
holds(s_11582_jpg, table).
holds(s_11582_jpg, tiledrooftop).
holds(s_11582_jpg, vendingmachine).
holds(s_11582_jpg, statue).
holds(s_11582_jpg, pipe).

sample(s_8709_jpg).
holds(s_8709_jpg, building).
holds(s_8709_jpg, feature).
holds(s_8709_jpg, hotel).
holds(s_8709_jpg, billboard).
holds(s_8709_jpg, porch).
holds(s_8709_jpg, sign).
holds(s_8709_jpg, table).
holds(s_8709_jpg, tiledroof).
holds(s_8709_jpg, tiledrooftop).
holds(s_8709_jpg, vendingmachine).
holds(s_8709_jpg, wallsign).
holds(s_8709_jpg, chimney).
holds(s_8709_jpg, pipe).
holds(s_8709_jpg, machine).
holds(s_8709_jpg, car).
holds(s_8709_jpg, commercial).

sample(s_12937_jpg).
holds(s_12937_jpg, building).
holds(s_12937_jpg, feature).
holds(s_12937_jpg, watertreatment).
holds(s_12937_jpg, door).
holds(s_12937_jpg, billboard).
holds(s_12937_jpg, porch).
holds(s_12937_jpg, sign).
holds(s_12937_jpg, tiledroof).
holds(s_12937_jpg, wallsign).
holds(s_12937_jpg, industrial).

sample(s_9022_jpg).
holds(s_9022_jpg, building).
holds(s_9022_jpg, feature).
holds(s_9022_jpg, watertreatment).
holds(s_9022_jpg, door).
holds(s_9022_jpg, billboard).
holds(s_9022_jpg, porch).
holds(s_9022_jpg, sign).
holds(s_9022_jpg, tiledroof).
holds(s_9022_jpg, tiledrooftop).
holds(s_9022_jpg, wallsign).
holds(s_9022_jpg, pipe).
holds(s_9022_jpg, industrial).

sample(s_8851_jpg).
holds(s_8851_jpg, building).
holds(s_8851_jpg, feature).
holds(s_8851_jpg, watertreatment).
holds(s_8851_jpg, door).
holds(s_8851_jpg, billboard).
holds(s_8851_jpg, porch).
holds(s_8851_jpg, sign).
holds(s_8851_jpg, tiledroof).
holds(s_8851_jpg, wallsign).
holds(s_8851_jpg, industrial).

sample(s_15266_jpg).
holds(s_15266_jpg, building).
holds(s_15266_jpg, feature).
holds(s_15266_jpg, porch).
holds(s_15266_jpg, sign).
holds(s_15266_jpg, table).
holds(s_15266_jpg, tiledrooftop).
holds(s_15266_jpg, vendingmachine).
holds(s_15266_jpg, statue).

sample(s_6190_jpg).
holds(s_6190_jpg, building).
holds(s_6190_jpg, feature).
holds(s_6190_jpg, watertreatment).
holds(s_6190_jpg, door).
holds(s_6190_jpg, billboard).
holds(s_6190_jpg, porch).
holds(s_6190_jpg, sign).
holds(s_6190_jpg, tiledroof).
holds(s_6190_jpg, wallsign).
holds(s_6190_jpg, industrial).

sample(s_12709_jpg).
holds(s_12709_jpg, building).
holds(s_12709_jpg, feature).
holds(s_12709_jpg, watertreatment).
holds(s_12709_jpg, door).
holds(s_12709_jpg, billboard).
holds(s_12709_jpg, porch).
holds(s_12709_jpg, sign).
holds(s_12709_jpg, tiledroof).
holds(s_12709_jpg, wallsign).
holds(s_12709_jpg, chimney).
holds(s_12709_jpg, pipe).
holds(s_12709_jpg, industrial).

sample(s_3945_jpg).
holds(s_3945_jpg, building).
holds(s_3945_jpg, feature).
holds(s_3945_jpg, hotel).
holds(s_3945_jpg, billboard).
holds(s_3945_jpg, porch).
holds(s_3945_jpg, sign).
holds(s_3945_jpg, table).
holds(s_3945_jpg, tiledroof).
holds(s_3945_jpg, tiledrooftop).
holds(s_3945_jpg, vendingmachine).
holds(s_3945_jpg, wallsign).
holds(s_3945_jpg, statue).
holds(s_3945_jpg, chimney).
holds(s_3945_jpg, pipe).
holds(s_3945_jpg, car).
holds(s_3945_jpg, commercial).

sample(s_15637_jpg).
holds(s_15637_jpg, building).
holds(s_15637_jpg, feature).
holds(s_15637_jpg, watertreatment).
holds(s_15637_jpg, door).
holds(s_15637_jpg, billboard).
holds(s_15637_jpg, sign).
holds(s_15637_jpg, tiledroof).
holds(s_15637_jpg, tiledrooftop).
holds(s_15637_jpg, wallsign).
holds(s_15637_jpg, chimney).
holds(s_15637_jpg, pipe).
holds(s_15637_jpg, car).
holds(s_15637_jpg, industrial).

sample(s_883_jpg).
holds(s_883_jpg, building).
holds(s_883_jpg, feature).
holds(s_883_jpg, watertreatment).
holds(s_883_jpg, door).
holds(s_883_jpg, billboard).
holds(s_883_jpg, porch).
holds(s_883_jpg, sign).
holds(s_883_jpg, tiledroof).
holds(s_883_jpg, wallsign).
holds(s_883_jpg, chimney).
holds(s_883_jpg, pipe).
holds(s_883_jpg, industrial).

sample(s_6762_jpg).
holds(s_6762_jpg, building).
holds(s_6762_jpg, feature).
holds(s_6762_jpg, hotel).
holds(s_6762_jpg, door).
holds(s_6762_jpg, billboard).
holds(s_6762_jpg, porch).
holds(s_6762_jpg, sign).
holds(s_6762_jpg, tiledroof).
holds(s_6762_jpg, tiledrooftop).
holds(s_6762_jpg, vendingmachine).
holds(s_6762_jpg, wallsign).
holds(s_6762_jpg, chimney).
holds(s_6762_jpg, pipe).
holds(s_6762_jpg, car).
holds(s_6762_jpg, commercial).

sample(s_12598_jpg).
holds(s_12598_jpg, building).
holds(s_12598_jpg, feature).
holds(s_12598_jpg, watertreatment).
holds(s_12598_jpg, door).
holds(s_12598_jpg, billboard).
holds(s_12598_jpg, porch).
holds(s_12598_jpg, sign).
holds(s_12598_jpg, tiledroof).
holds(s_12598_jpg, wallsign).
holds(s_12598_jpg, pipe).
holds(s_12598_jpg, industrial).

sample(s_4432_jpg).
holds(s_4432_jpg, building).
holds(s_4432_jpg, feature).
holds(s_4432_jpg, watertreatment).
holds(s_4432_jpg, door).
holds(s_4432_jpg, billboard).
holds(s_4432_jpg, porch).
holds(s_4432_jpg, sign).
holds(s_4432_jpg, tiledroof).
holds(s_4432_jpg, wallsign).
holds(s_4432_jpg, industrial).

sample(s_44_jpg).
holds(s_44_jpg, building).
holds(s_44_jpg, feature).
holds(s_44_jpg, sign).
holds(s_44_jpg, table).
holds(s_44_jpg, tiledrooftop).
holds(s_44_jpg, vendingmachine).
holds(s_44_jpg, statue).
holds(s_44_jpg, pipe).
holds(s_44_jpg, machine).

sample(s_1755_jpg).
holds(s_1755_jpg, building).
holds(s_1755_jpg, feature).
holds(s_1755_jpg, hotel).
holds(s_1755_jpg, porch).
holds(s_1755_jpg, sign).
holds(s_1755_jpg, table).
holds(s_1755_jpg, tiledroof).
holds(s_1755_jpg, vendingmachine).
holds(s_1755_jpg, statue).
holds(s_1755_jpg, pipe).
holds(s_1755_jpg, commercial).

sample(s_3864_jpg).
holds(s_3864_jpg, building).
holds(s_3864_jpg, feature).
holds(s_3864_jpg, hotel).
holds(s_3864_jpg, billboard).
holds(s_3864_jpg, sign).
holds(s_3864_jpg, table).
holds(s_3864_jpg, tiledroof).
holds(s_3864_jpg, tiledrooftop).
holds(s_3864_jpg, vendingmachine).
holds(s_3864_jpg, wallsign).
holds(s_3864_jpg, chimney).
holds(s_3864_jpg, pipe).
holds(s_3864_jpg, machine).
holds(s_3864_jpg, car).
holds(s_3864_jpg, commercial).

sample(s_13339_jpg).
holds(s_13339_jpg, building).
holds(s_13339_jpg, feature).
holds(s_13339_jpg, watertreatment).
holds(s_13339_jpg, door).
holds(s_13339_jpg, billboard).
holds(s_13339_jpg, porch).
holds(s_13339_jpg, sign).
holds(s_13339_jpg, tiledroof).
holds(s_13339_jpg, wallsign).
holds(s_13339_jpg, pipe).
holds(s_13339_jpg, industrial).

sample(s_14929_jpg).
holds(s_14929_jpg, building).
holds(s_14929_jpg, feature).
holds(s_14929_jpg, watertreatment).
holds(s_14929_jpg, door).
holds(s_14929_jpg, billboard).
holds(s_14929_jpg, porch).
holds(s_14929_jpg, sign).
holds(s_14929_jpg, tiledroof).
holds(s_14929_jpg, tiledrooftop).
holds(s_14929_jpg, wallsign).
holds(s_14929_jpg, pipe).
holds(s_14929_jpg, industrial).

sample(s_2762_jpg).
holds(s_2762_jpg, building).
holds(s_2762_jpg, feature).
holds(s_2762_jpg, billboard).
holds(s_2762_jpg, sign).
holds(s_2762_jpg, table).
holds(s_2762_jpg, tiledrooftop).
holds(s_2762_jpg, vendingmachine).
holds(s_2762_jpg, statue).
holds(s_2762_jpg, pipe).
holds(s_2762_jpg, machine).

sample(s_8855_jpg).
holds(s_8855_jpg, building).
holds(s_8855_jpg, feature).
holds(s_8855_jpg, sign).
holds(s_8855_jpg, table).
holds(s_8855_jpg, tiledrooftop).
holds(s_8855_jpg, vendingmachine).
holds(s_8855_jpg, statue).
holds(s_8855_jpg, pipe).
holds(s_8855_jpg, machine).

sample(s_11641_jpg).
holds(s_11641_jpg, building).
holds(s_11641_jpg, feature).
holds(s_11641_jpg, watertreatment).
holds(s_11641_jpg, door).
holds(s_11641_jpg, billboard).
holds(s_11641_jpg, porch).
holds(s_11641_jpg, sign).
holds(s_11641_jpg, tiledroof).
holds(s_11641_jpg, tiledrooftop).
holds(s_11641_jpg, wallsign).
holds(s_11641_jpg, pipe).
holds(s_11641_jpg, industrial).

sample(s_13716_jpg).
holds(s_13716_jpg, building).
holds(s_13716_jpg, feature).
holds(s_13716_jpg, hotel).
holds(s_13716_jpg, door).
holds(s_13716_jpg, billboard).
holds(s_13716_jpg, porch).
holds(s_13716_jpg, sign).
holds(s_13716_jpg, tiledroof).
holds(s_13716_jpg, tiledrooftop).
holds(s_13716_jpg, vendingmachine).
holds(s_13716_jpg, wallsign).
holds(s_13716_jpg, chimney).
holds(s_13716_jpg, pipe).
holds(s_13716_jpg, machine).
holds(s_13716_jpg, car).
holds(s_13716_jpg, commercial).

sample(s_4651_jpg).
holds(s_4651_jpg, building).
holds(s_4651_jpg, feature).
holds(s_4651_jpg, watertreatment).
holds(s_4651_jpg, door).
holds(s_4651_jpg, billboard).
holds(s_4651_jpg, porch).
holds(s_4651_jpg, sign).
holds(s_4651_jpg, tiledroof).
holds(s_4651_jpg, wallsign).
holds(s_4651_jpg, industrial).

sample(s_6426_jpg).
holds(s_6426_jpg, building).
holds(s_6426_jpg, feature).
holds(s_6426_jpg, hotel).
holds(s_6426_jpg, door).
holds(s_6426_jpg, billboard).
holds(s_6426_jpg, sign).
holds(s_6426_jpg, tiledroof).
holds(s_6426_jpg, tiledrooftop).
holds(s_6426_jpg, wallsign).
holds(s_6426_jpg, chimney).
holds(s_6426_jpg, pipe).
holds(s_6426_jpg, machine).
holds(s_6426_jpg, car).
holds(s_6426_jpg, commercial).

sample(s_9465_jpg).
holds(s_9465_jpg, building).
holds(s_9465_jpg, feature).
holds(s_9465_jpg, hotel).
holds(s_9465_jpg, door).
holds(s_9465_jpg, billboard).
holds(s_9465_jpg, sign).
holds(s_9465_jpg, tiledroof).
holds(s_9465_jpg, tiledrooftop).
holds(s_9465_jpg, wallsign).
holds(s_9465_jpg, chimney).
holds(s_9465_jpg, pipe).
holds(s_9465_jpg, car).
holds(s_9465_jpg, commercial).

sample(s_10066_jpg).
holds(s_10066_jpg, building).
holds(s_10066_jpg, feature).
holds(s_10066_jpg, watertreatment).
holds(s_10066_jpg, door).
holds(s_10066_jpg, billboard).
holds(s_10066_jpg, porch).
holds(s_10066_jpg, sign).
holds(s_10066_jpg, tiledroof).
holds(s_10066_jpg, wallsign).
holds(s_10066_jpg, pipe).
holds(s_10066_jpg, industrial).

sample(s_3457_jpg).
holds(s_3457_jpg, building).
holds(s_3457_jpg, feature).
holds(s_3457_jpg, watertreatment).
holds(s_3457_jpg, door).
holds(s_3457_jpg, billboard).
holds(s_3457_jpg, porch).
holds(s_3457_jpg, sign).
holds(s_3457_jpg, tiledroof).
holds(s_3457_jpg, tiledrooftop).
holds(s_3457_jpg, wallsign).
holds(s_3457_jpg, pipe).
holds(s_3457_jpg, industrial).

sample(s_7910_jpg).
holds(s_7910_jpg, building).
holds(s_7910_jpg, feature).
holds(s_7910_jpg, sign).
holds(s_7910_jpg, table).
holds(s_7910_jpg, tiledrooftop).
holds(s_7910_jpg, vendingmachine).
holds(s_7910_jpg, statue).
holds(s_7910_jpg, pipe).

sample(s_10836_jpg).
holds(s_10836_jpg, building).
holds(s_10836_jpg, feature).
holds(s_10836_jpg, hotel).
holds(s_10836_jpg, door).
holds(s_10836_jpg, billboard).
holds(s_10836_jpg, porch).
holds(s_10836_jpg, sign).
holds(s_10836_jpg, tiledroof).
holds(s_10836_jpg, tiledrooftop).
holds(s_10836_jpg, wallsign).
holds(s_10836_jpg, chimney).
holds(s_10836_jpg, pipe).
holds(s_10836_jpg, car).
holds(s_10836_jpg, commercial).

sample(s_11315_jpg).
holds(s_11315_jpg, building).
holds(s_11315_jpg, feature).
holds(s_11315_jpg, porch).
holds(s_11315_jpg, sign).
holds(s_11315_jpg, table).
holds(s_11315_jpg, tiledrooftop).
holds(s_11315_jpg, vendingmachine).
holds(s_11315_jpg, statue).
holds(s_11315_jpg, pipe).
holds(s_11315_jpg, machine).

sample(s_7626_jpg).
holds(s_7626_jpg, building).
holds(s_7626_jpg, feature).
holds(s_7626_jpg, hotel).
holds(s_7626_jpg, billboard).
holds(s_7626_jpg, porch).
holds(s_7626_jpg, sign).
holds(s_7626_jpg, table).
holds(s_7626_jpg, tiledroof).
holds(s_7626_jpg, tiledrooftop).
holds(s_7626_jpg, vendingmachine).
holds(s_7626_jpg, statue).
holds(s_7626_jpg, chimney).
holds(s_7626_jpg, pipe).
holds(s_7626_jpg, machine).
holds(s_7626_jpg, car).
holds(s_7626_jpg, commercial).

sample(s_15706_jpg).
holds(s_15706_jpg, building).
holds(s_15706_jpg, feature).
holds(s_15706_jpg, watertreatment).
holds(s_15706_jpg, door).
holds(s_15706_jpg, billboard).
holds(s_15706_jpg, porch).
holds(s_15706_jpg, sign).
holds(s_15706_jpg, tiledroof).
holds(s_15706_jpg, wallsign).
holds(s_15706_jpg, pipe).
holds(s_15706_jpg, industrial).

sample(s_4358_jpg).
holds(s_4358_jpg, building).
holds(s_4358_jpg, feature).
holds(s_4358_jpg, porch).
holds(s_4358_jpg, sign).
holds(s_4358_jpg, table).
holds(s_4358_jpg, tiledrooftop).
holds(s_4358_jpg, vendingmachine).
holds(s_4358_jpg, statue).
holds(s_4358_jpg, pipe).

sample(s_3746_jpg).
holds(s_3746_jpg, building).
holds(s_3746_jpg, feature).
holds(s_3746_jpg, sign).
holds(s_3746_jpg, table).
holds(s_3746_jpg, tiledrooftop).
holds(s_3746_jpg, vendingmachine).
holds(s_3746_jpg, statue).
holds(s_3746_jpg, pipe).
holds(s_3746_jpg, machine).

sample(s_13245_jpg).
holds(s_13245_jpg, building).
holds(s_13245_jpg, feature).
holds(s_13245_jpg, hotel).
holds(s_13245_jpg, billboard).
holds(s_13245_jpg, sign).
holds(s_13245_jpg, table).
holds(s_13245_jpg, tiledroof).
holds(s_13245_jpg, tiledrooftop).
holds(s_13245_jpg, vendingmachine).
holds(s_13245_jpg, statue).
holds(s_13245_jpg, chimney).
holds(s_13245_jpg, pipe).
holds(s_13245_jpg, machine).
holds(s_13245_jpg, car).
holds(s_13245_jpg, commercial).

sample(s_5139_jpg).
holds(s_5139_jpg, building).
holds(s_5139_jpg, feature).
holds(s_5139_jpg, hotel).
holds(s_5139_jpg, billboard).
holds(s_5139_jpg, porch).
holds(s_5139_jpg, sign).
holds(s_5139_jpg, table).
holds(s_5139_jpg, tiledroof).
holds(s_5139_jpg, tiledrooftop).
holds(s_5139_jpg, vendingmachine).
holds(s_5139_jpg, wallsign).
holds(s_5139_jpg, chimney).
holds(s_5139_jpg, pipe).
holds(s_5139_jpg, machine).
holds(s_5139_jpg, car).
holds(s_5139_jpg, commercial).

sample(s_3665_jpg).
holds(s_3665_jpg, building).
holds(s_3665_jpg, feature).
holds(s_3665_jpg, billboard).
holds(s_3665_jpg, porch).
holds(s_3665_jpg, sign).
holds(s_3665_jpg, table).
holds(s_3665_jpg, tiledrooftop).
holds(s_3665_jpg, vendingmachine).
holds(s_3665_jpg, statue).
holds(s_3665_jpg, pipe).
holds(s_3665_jpg, machine).

sample(s_14917_jpg).
holds(s_14917_jpg, building).
holds(s_14917_jpg, feature).
holds(s_14917_jpg, watertreatment).
holds(s_14917_jpg, door).
holds(s_14917_jpg, billboard).
holds(s_14917_jpg, porch).
holds(s_14917_jpg, sign).
holds(s_14917_jpg, tiledroof).
holds(s_14917_jpg, wallsign).
holds(s_14917_jpg, industrial).

sample(s_3603_jpg).
holds(s_3603_jpg, building).
holds(s_3603_jpg, feature).
holds(s_3603_jpg, hotel).
holds(s_3603_jpg, door).
holds(s_3603_jpg, billboard).
holds(s_3603_jpg, porch).
holds(s_3603_jpg, sign).
holds(s_3603_jpg, tiledroof).
holds(s_3603_jpg, tiledrooftop).
holds(s_3603_jpg, wallsign).
holds(s_3603_jpg, chimney).
holds(s_3603_jpg, pipe).
holds(s_3603_jpg, car).
holds(s_3603_jpg, commercial).

sample(s_5821_jpg).
holds(s_5821_jpg, building).
holds(s_5821_jpg, feature).
holds(s_5821_jpg, watertreatment).
holds(s_5821_jpg, door).
holds(s_5821_jpg, billboard).
holds(s_5821_jpg, porch).
holds(s_5821_jpg, sign).
holds(s_5821_jpg, tiledroof).
holds(s_5821_jpg, tiledrooftop).
holds(s_5821_jpg, wallsign).
holds(s_5821_jpg, pipe).
holds(s_5821_jpg, industrial).

sample(s_14863_jpg).
holds(s_14863_jpg, building).
holds(s_14863_jpg, feature).
holds(s_14863_jpg, watertreatment).
holds(s_14863_jpg, door).
holds(s_14863_jpg, billboard).
holds(s_14863_jpg, porch).
holds(s_14863_jpg, sign).
holds(s_14863_jpg, tiledroof).
holds(s_14863_jpg, wallsign).
holds(s_14863_jpg, industrial).

sample(s_3909_jpg).
holds(s_3909_jpg, building).
holds(s_3909_jpg, feature).
holds(s_3909_jpg, hotel).
holds(s_3909_jpg, porch).
holds(s_3909_jpg, sign).
holds(s_3909_jpg, table).
holds(s_3909_jpg, tiledroof).
holds(s_3909_jpg, tiledrooftop).
holds(s_3909_jpg, vendingmachine).
holds(s_3909_jpg, statue).
holds(s_3909_jpg, pipe).
holds(s_3909_jpg, commercial).

sample(s_13244_jpg).
holds(s_13244_jpg, building).
holds(s_13244_jpg, feature).
holds(s_13244_jpg, billboard).
holds(s_13244_jpg, sign).
holds(s_13244_jpg, table).
holds(s_13244_jpg, tiledrooftop).
holds(s_13244_jpg, vendingmachine).
holds(s_13244_jpg, statue).
holds(s_13244_jpg, chimney).
holds(s_13244_jpg, pipe).
holds(s_13244_jpg, machine).
holds(s_13244_jpg, car).

sample(s_4256_jpg).
holds(s_4256_jpg, building).
holds(s_4256_jpg, feature).
holds(s_4256_jpg, window).
holds(s_4256_jpg, porch).
holds(s_4256_jpg, table).
holds(s_4256_jpg, tiledrooftop).
holds(s_4256_jpg, vendingmachine).
holds(s_4256_jpg, statue).

sample(s_10862_jpg).
holds(s_10862_jpg, building).
holds(s_10862_jpg, feature).
holds(s_10862_jpg, sign).
holds(s_10862_jpg, table).
holds(s_10862_jpg, tiledrooftop).
holds(s_10862_jpg, vendingmachine).
holds(s_10862_jpg, statue).
holds(s_10862_jpg, pipe).

sample(s_11656_jpg).
holds(s_11656_jpg, building).
holds(s_11656_jpg, feature).
holds(s_11656_jpg, watertreatment).
holds(s_11656_jpg, door).
holds(s_11656_jpg, billboard).
holds(s_11656_jpg, porch).
holds(s_11656_jpg, sign).
holds(s_11656_jpg, tiledroof).
holds(s_11656_jpg, wallsign).
holds(s_11656_jpg, pipe).
holds(s_11656_jpg, industrial).

sample(s_1065_jpg).
holds(s_1065_jpg, building).
holds(s_1065_jpg, feature).
holds(s_1065_jpg, hotel).
holds(s_1065_jpg, billboard).
holds(s_1065_jpg, sign).
holds(s_1065_jpg, table).
holds(s_1065_jpg, tiledroof).
holds(s_1065_jpg, tiledrooftop).
holds(s_1065_jpg, vendingmachine).
holds(s_1065_jpg, chimney).
holds(s_1065_jpg, pipe).
holds(s_1065_jpg, machine).
holds(s_1065_jpg, car).
holds(s_1065_jpg, commercial).

sample(s_12978_jpg).
holds(s_12978_jpg, building).
holds(s_12978_jpg, feature).
holds(s_12978_jpg, hotel).
holds(s_12978_jpg, billboard).
holds(s_12978_jpg, sign).
holds(s_12978_jpg, table).
holds(s_12978_jpg, tiledrooftop).
holds(s_12978_jpg, vendingmachine).
holds(s_12978_jpg, statue).
holds(s_12978_jpg, chimney).
holds(s_12978_jpg, pipe).
holds(s_12978_jpg, machine).
holds(s_12978_jpg, car).
holds(s_12978_jpg, commercial).

sample(s_11118_jpg).
holds(s_11118_jpg, building).
holds(s_11118_jpg, feature).
holds(s_11118_jpg, hotel).
holds(s_11118_jpg, door).
holds(s_11118_jpg, billboard).
holds(s_11118_jpg, sign).
holds(s_11118_jpg, tiledroof).
holds(s_11118_jpg, tiledrooftop).
holds(s_11118_jpg, vendingmachine).
holds(s_11118_jpg, wallsign).
holds(s_11118_jpg, chimney).
holds(s_11118_jpg, pipe).
holds(s_11118_jpg, machine).
holds(s_11118_jpg, car).
holds(s_11118_jpg, commercial).

sample(s_3738_jpg).
holds(s_3738_jpg, building).
holds(s_3738_jpg, feature).
holds(s_3738_jpg, hotel).
holds(s_3738_jpg, billboard).
holds(s_3738_jpg, sign).
holds(s_3738_jpg, table).
holds(s_3738_jpg, tiledroof).
holds(s_3738_jpg, tiledrooftop).
holds(s_3738_jpg, vendingmachine).
holds(s_3738_jpg, wallsign).
holds(s_3738_jpg, chimney).
holds(s_3738_jpg, pipe).
holds(s_3738_jpg, machine).
holds(s_3738_jpg, car).
holds(s_3738_jpg, commercial).

sample(s_6854_jpg).
holds(s_6854_jpg, building).
holds(s_6854_jpg, feature).
holds(s_6854_jpg, sign).
holds(s_6854_jpg, table).
holds(s_6854_jpg, tiledrooftop).
holds(s_6854_jpg, vendingmachine).
holds(s_6854_jpg, statue).
holds(s_6854_jpg, pipe).
holds(s_6854_jpg, machine).

sample(s_4014_jpg).
holds(s_4014_jpg, building).
holds(s_4014_jpg, feature).
holds(s_4014_jpg, hotel).
holds(s_4014_jpg, billboard).
holds(s_4014_jpg, porch).
holds(s_4014_jpg, sign).
holds(s_4014_jpg, table).
holds(s_4014_jpg, tiledroof).
holds(s_4014_jpg, tiledrooftop).
holds(s_4014_jpg, vendingmachine).
holds(s_4014_jpg, chimney).
holds(s_4014_jpg, pipe).
holds(s_4014_jpg, machine).
holds(s_4014_jpg, car).
holds(s_4014_jpg, commercial).

sample(s_11331_jpg).
holds(s_11331_jpg, building).
holds(s_11331_jpg, feature).
holds(s_11331_jpg, hotel).
holds(s_11331_jpg, door).
holds(s_11331_jpg, billboard).
holds(s_11331_jpg, porch).
holds(s_11331_jpg, sign).
holds(s_11331_jpg, tiledroof).
holds(s_11331_jpg, tiledrooftop).
holds(s_11331_jpg, wallsign).
holds(s_11331_jpg, chimney).
holds(s_11331_jpg, pipe).
holds(s_11331_jpg, car).
holds(s_11331_jpg, commercial).

sample(s_9064_jpg).
holds(s_9064_jpg, building).
holds(s_9064_jpg, feature).
holds(s_9064_jpg, watertreatment).
holds(s_9064_jpg, door).
holds(s_9064_jpg, billboard).
holds(s_9064_jpg, porch).
holds(s_9064_jpg, sign).
holds(s_9064_jpg, tiledroof).
holds(s_9064_jpg, wallsign).
holds(s_9064_jpg, chimney).
holds(s_9064_jpg, pipe).
holds(s_9064_jpg, industrial).

sample(s_1890_jpg).
holds(s_1890_jpg, building).
holds(s_1890_jpg, feature).
holds(s_1890_jpg, hotel).
holds(s_1890_jpg, door).
holds(s_1890_jpg, billboard).
holds(s_1890_jpg, porch).
holds(s_1890_jpg, sign).
holds(s_1890_jpg, tiledroof).
holds(s_1890_jpg, tiledrooftop).
holds(s_1890_jpg, wallsign).
holds(s_1890_jpg, chimney).
holds(s_1890_jpg, pipe).
holds(s_1890_jpg, car).
holds(s_1890_jpg, commercial).

sample(s_8479_jpg).
holds(s_8479_jpg, building).
holds(s_8479_jpg, feature).
holds(s_8479_jpg, watertreatment).
holds(s_8479_jpg, door).
holds(s_8479_jpg, billboard).
holds(s_8479_jpg, porch).
holds(s_8479_jpg, sign).
holds(s_8479_jpg, tiledroof).
holds(s_8479_jpg, tiledrooftop).
holds(s_8479_jpg, wallsign).
holds(s_8479_jpg, pipe).
holds(s_8479_jpg, industrial).

sample(s_12766_jpg).
holds(s_12766_jpg, building).
holds(s_12766_jpg, feature).
holds(s_12766_jpg, watertreatment).
holds(s_12766_jpg, door).
holds(s_12766_jpg, billboard).
holds(s_12766_jpg, porch).
holds(s_12766_jpg, sign).
holds(s_12766_jpg, tiledroof).
holds(s_12766_jpg, tiledrooftop).
holds(s_12766_jpg, wallsign).
holds(s_12766_jpg, industrial).

sample(s_5709_jpg).
holds(s_5709_jpg, building).
holds(s_5709_jpg, feature).
holds(s_5709_jpg, hotel).
holds(s_5709_jpg, door).
holds(s_5709_jpg, billboard).
holds(s_5709_jpg, porch).
holds(s_5709_jpg, sign).
holds(s_5709_jpg, tiledroof).
holds(s_5709_jpg, tiledrooftop).
holds(s_5709_jpg, wallsign).
holds(s_5709_jpg, chimney).
holds(s_5709_jpg, pipe).
holds(s_5709_jpg, car).
holds(s_5709_jpg, commercial).

sample(s_4608_jpg).
holds(s_4608_jpg, building).
holds(s_4608_jpg, feature).
holds(s_4608_jpg, hotel).
holds(s_4608_jpg, door).
holds(s_4608_jpg, billboard).
holds(s_4608_jpg, porch).
holds(s_4608_jpg, sign).
holds(s_4608_jpg, tiledroof).
holds(s_4608_jpg, tiledrooftop).
holds(s_4608_jpg, vendingmachine).
holds(s_4608_jpg, wallsign).
holds(s_4608_jpg, chimney).
holds(s_4608_jpg, pipe).
holds(s_4608_jpg, machine).
holds(s_4608_jpg, car).
holds(s_4608_jpg, commercial).

sample(s_12136_jpg).
holds(s_12136_jpg, building).
holds(s_12136_jpg, feature).
holds(s_12136_jpg, watertreatment).
holds(s_12136_jpg, door).
holds(s_12136_jpg, billboard).
holds(s_12136_jpg, porch).
holds(s_12136_jpg, sign).
holds(s_12136_jpg, tiledroof).
holds(s_12136_jpg, wallsign).
holds(s_12136_jpg, chimney).
holds(s_12136_jpg, pipe).
holds(s_12136_jpg, industrial).

sample(s_7478_jpg).
holds(s_7478_jpg, building).
holds(s_7478_jpg, feature).
holds(s_7478_jpg, billboard).
holds(s_7478_jpg, sign).
holds(s_7478_jpg, table).
holds(s_7478_jpg, tiledrooftop).
holds(s_7478_jpg, vendingmachine).
holds(s_7478_jpg, statue).
holds(s_7478_jpg, pipe).
holds(s_7478_jpg, machine).

sample(s_3152_jpg).
holds(s_3152_jpg, building).
holds(s_3152_jpg, feature).
holds(s_3152_jpg, sign).
holds(s_3152_jpg, table).
holds(s_3152_jpg, tiledrooftop).
holds(s_3152_jpg, vendingmachine).
holds(s_3152_jpg, statue).
holds(s_3152_jpg, pipe).

sample(s_11223_jpg).
holds(s_11223_jpg, building).
holds(s_11223_jpg, feature).
holds(s_11223_jpg, porch).
holds(s_11223_jpg, sign).
holds(s_11223_jpg, table).
holds(s_11223_jpg, tiledrooftop).
holds(s_11223_jpg, vendingmachine).
holds(s_11223_jpg, statue).
holds(s_11223_jpg, pipe).

sample(s_4841_jpg).
holds(s_4841_jpg, building).
holds(s_4841_jpg, feature).
holds(s_4841_jpg, sign).
holds(s_4841_jpg, table).
holds(s_4841_jpg, tiledrooftop).
holds(s_4841_jpg, vendingmachine).
holds(s_4841_jpg, statue).
holds(s_4841_jpg, pipe).
holds(s_4841_jpg, machine).

sample(s_6440_jpg).
holds(s_6440_jpg, building).
holds(s_6440_jpg, feature).
holds(s_6440_jpg, sign).
holds(s_6440_jpg, table).
holds(s_6440_jpg, tiledrooftop).
holds(s_6440_jpg, vendingmachine).
holds(s_6440_jpg, statue).
holds(s_6440_jpg, pipe).
holds(s_6440_jpg, machine).

sample(s_12351_jpg).
holds(s_12351_jpg, building).
holds(s_12351_jpg, feature).
holds(s_12351_jpg, hotel).
holds(s_12351_jpg, billboard).
holds(s_12351_jpg, sign).
holds(s_12351_jpg, table).
holds(s_12351_jpg, tiledroof).
holds(s_12351_jpg, tiledrooftop).
holds(s_12351_jpg, vendingmachine).
holds(s_12351_jpg, statue).
holds(s_12351_jpg, chimney).
holds(s_12351_jpg, pipe).
holds(s_12351_jpg, machine).
holds(s_12351_jpg, car).
holds(s_12351_jpg, commercial).

sample(s_3415_jpg).
holds(s_3415_jpg, building).
holds(s_3415_jpg, feature).
holds(s_3415_jpg, watertreatment).
holds(s_3415_jpg, door).
holds(s_3415_jpg, billboard).
holds(s_3415_jpg, porch).
holds(s_3415_jpg, sign).
holds(s_3415_jpg, tiledroof).
holds(s_3415_jpg, tiledrooftop).
holds(s_3415_jpg, wallsign).
holds(s_3415_jpg, industrial).

sample(s_9944_jpg).
holds(s_9944_jpg, building).
holds(s_9944_jpg, feature).
holds(s_9944_jpg, sign).
holds(s_9944_jpg, table).
holds(s_9944_jpg, tiledrooftop).
holds(s_9944_jpg, vendingmachine).
holds(s_9944_jpg, statue).
holds(s_9944_jpg, pipe).

sample(s_9226_jpg).
holds(s_9226_jpg, building).
holds(s_9226_jpg, feature).
holds(s_9226_jpg, watertreatment).
holds(s_9226_jpg, door).
holds(s_9226_jpg, billboard).
holds(s_9226_jpg, porch).
holds(s_9226_jpg, sign).
holds(s_9226_jpg, tiledroof).
holds(s_9226_jpg, wallsign).
holds(s_9226_jpg, industrial).

sample(s_4720_jpg).
holds(s_4720_jpg, building).
holds(s_4720_jpg, feature).
holds(s_4720_jpg, watertreatment).
holds(s_4720_jpg, door).
holds(s_4720_jpg, billboard).
holds(s_4720_jpg, porch).
holds(s_4720_jpg, sign).
holds(s_4720_jpg, tiledroof).
holds(s_4720_jpg, tiledrooftop).
holds(s_4720_jpg, wallsign).
holds(s_4720_jpg, pipe).
holds(s_4720_jpg, industrial).

sample(s_4824_jpg).
holds(s_4824_jpg, building).
holds(s_4824_jpg, feature).
holds(s_4824_jpg, hotel).
holds(s_4824_jpg, billboard).
holds(s_4824_jpg, porch).
holds(s_4824_jpg, sign).
holds(s_4824_jpg, table).
holds(s_4824_jpg, tiledroof).
holds(s_4824_jpg, tiledrooftop).
holds(s_4824_jpg, vendingmachine).
holds(s_4824_jpg, statue).
holds(s_4824_jpg, chimney).
holds(s_4824_jpg, pipe).
holds(s_4824_jpg, machine).
holds(s_4824_jpg, car).
holds(s_4824_jpg, commercial).

sample(s_4598_jpg).
holds(s_4598_jpg, building).
holds(s_4598_jpg, feature).
holds(s_4598_jpg, sign).
holds(s_4598_jpg, table).
holds(s_4598_jpg, tiledrooftop).
holds(s_4598_jpg, vendingmachine).
holds(s_4598_jpg, statue).
holds(s_4598_jpg, pipe).
holds(s_4598_jpg, machine).

sample(s_14971_jpg).
holds(s_14971_jpg, building).
holds(s_14971_jpg, feature).
holds(s_14971_jpg, watertreatment).
holds(s_14971_jpg, door).
holds(s_14971_jpg, billboard).
holds(s_14971_jpg, porch).
holds(s_14971_jpg, sign).
holds(s_14971_jpg, tiledroof).
holds(s_14971_jpg, tiledrooftop).
holds(s_14971_jpg, wallsign).
holds(s_14971_jpg, pipe).
holds(s_14971_jpg, industrial).

sample(s_1149_jpg).
holds(s_1149_jpg, building).
holds(s_1149_jpg, feature).
holds(s_1149_jpg, hotel).
holds(s_1149_jpg, door).
holds(s_1149_jpg, billboard).
holds(s_1149_jpg, porch).
holds(s_1149_jpg, sign).
holds(s_1149_jpg, tiledroof).
holds(s_1149_jpg, tiledrooftop).
holds(s_1149_jpg, wallsign).
holds(s_1149_jpg, chimney).
holds(s_1149_jpg, pipe).
holds(s_1149_jpg, car).
holds(s_1149_jpg, commercial).

sample(s_3653_jpg).
holds(s_3653_jpg, building).
holds(s_3653_jpg, feature).
holds(s_3653_jpg, sign).
holds(s_3653_jpg, table).
holds(s_3653_jpg, tiledrooftop).
holds(s_3653_jpg, vendingmachine).
holds(s_3653_jpg, statue).
holds(s_3653_jpg, pipe).
holds(s_3653_jpg, machine).

sample(s_8785_jpg).
holds(s_8785_jpg, building).
holds(s_8785_jpg, feature).
holds(s_8785_jpg, watertreatment).
holds(s_8785_jpg, door).
holds(s_8785_jpg, billboard).
holds(s_8785_jpg, porch).
holds(s_8785_jpg, sign).
holds(s_8785_jpg, tiledroof).
holds(s_8785_jpg, wallsign).
holds(s_8785_jpg, pipe).
holds(s_8785_jpg, industrial).

sample(s_14588_jpg).
holds(s_14588_jpg, building).
holds(s_14588_jpg, feature).
holds(s_14588_jpg, sign).
holds(s_14588_jpg, table).
holds(s_14588_jpg, tiledrooftop).
holds(s_14588_jpg, vendingmachine).
holds(s_14588_jpg, statue).
holds(s_14588_jpg, pipe).
holds(s_14588_jpg, machine).

sample(s_15125_jpg).
holds(s_15125_jpg, building).
holds(s_15125_jpg, feature).
holds(s_15125_jpg, sign).
holds(s_15125_jpg, table).
holds(s_15125_jpg, tiledrooftop).
holds(s_15125_jpg, vendingmachine).
holds(s_15125_jpg, statue).
holds(s_15125_jpg, pipe).
holds(s_15125_jpg, machine).

sample(s_15867_jpg).
holds(s_15867_jpg, building).
holds(s_15867_jpg, feature).
holds(s_15867_jpg, hotel).
holds(s_15867_jpg, billboard).
holds(s_15867_jpg, sign).
holds(s_15867_jpg, table).
holds(s_15867_jpg, tiledroof).
holds(s_15867_jpg, tiledrooftop).
holds(s_15867_jpg, vendingmachine).
holds(s_15867_jpg, statue).
holds(s_15867_jpg, chimney).
holds(s_15867_jpg, pipe).
holds(s_15867_jpg, machine).
holds(s_15867_jpg, car).
holds(s_15867_jpg, commercial).

sample(s_12447_jpg).
holds(s_12447_jpg, building).
holds(s_12447_jpg, feature).
holds(s_12447_jpg, hotel).
holds(s_12447_jpg, billboard).
holds(s_12447_jpg, porch).
holds(s_12447_jpg, sign).
holds(s_12447_jpg, table).
holds(s_12447_jpg, tiledroof).
holds(s_12447_jpg, tiledrooftop).
holds(s_12447_jpg, vendingmachine).
holds(s_12447_jpg, chimney).
holds(s_12447_jpg, pipe).
holds(s_12447_jpg, machine).
holds(s_12447_jpg, car).
holds(s_12447_jpg, commercial).

sample(s_12513_jpg).
holds(s_12513_jpg, building).
holds(s_12513_jpg, feature).
holds(s_12513_jpg, hotel).
holds(s_12513_jpg, billboard).
holds(s_12513_jpg, sign).
holds(s_12513_jpg, table).
holds(s_12513_jpg, tiledroof).
holds(s_12513_jpg, tiledrooftop).
holds(s_12513_jpg, vendingmachine).
holds(s_12513_jpg, chimney).
holds(s_12513_jpg, pipe).
holds(s_12513_jpg, machine).
holds(s_12513_jpg, car).
holds(s_12513_jpg, commercial).

sample(s_11987_jpg).
holds(s_11987_jpg, building).
holds(s_11987_jpg, feature).
holds(s_11987_jpg, porch).
holds(s_11987_jpg, sign).
holds(s_11987_jpg, table).
holds(s_11987_jpg, tiledrooftop).
holds(s_11987_jpg, vendingmachine).
holds(s_11987_jpg, statue).
holds(s_11987_jpg, pipe).
holds(s_11987_jpg, machine).

sample(s_8271_jpg).
holds(s_8271_jpg, building).
holds(s_8271_jpg, feature).
holds(s_8271_jpg, hotel).
holds(s_8271_jpg, billboard).
holds(s_8271_jpg, sign).
holds(s_8271_jpg, tiledroof).
holds(s_8271_jpg, tiledrooftop).
holds(s_8271_jpg, vendingmachine).
holds(s_8271_jpg, wallsign).
holds(s_8271_jpg, chimney).
holds(s_8271_jpg, pipe).
holds(s_8271_jpg, machine).
holds(s_8271_jpg, car).
holds(s_8271_jpg, commercial).

sample(s_14268_jpg).
holds(s_14268_jpg, building).
holds(s_14268_jpg, feature).
holds(s_14268_jpg, hotel).
holds(s_14268_jpg, door).
holds(s_14268_jpg, billboard).
holds(s_14268_jpg, porch).
holds(s_14268_jpg, sign).
holds(s_14268_jpg, tiledroof).
holds(s_14268_jpg, tiledrooftop).
holds(s_14268_jpg, wallsign).
holds(s_14268_jpg, chimney).
holds(s_14268_jpg, pipe).
holds(s_14268_jpg, car).
holds(s_14268_jpg, commercial).

sample(s_7881_jpg).
holds(s_7881_jpg, building).
holds(s_7881_jpg, feature).
holds(s_7881_jpg, hotel).
holds(s_7881_jpg, billboard).
holds(s_7881_jpg, sign).
holds(s_7881_jpg, tiledroof).
holds(s_7881_jpg, tiledrooftop).
holds(s_7881_jpg, chimney).
holds(s_7881_jpg, pipe).
holds(s_7881_jpg, car).
holds(s_7881_jpg, commercial).

sample(s_9904_jpg).
holds(s_9904_jpg, building).
holds(s_9904_jpg, feature).
holds(s_9904_jpg, watertreatment).
holds(s_9904_jpg, door).
holds(s_9904_jpg, billboard).
holds(s_9904_jpg, porch).
holds(s_9904_jpg, sign).
holds(s_9904_jpg, tiledroof).
holds(s_9904_jpg, tiledrooftop).
holds(s_9904_jpg, wallsign).
holds(s_9904_jpg, industrial).

sample(s_15064_jpg).
holds(s_15064_jpg, building).
holds(s_15064_jpg, feature).
holds(s_15064_jpg, watertreatment).
holds(s_15064_jpg, door).
holds(s_15064_jpg, billboard).
holds(s_15064_jpg, porch).
holds(s_15064_jpg, sign).
holds(s_15064_jpg, tiledroof).
holds(s_15064_jpg, tiledrooftop).
holds(s_15064_jpg, wallsign).
holds(s_15064_jpg, industrial).

sample(s_5656_jpg).
holds(s_5656_jpg, building).
holds(s_5656_jpg, feature).
holds(s_5656_jpg, watertreatment).
holds(s_5656_jpg, door).
holds(s_5656_jpg, billboard).
holds(s_5656_jpg, porch).
holds(s_5656_jpg, sign).
holds(s_5656_jpg, tiledroof).
holds(s_5656_jpg, tiledrooftop).
holds(s_5656_jpg, wallsign).
holds(s_5656_jpg, chimney).
holds(s_5656_jpg, pipe).
holds(s_5656_jpg, industrial).

sample(s_15935_jpg).
holds(s_15935_jpg, building).
holds(s_15935_jpg, feature).
holds(s_15935_jpg, sign).
holds(s_15935_jpg, table).
holds(s_15935_jpg, tiledrooftop).
holds(s_15935_jpg, vendingmachine).
holds(s_15935_jpg, statue).
holds(s_15935_jpg, pipe).
holds(s_15935_jpg, machine).

sample(s_12357_jpg).
holds(s_12357_jpg, building).
holds(s_12357_jpg, feature).
holds(s_12357_jpg, hotel).
holds(s_12357_jpg, billboard).
holds(s_12357_jpg, sign).
holds(s_12357_jpg, table).
holds(s_12357_jpg, tiledroof).
holds(s_12357_jpg, tiledrooftop).
holds(s_12357_jpg, vendingmachine).
holds(s_12357_jpg, chimney).
holds(s_12357_jpg, pipe).
holds(s_12357_jpg, machine).
holds(s_12357_jpg, car).
holds(s_12357_jpg, commercial).

sample(s_15019_jpg).
holds(s_15019_jpg, building).
holds(s_15019_jpg, feature).
holds(s_15019_jpg, watertreatment).
holds(s_15019_jpg, door).
holds(s_15019_jpg, billboard).
holds(s_15019_jpg, porch).
holds(s_15019_jpg, sign).
holds(s_15019_jpg, tiledroof).
holds(s_15019_jpg, wallsign).
holds(s_15019_jpg, industrial).

sample(s_8029_jpg).
holds(s_8029_jpg, building).
holds(s_8029_jpg, feature).
holds(s_8029_jpg, watertreatment).
holds(s_8029_jpg, door).
holds(s_8029_jpg, billboard).
holds(s_8029_jpg, porch).
holds(s_8029_jpg, sign).
holds(s_8029_jpg, tiledroof).
holds(s_8029_jpg, tiledrooftop).
holds(s_8029_jpg, wallsign).
holds(s_8029_jpg, chimney).
holds(s_8029_jpg, pipe).
holds(s_8029_jpg, industrial).

sample(s_7384_jpg).
holds(s_7384_jpg, building).
holds(s_7384_jpg, feature).
holds(s_7384_jpg, watertreatment).
holds(s_7384_jpg, door).
holds(s_7384_jpg, billboard).
holds(s_7384_jpg, sign).
holds(s_7384_jpg, tiledroof).
holds(s_7384_jpg, tiledrooftop).
holds(s_7384_jpg, wallsign).
holds(s_7384_jpg, pipe).
holds(s_7384_jpg, industrial).

sample(s_6760_jpg).
holds(s_6760_jpg, building).
holds(s_6760_jpg, feature).
holds(s_6760_jpg, watertreatment).
holds(s_6760_jpg, door).
holds(s_6760_jpg, billboard).
holds(s_6760_jpg, porch).
holds(s_6760_jpg, sign).
holds(s_6760_jpg, tiledroof).
holds(s_6760_jpg, tiledrooftop).
holds(s_6760_jpg, wallsign).
holds(s_6760_jpg, pipe).
holds(s_6760_jpg, industrial).

sample(s_14915_jpg).
holds(s_14915_jpg, building).
holds(s_14915_jpg, feature).
holds(s_14915_jpg, window).
holds(s_14915_jpg, porch).
holds(s_14915_jpg, table).
holds(s_14915_jpg, tiledrooftop).
holds(s_14915_jpg, vendingmachine).
holds(s_14915_jpg, statue).

sample(s_15630_jpg).
holds(s_15630_jpg, building).
holds(s_15630_jpg, feature).
holds(s_15630_jpg, hotel).
holds(s_15630_jpg, door).
holds(s_15630_jpg, billboard).
holds(s_15630_jpg, sign).
holds(s_15630_jpg, tiledroof).
holds(s_15630_jpg, tiledrooftop).
holds(s_15630_jpg, wallsign).
holds(s_15630_jpg, chimney).
holds(s_15630_jpg, pipe).
holds(s_15630_jpg, car).
holds(s_15630_jpg, commercial).

sample(s_11621_jpg).
holds(s_11621_jpg, building).
holds(s_11621_jpg, feature).
holds(s_11621_jpg, sign).
holds(s_11621_jpg, table).
holds(s_11621_jpg, tiledrooftop).
holds(s_11621_jpg, vendingmachine).
holds(s_11621_jpg, statue).
holds(s_11621_jpg, pipe).
holds(s_11621_jpg, machine).

sample(s_813_jpg).
holds(s_813_jpg, building).
holds(s_813_jpg, feature).
holds(s_813_jpg, hotel).
holds(s_813_jpg, door).
holds(s_813_jpg, billboard).
holds(s_813_jpg, porch).
holds(s_813_jpg, sign).
holds(s_813_jpg, table).
holds(s_813_jpg, tiledroof).
holds(s_813_jpg, tiledrooftop).
holds(s_813_jpg, vendingmachine).
holds(s_813_jpg, wallsign).
holds(s_813_jpg, chimney).
holds(s_813_jpg, pipe).
holds(s_813_jpg, machine).
holds(s_813_jpg, car).
holds(s_813_jpg, commercial).

sample(s_10489_jpg).
holds(s_10489_jpg, building).
holds(s_10489_jpg, feature).
holds(s_10489_jpg, watertreatment).
holds(s_10489_jpg, door).
holds(s_10489_jpg, billboard).
holds(s_10489_jpg, porch).
holds(s_10489_jpg, sign).
holds(s_10489_jpg, tiledroof).
holds(s_10489_jpg, tiledrooftop).
holds(s_10489_jpg, wallsign).
holds(s_10489_jpg, chimney).
holds(s_10489_jpg, pipe).
holds(s_10489_jpg, industrial).

sample(s_13441_jpg).
holds(s_13441_jpg, building).
holds(s_13441_jpg, feature).
holds(s_13441_jpg, watertreatment).
holds(s_13441_jpg, door).
holds(s_13441_jpg, billboard).
holds(s_13441_jpg, porch).
holds(s_13441_jpg, sign).
holds(s_13441_jpg, tiledroof).
holds(s_13441_jpg, wallsign).
holds(s_13441_jpg, industrial).

sample(s_14789_jpg).
holds(s_14789_jpg, building).
holds(s_14789_jpg, feature).
holds(s_14789_jpg, billboard).
holds(s_14789_jpg, sign).
holds(s_14789_jpg, table).
holds(s_14789_jpg, tiledrooftop).
holds(s_14789_jpg, vendingmachine).
holds(s_14789_jpg, statue).
holds(s_14789_jpg, pipe).
holds(s_14789_jpg, machine).

sample(s_8866_jpg).
holds(s_8866_jpg, building).
holds(s_8866_jpg, feature).
holds(s_8866_jpg, watertreatment).
holds(s_8866_jpg, door).
holds(s_8866_jpg, billboard).
holds(s_8866_jpg, porch).
holds(s_8866_jpg, sign).
holds(s_8866_jpg, tiledroof).
holds(s_8866_jpg, tiledrooftop).
holds(s_8866_jpg, wallsign).
holds(s_8866_jpg, pipe).
holds(s_8866_jpg, industrial).

sample(s_1934_jpg).
holds(s_1934_jpg, building).
holds(s_1934_jpg, feature).
holds(s_1934_jpg, sign).
holds(s_1934_jpg, table).
holds(s_1934_jpg, tiledrooftop).
holds(s_1934_jpg, vendingmachine).
holds(s_1934_jpg, statue).
holds(s_1934_jpg, pipe).
holds(s_1934_jpg, machine).

sample(s_3220_jpg).
holds(s_3220_jpg, building).
holds(s_3220_jpg, feature).
holds(s_3220_jpg, watertreatment).
holds(s_3220_jpg, door).
holds(s_3220_jpg, billboard).
holds(s_3220_jpg, porch).
holds(s_3220_jpg, sign).
holds(s_3220_jpg, tiledroof).
holds(s_3220_jpg, tiledrooftop).
holds(s_3220_jpg, wallsign).
holds(s_3220_jpg, industrial).

sample(s_4762_jpg).
holds(s_4762_jpg, building).
holds(s_4762_jpg, feature).
holds(s_4762_jpg, watertreatment).
holds(s_4762_jpg, door).
holds(s_4762_jpg, billboard).
holds(s_4762_jpg, porch).
holds(s_4762_jpg, sign).
holds(s_4762_jpg, tiledroof).
holds(s_4762_jpg, wallsign).
holds(s_4762_jpg, pipe).
holds(s_4762_jpg, industrial).

sample(s_6248_jpg).
holds(s_6248_jpg, building).
holds(s_6248_jpg, feature).
holds(s_6248_jpg, sign).
holds(s_6248_jpg, table).
holds(s_6248_jpg, tiledrooftop).
holds(s_6248_jpg, vendingmachine).
holds(s_6248_jpg, statue).
holds(s_6248_jpg, pipe).

sample(s_15456_jpg).
holds(s_15456_jpg, building).
holds(s_15456_jpg, feature).
holds(s_15456_jpg, hotel).
holds(s_15456_jpg, billboard).
holds(s_15456_jpg, sign).
holds(s_15456_jpg, table).
holds(s_15456_jpg, tiledroof).
holds(s_15456_jpg, tiledrooftop).
holds(s_15456_jpg, vendingmachine).
holds(s_15456_jpg, statue).
holds(s_15456_jpg, chimney).
holds(s_15456_jpg, pipe).
holds(s_15456_jpg, machine).
holds(s_15456_jpg, car).
holds(s_15456_jpg, commercial).

sample(s_8441_jpg).
holds(s_8441_jpg, building).
holds(s_8441_jpg, feature).
holds(s_8441_jpg, sign).
holds(s_8441_jpg, table).
holds(s_8441_jpg, tiledrooftop).
holds(s_8441_jpg, vendingmachine).
holds(s_8441_jpg, statue).
holds(s_8441_jpg, pipe).
holds(s_8441_jpg, machine).

sample(s_14416_jpg).
holds(s_14416_jpg, building).
holds(s_14416_jpg, feature).
holds(s_14416_jpg, watertreatment).
holds(s_14416_jpg, door).
holds(s_14416_jpg, billboard).
holds(s_14416_jpg, porch).
holds(s_14416_jpg, sign).
holds(s_14416_jpg, tiledroof).
holds(s_14416_jpg, wallsign).
holds(s_14416_jpg, industrial).

sample(s_8087_jpg).
holds(s_8087_jpg, building).
holds(s_8087_jpg, feature).
holds(s_8087_jpg, sign).
holds(s_8087_jpg, table).
holds(s_8087_jpg, tiledrooftop).
holds(s_8087_jpg, vendingmachine).
holds(s_8087_jpg, statue).
holds(s_8087_jpg, pipe).
holds(s_8087_jpg, machine).

sample(s_12012_jpg).
holds(s_12012_jpg, building).
holds(s_12012_jpg, feature).
holds(s_12012_jpg, hotel).
holds(s_12012_jpg, door).
holds(s_12012_jpg, billboard).
holds(s_12012_jpg, porch).
holds(s_12012_jpg, sign).
holds(s_12012_jpg, tiledroof).
holds(s_12012_jpg, tiledrooftop).
holds(s_12012_jpg, vendingmachine).
holds(s_12012_jpg, wallsign).
holds(s_12012_jpg, chimney).
holds(s_12012_jpg, pipe).
holds(s_12012_jpg, machine).
holds(s_12012_jpg, car).
holds(s_12012_jpg, commercial).

sample(s_6939_jpg).
holds(s_6939_jpg, building).
holds(s_6939_jpg, feature).
holds(s_6939_jpg, hotel).
holds(s_6939_jpg, billboard).
holds(s_6939_jpg, porch).
holds(s_6939_jpg, sign).
holds(s_6939_jpg, table).
holds(s_6939_jpg, tiledroof).
holds(s_6939_jpg, tiledrooftop).
holds(s_6939_jpg, vendingmachine).
holds(s_6939_jpg, wallsign).
holds(s_6939_jpg, chimney).
holds(s_6939_jpg, pipe).
holds(s_6939_jpg, machine).
holds(s_6939_jpg, car).
holds(s_6939_jpg, commercial).

sample(s_3227_jpg).
holds(s_3227_jpg, building).
holds(s_3227_jpg, feature).
holds(s_3227_jpg, window).
holds(s_3227_jpg, porch).
holds(s_3227_jpg, table).
holds(s_3227_jpg, tiledrooftop).
holds(s_3227_jpg, vendingmachine).
holds(s_3227_jpg, statue).

sample(s_1272_jpg).
holds(s_1272_jpg, building).
holds(s_1272_jpg, feature).
holds(s_1272_jpg, hotel).
holds(s_1272_jpg, porch).
holds(s_1272_jpg, sign).
holds(s_1272_jpg, table).
holds(s_1272_jpg, tiledroof).
holds(s_1272_jpg, tiledrooftop).
holds(s_1272_jpg, vendingmachine).
holds(s_1272_jpg, statue).
holds(s_1272_jpg, chimney).
holds(s_1272_jpg, pipe).
holds(s_1272_jpg, machine).
holds(s_1272_jpg, car).
holds(s_1272_jpg, commercial).

sample(s_10479_jpg).
holds(s_10479_jpg, building).
holds(s_10479_jpg, feature).
holds(s_10479_jpg, hotel).
holds(s_10479_jpg, billboard).
holds(s_10479_jpg, sign).
holds(s_10479_jpg, table).
holds(s_10479_jpg, tiledroof).
holds(s_10479_jpg, tiledrooftop).
holds(s_10479_jpg, vendingmachine).
holds(s_10479_jpg, chimney).
holds(s_10479_jpg, pipe).
holds(s_10479_jpg, machine).
holds(s_10479_jpg, car).
holds(s_10479_jpg, commercial).

sample(s_14733_jpg).
holds(s_14733_jpg, building).
holds(s_14733_jpg, feature).
holds(s_14733_jpg, hotel).
holds(s_14733_jpg, billboard).
holds(s_14733_jpg, porch).
holds(s_14733_jpg, sign).
holds(s_14733_jpg, table).
holds(s_14733_jpg, tiledroof).
holds(s_14733_jpg, tiledrooftop).
holds(s_14733_jpg, vendingmachine).
holds(s_14733_jpg, statue).
holds(s_14733_jpg, chimney).
holds(s_14733_jpg, pipe).
holds(s_14733_jpg, machine).
holds(s_14733_jpg, car).
holds(s_14733_jpg, commercial).

sample(s_2929_jpg).
holds(s_2929_jpg, building).
holds(s_2929_jpg, feature).
holds(s_2929_jpg, watertreatment).
holds(s_2929_jpg, door).
holds(s_2929_jpg, billboard).
holds(s_2929_jpg, porch).
holds(s_2929_jpg, sign).
holds(s_2929_jpg, tiledroof).
holds(s_2929_jpg, tiledrooftop).
holds(s_2929_jpg, wallsign).
holds(s_2929_jpg, pipe).
holds(s_2929_jpg, industrial).

sample(s_10130_jpg).
holds(s_10130_jpg, building).
holds(s_10130_jpg, feature).
holds(s_10130_jpg, sign).
holds(s_10130_jpg, table).
holds(s_10130_jpg, tiledrooftop).
holds(s_10130_jpg, vendingmachine).
holds(s_10130_jpg, statue).
holds(s_10130_jpg, pipe).
holds(s_10130_jpg, machine).

sample(s_6961_jpg).
holds(s_6961_jpg, building).
holds(s_6961_jpg, feature).
holds(s_6961_jpg, watertreatment).
holds(s_6961_jpg, door).
holds(s_6961_jpg, billboard).
holds(s_6961_jpg, porch).
holds(s_6961_jpg, sign).
holds(s_6961_jpg, tiledroof).
holds(s_6961_jpg, wallsign).
holds(s_6961_jpg, pipe).
holds(s_6961_jpg, industrial).

sample(s_8239_jpg).
holds(s_8239_jpg, building).
holds(s_8239_jpg, feature).
holds(s_8239_jpg, watertreatment).
holds(s_8239_jpg, door).
holds(s_8239_jpg, billboard).
holds(s_8239_jpg, porch).
holds(s_8239_jpg, sign).
holds(s_8239_jpg, tiledroof).
holds(s_8239_jpg, wallsign).
holds(s_8239_jpg, chimney).
holds(s_8239_jpg, pipe).
holds(s_8239_jpg, car).
holds(s_8239_jpg, industrial).

sample(s_8335_jpg).
holds(s_8335_jpg, building).
holds(s_8335_jpg, feature).
holds(s_8335_jpg, watertreatment).
holds(s_8335_jpg, door).
holds(s_8335_jpg, billboard).
holds(s_8335_jpg, porch).
holds(s_8335_jpg, sign).
holds(s_8335_jpg, tiledroof).
holds(s_8335_jpg, tiledrooftop).
holds(s_8335_jpg, wallsign).
holds(s_8335_jpg, industrial).

sample(s_11237_jpg).
holds(s_11237_jpg, building).
holds(s_11237_jpg, feature).
holds(s_11237_jpg, porch).
holds(s_11237_jpg, sign).
holds(s_11237_jpg, table).
holds(s_11237_jpg, tiledrooftop).
holds(s_11237_jpg, vendingmachine).
holds(s_11237_jpg, statue).
holds(s_11237_jpg, pipe).

sample(s_13061_jpg).
holds(s_13061_jpg, building).
holds(s_13061_jpg, feature).
holds(s_13061_jpg, porch).
holds(s_13061_jpg, sign).
holds(s_13061_jpg, table).
holds(s_13061_jpg, tiledrooftop).
holds(s_13061_jpg, vendingmachine).
holds(s_13061_jpg, statue).
holds(s_13061_jpg, pipe).

sample(s_4193_jpg).
holds(s_4193_jpg, building).
holds(s_4193_jpg, feature).
holds(s_4193_jpg, sign).
holds(s_4193_jpg, table).
holds(s_4193_jpg, tiledrooftop).
holds(s_4193_jpg, vendingmachine).
holds(s_4193_jpg, statue).
holds(s_4193_jpg, pipe).
holds(s_4193_jpg, machine).

sample(s_12708_jpg).
holds(s_12708_jpg, building).
holds(s_12708_jpg, feature).
holds(s_12708_jpg, hotel).
holds(s_12708_jpg, billboard).
holds(s_12708_jpg, sign).
holds(s_12708_jpg, tiledroof).
holds(s_12708_jpg, tiledrooftop).
holds(s_12708_jpg, chimney).
holds(s_12708_jpg, pipe).
holds(s_12708_jpg, commercial).

sample(s_12803_jpg).
holds(s_12803_jpg, building).
holds(s_12803_jpg, feature).
holds(s_12803_jpg, billboard).
holds(s_12803_jpg, sign).
holds(s_12803_jpg, table).
holds(s_12803_jpg, tiledrooftop).
holds(s_12803_jpg, vendingmachine).
holds(s_12803_jpg, statue).
holds(s_12803_jpg, pipe).
holds(s_12803_jpg, machine).

sample(s_4063_jpg).
holds(s_4063_jpg, building).
holds(s_4063_jpg, feature).
holds(s_4063_jpg, watertreatment).
holds(s_4063_jpg, door).
holds(s_4063_jpg, billboard).
holds(s_4063_jpg, porch).
holds(s_4063_jpg, sign).
holds(s_4063_jpg, tiledroof).
holds(s_4063_jpg, tiledrooftop).
holds(s_4063_jpg, wallsign).
holds(s_4063_jpg, chimney).
holds(s_4063_jpg, pipe).
holds(s_4063_jpg, industrial).

sample(s_10348_jpg).
holds(s_10348_jpg, building).
holds(s_10348_jpg, feature).
holds(s_10348_jpg, watertreatment).
holds(s_10348_jpg, door).
holds(s_10348_jpg, billboard).
holds(s_10348_jpg, porch).
holds(s_10348_jpg, sign).
holds(s_10348_jpg, tiledroof).
holds(s_10348_jpg, wallsign).
holds(s_10348_jpg, industrial).

sample(s_7111_jpg).
holds(s_7111_jpg, building).
holds(s_7111_jpg, feature).
holds(s_7111_jpg, watertreatment).
holds(s_7111_jpg, door).
holds(s_7111_jpg, billboard).
holds(s_7111_jpg, porch).
holds(s_7111_jpg, sign).
holds(s_7111_jpg, tiledroof).
holds(s_7111_jpg, tiledrooftop).
holds(s_7111_jpg, wallsign).
holds(s_7111_jpg, pipe).
holds(s_7111_jpg, industrial).

sample(s_15205_jpg).
holds(s_15205_jpg, building).
holds(s_15205_jpg, feature).
holds(s_15205_jpg, watertreatment).
holds(s_15205_jpg, door).
holds(s_15205_jpg, billboard).
holds(s_15205_jpg, porch).
holds(s_15205_jpg, sign).
holds(s_15205_jpg, tiledroof).
holds(s_15205_jpg, tiledrooftop).
holds(s_15205_jpg, wallsign).
holds(s_15205_jpg, pipe).
holds(s_15205_jpg, industrial).

sample(s_10751_jpg).
holds(s_10751_jpg, building).
holds(s_10751_jpg, feature).
holds(s_10751_jpg, sign).
holds(s_10751_jpg, table).
holds(s_10751_jpg, tiledrooftop).
holds(s_10751_jpg, vendingmachine).
holds(s_10751_jpg, statue).
holds(s_10751_jpg, pipe).

sample(s_4475_jpg).
holds(s_4475_jpg, building).
holds(s_4475_jpg, feature).
holds(s_4475_jpg, sign).
holds(s_4475_jpg, table).
holds(s_4475_jpg, tiledrooftop).
holds(s_4475_jpg, vendingmachine).
holds(s_4475_jpg, statue).
holds(s_4475_jpg, pipe).
holds(s_4475_jpg, machine).

sample(s_2866_jpg).
holds(s_2866_jpg, building).
holds(s_2866_jpg, feature).
holds(s_2866_jpg, watertreatment).
holds(s_2866_jpg, door).
holds(s_2866_jpg, billboard).
holds(s_2866_jpg, porch).
holds(s_2866_jpg, sign).
holds(s_2866_jpg, tiledroof).
holds(s_2866_jpg, wallsign).
holds(s_2866_jpg, pipe).
holds(s_2866_jpg, industrial).

sample(s_14577_jpg).
holds(s_14577_jpg, building).
holds(s_14577_jpg, feature).
holds(s_14577_jpg, hotel).
holds(s_14577_jpg, door).
holds(s_14577_jpg, billboard).
holds(s_14577_jpg, porch).
holds(s_14577_jpg, sign).
holds(s_14577_jpg, tiledroof).
holds(s_14577_jpg, tiledrooftop).
holds(s_14577_jpg, wallsign).
holds(s_14577_jpg, chimney).
holds(s_14577_jpg, pipe).
holds(s_14577_jpg, car).
holds(s_14577_jpg, commercial).

sample(s_13591_jpg).
holds(s_13591_jpg, building).
holds(s_13591_jpg, feature).
holds(s_13591_jpg, watertreatment).
holds(s_13591_jpg, door).
holds(s_13591_jpg, billboard).
holds(s_13591_jpg, porch).
holds(s_13591_jpg, sign).
holds(s_13591_jpg, tiledroof).
holds(s_13591_jpg, tiledrooftop).
holds(s_13591_jpg, wallsign).
holds(s_13591_jpg, industrial).

sample(s_15497_jpg).
holds(s_15497_jpg, building).
holds(s_15497_jpg, feature).
holds(s_15497_jpg, window).
holds(s_15497_jpg, porch).
holds(s_15497_jpg, sign).
holds(s_15497_jpg, table).
holds(s_15497_jpg, tiledrooftop).
holds(s_15497_jpg, vendingmachine).
holds(s_15497_jpg, statue).
holds(s_15497_jpg, pipe).

sample(s_9531_jpg).
holds(s_9531_jpg, building).
holds(s_9531_jpg, feature).
holds(s_9531_jpg, hotel).
holds(s_9531_jpg, door).
holds(s_9531_jpg, billboard).
holds(s_9531_jpg, porch).
holds(s_9531_jpg, sign).
holds(s_9531_jpg, table).
holds(s_9531_jpg, tiledroof).
holds(s_9531_jpg, tiledrooftop).
holds(s_9531_jpg, vendingmachine).
holds(s_9531_jpg, wallsign).
holds(s_9531_jpg, chimney).
holds(s_9531_jpg, pipe).
holds(s_9531_jpg, machine).
holds(s_9531_jpg, car).
holds(s_9531_jpg, commercial).

sample(s_1510_jpg).
holds(s_1510_jpg, building).
holds(s_1510_jpg, feature).
holds(s_1510_jpg, watertreatment).
holds(s_1510_jpg, door).
holds(s_1510_jpg, billboard).
holds(s_1510_jpg, porch).
holds(s_1510_jpg, sign).
holds(s_1510_jpg, tiledroof).
holds(s_1510_jpg, wallsign).
holds(s_1510_jpg, industrial).

sample(s_419_jpg).
holds(s_419_jpg, building).
holds(s_419_jpg, feature).
holds(s_419_jpg, sign).
holds(s_419_jpg, table).
holds(s_419_jpg, tiledrooftop).
holds(s_419_jpg, vendingmachine).
holds(s_419_jpg, statue).
holds(s_419_jpg, pipe).
holds(s_419_jpg, machine).

sample(s_10589_jpg).
holds(s_10589_jpg, building).
holds(s_10589_jpg, feature).
holds(s_10589_jpg, sign).
holds(s_10589_jpg, table).
holds(s_10589_jpg, tiledrooftop).
holds(s_10589_jpg, vendingmachine).
holds(s_10589_jpg, statue).
holds(s_10589_jpg, pipe).
holds(s_10589_jpg, machine).

sample(s_6216_jpg).
holds(s_6216_jpg, building).
holds(s_6216_jpg, feature).
holds(s_6216_jpg, hotel).
holds(s_6216_jpg, billboard).
holds(s_6216_jpg, sign).
holds(s_6216_jpg, tiledroof).
holds(s_6216_jpg, tiledrooftop).
holds(s_6216_jpg, chimney).
holds(s_6216_jpg, pipe).
holds(s_6216_jpg, commercial).

sample(s_12747_jpg).
holds(s_12747_jpg, building).
holds(s_12747_jpg, feature).
holds(s_12747_jpg, hotel).
holds(s_12747_jpg, door).
holds(s_12747_jpg, billboard).
holds(s_12747_jpg, porch).
holds(s_12747_jpg, sign).
holds(s_12747_jpg, table).
holds(s_12747_jpg, tiledroof).
holds(s_12747_jpg, tiledrooftop).
holds(s_12747_jpg, vendingmachine).
holds(s_12747_jpg, wallsign).
holds(s_12747_jpg, chimney).
holds(s_12747_jpg, pipe).
holds(s_12747_jpg, machine).
holds(s_12747_jpg, car).
holds(s_12747_jpg, commercial).

sample(s_13106_jpg).
holds(s_13106_jpg, building).
holds(s_13106_jpg, feature).
holds(s_13106_jpg, sign).
holds(s_13106_jpg, table).
holds(s_13106_jpg, tiledrooftop).
holds(s_13106_jpg, vendingmachine).
holds(s_13106_jpg, statue).
holds(s_13106_jpg, pipe).
holds(s_13106_jpg, machine).

sample(s_10062_jpg).
holds(s_10062_jpg, building).
holds(s_10062_jpg, feature).
holds(s_10062_jpg, hotel).
holds(s_10062_jpg, door).
holds(s_10062_jpg, billboard).
holds(s_10062_jpg, porch).
holds(s_10062_jpg, sign).
holds(s_10062_jpg, tiledroof).
holds(s_10062_jpg, tiledrooftop).
holds(s_10062_jpg, wallsign).
holds(s_10062_jpg, chimney).
holds(s_10062_jpg, pipe).
holds(s_10062_jpg, car).
holds(s_10062_jpg, commercial).

sample(s_12536_jpg).
holds(s_12536_jpg, building).
holds(s_12536_jpg, feature).
holds(s_12536_jpg, sign).
holds(s_12536_jpg, table).
holds(s_12536_jpg, tiledrooftop).
holds(s_12536_jpg, vendingmachine).
holds(s_12536_jpg, statue).
holds(s_12536_jpg, pipe).
holds(s_12536_jpg, machine).

sample(s_6252_jpg).
holds(s_6252_jpg, building).
holds(s_6252_jpg, feature).
holds(s_6252_jpg, hotel).
holds(s_6252_jpg, door).
holds(s_6252_jpg, billboard).
holds(s_6252_jpg, porch).
holds(s_6252_jpg, sign).
holds(s_6252_jpg, tiledroof).
holds(s_6252_jpg, tiledrooftop).
holds(s_6252_jpg, vendingmachine).
holds(s_6252_jpg, wallsign).
holds(s_6252_jpg, chimney).
holds(s_6252_jpg, pipe).
holds(s_6252_jpg, car).
holds(s_6252_jpg, commercial).

sample(s_9362_jpg).
holds(s_9362_jpg, building).
holds(s_9362_jpg, feature).
holds(s_9362_jpg, sign).
holds(s_9362_jpg, table).
holds(s_9362_jpg, tiledrooftop).
holds(s_9362_jpg, vendingmachine).
holds(s_9362_jpg, statue).
holds(s_9362_jpg, pipe).
holds(s_9362_jpg, machine).

sample(s_3784_jpg).
holds(s_3784_jpg, building).
holds(s_3784_jpg, feature).
holds(s_3784_jpg, watertreatment).
holds(s_3784_jpg, door).
holds(s_3784_jpg, billboard).
holds(s_3784_jpg, porch).
holds(s_3784_jpg, sign).
holds(s_3784_jpg, tiledroof).
holds(s_3784_jpg, tiledrooftop).
holds(s_3784_jpg, wallsign).
holds(s_3784_jpg, pipe).
holds(s_3784_jpg, industrial).

sample(s_12386_jpg).
holds(s_12386_jpg, building).
holds(s_12386_jpg, feature).
holds(s_12386_jpg, sign).
holds(s_12386_jpg, table).
holds(s_12386_jpg, tiledrooftop).
holds(s_12386_jpg, vendingmachine).
holds(s_12386_jpg, statue).
holds(s_12386_jpg, pipe).
holds(s_12386_jpg, machine).

sample(s_6794_jpg).
holds(s_6794_jpg, building).
holds(s_6794_jpg, feature).
holds(s_6794_jpg, sign).
holds(s_6794_jpg, table).
holds(s_6794_jpg, tiledrooftop).
holds(s_6794_jpg, vendingmachine).
holds(s_6794_jpg, statue).
holds(s_6794_jpg, pipe).

sample(s_1581_jpg).
holds(s_1581_jpg, building).
holds(s_1581_jpg, feature).
holds(s_1581_jpg, hotel).
holds(s_1581_jpg, door).
holds(s_1581_jpg, billboard).
holds(s_1581_jpg, porch).
holds(s_1581_jpg, sign).
holds(s_1581_jpg, table).
holds(s_1581_jpg, tiledroof).
holds(s_1581_jpg, tiledrooftop).
holds(s_1581_jpg, vendingmachine).
holds(s_1581_jpg, wallsign).
holds(s_1581_jpg, chimney).
holds(s_1581_jpg, pipe).
holds(s_1581_jpg, car).
holds(s_1581_jpg, commercial).

sample(s_663_jpg).
holds(s_663_jpg, building).
holds(s_663_jpg, feature).
holds(s_663_jpg, hotel).
holds(s_663_jpg, door).
holds(s_663_jpg, billboard).
holds(s_663_jpg, porch).
holds(s_663_jpg, sign).
holds(s_663_jpg, tiledroof).
holds(s_663_jpg, tiledrooftop).
holds(s_663_jpg, wallsign).
holds(s_663_jpg, chimney).
holds(s_663_jpg, pipe).
holds(s_663_jpg, machine).
holds(s_663_jpg, car).
holds(s_663_jpg, commercial).

sample(s_8421_jpg).
holds(s_8421_jpg, building).
holds(s_8421_jpg, feature).
holds(s_8421_jpg, hotel).
holds(s_8421_jpg, door).
holds(s_8421_jpg, billboard).
holds(s_8421_jpg, porch).
holds(s_8421_jpg, sign).
holds(s_8421_jpg, tiledroof).
holds(s_8421_jpg, tiledrooftop).
holds(s_8421_jpg, vendingmachine).
holds(s_8421_jpg, wallsign).
holds(s_8421_jpg, chimney).
holds(s_8421_jpg, pipe).
holds(s_8421_jpg, car).
holds(s_8421_jpg, commercial).

sample(s_2373_jpg).
holds(s_2373_jpg, building).
holds(s_2373_jpg, feature).
holds(s_2373_jpg, hotel).
holds(s_2373_jpg, billboard).
holds(s_2373_jpg, sign).
holds(s_2373_jpg, table).
holds(s_2373_jpg, tiledroof).
holds(s_2373_jpg, tiledrooftop).
holds(s_2373_jpg, vendingmachine).
holds(s_2373_jpg, statue).
holds(s_2373_jpg, chimney).
holds(s_2373_jpg, pipe).
holds(s_2373_jpg, machine).
holds(s_2373_jpg, car).
holds(s_2373_jpg, commercial).

sample(s_13308_jpg).
holds(s_13308_jpg, building).
holds(s_13308_jpg, feature).
holds(s_13308_jpg, porch).
holds(s_13308_jpg, sign).
holds(s_13308_jpg, table).
holds(s_13308_jpg, tiledrooftop).
holds(s_13308_jpg, vendingmachine).
holds(s_13308_jpg, statue).
holds(s_13308_jpg, chimney).
holds(s_13308_jpg, pipe).
holds(s_13308_jpg, machine).

sample(s_5113_jpg).
holds(s_5113_jpg, building).
holds(s_5113_jpg, feature).
holds(s_5113_jpg, watertreatment).
holds(s_5113_jpg, door).
holds(s_5113_jpg, billboard).
holds(s_5113_jpg, porch).
holds(s_5113_jpg, sign).
holds(s_5113_jpg, tiledroof).
holds(s_5113_jpg, wallsign).
holds(s_5113_jpg, chimney).
holds(s_5113_jpg, pipe).
holds(s_5113_jpg, industrial).

sample(s_3641_jpg).
holds(s_3641_jpg, building).
holds(s_3641_jpg, feature).
holds(s_3641_jpg, window).
holds(s_3641_jpg, porch).
holds(s_3641_jpg, table).
holds(s_3641_jpg, tiledrooftop).
holds(s_3641_jpg, vendingmachine).
holds(s_3641_jpg, statue).
holds(s_3641_jpg, pipe).

sample(s_6410_jpg).
holds(s_6410_jpg, building).
holds(s_6410_jpg, feature).
holds(s_6410_jpg, sign).
holds(s_6410_jpg, table).
holds(s_6410_jpg, tiledrooftop).
holds(s_6410_jpg, vendingmachine).
holds(s_6410_jpg, statue).
holds(s_6410_jpg, pipe).
holds(s_6410_jpg, machine).

sample(s_14330_jpg).
holds(s_14330_jpg, building).
holds(s_14330_jpg, feature).
holds(s_14330_jpg, sign).
holds(s_14330_jpg, table).
holds(s_14330_jpg, tiledrooftop).
holds(s_14330_jpg, vendingmachine).
holds(s_14330_jpg, statue).
holds(s_14330_jpg, pipe).

sample(s_8031_jpg).
holds(s_8031_jpg, building).
holds(s_8031_jpg, feature).
holds(s_8031_jpg, door).
holds(s_8031_jpg, billboard).
holds(s_8031_jpg, porch).
holds(s_8031_jpg, sign).
holds(s_8031_jpg, table).
holds(s_8031_jpg, tiledroof).
holds(s_8031_jpg, tiledrooftop).
holds(s_8031_jpg, wallsign).
holds(s_8031_jpg, pipe).

sample(s_1538_jpg).
holds(s_1538_jpg, building).
holds(s_1538_jpg, feature).
holds(s_1538_jpg, sign).
holds(s_1538_jpg, table).
holds(s_1538_jpg, tiledrooftop).
holds(s_1538_jpg, vendingmachine).
holds(s_1538_jpg, statue).
holds(s_1538_jpg, pipe).

sample(s_14062_jpg).
holds(s_14062_jpg, building).
holds(s_14062_jpg, feature).
holds(s_14062_jpg, watertreatment).
holds(s_14062_jpg, door).
holds(s_14062_jpg, billboard).
holds(s_14062_jpg, porch).
holds(s_14062_jpg, sign).
holds(s_14062_jpg, tiledroof).
holds(s_14062_jpg, tiledrooftop).
holds(s_14062_jpg, wallsign).
holds(s_14062_jpg, industrial).

sample(s_3935_jpg).
holds(s_3935_jpg, building).
holds(s_3935_jpg, feature).
holds(s_3935_jpg, window).
holds(s_3935_jpg, porch).
holds(s_3935_jpg, table).
holds(s_3935_jpg, tiledrooftop).
holds(s_3935_jpg, vendingmachine).
holds(s_3935_jpg, statue).

sample(s_6417_jpg).
holds(s_6417_jpg, building).
holds(s_6417_jpg, feature).
holds(s_6417_jpg, hotel).
holds(s_6417_jpg, door).
holds(s_6417_jpg, billboard).
holds(s_6417_jpg, porch).
holds(s_6417_jpg, sign).
holds(s_6417_jpg, tiledroof).
holds(s_6417_jpg, tiledrooftop).
holds(s_6417_jpg, wallsign).
holds(s_6417_jpg, chimney).
holds(s_6417_jpg, pipe).
holds(s_6417_jpg, car).
holds(s_6417_jpg, commercial).

sample(s_15608_jpg).
holds(s_15608_jpg, building).
holds(s_15608_jpg, feature).
holds(s_15608_jpg, sign).
holds(s_15608_jpg, table).
holds(s_15608_jpg, tiledrooftop).
holds(s_15608_jpg, vendingmachine).
holds(s_15608_jpg, statue).
holds(s_15608_jpg, pipe).
holds(s_15608_jpg, machine).

sample(s_6791_jpg).
holds(s_6791_jpg, building).
holds(s_6791_jpg, feature).
holds(s_6791_jpg, sign).
holds(s_6791_jpg, table).
holds(s_6791_jpg, tiledrooftop).
holds(s_6791_jpg, vendingmachine).
holds(s_6791_jpg, statue).
holds(s_6791_jpg, pipe).
holds(s_6791_jpg, machine).

sample(s_11007_jpg).
holds(s_11007_jpg, building).
holds(s_11007_jpg, feature).
holds(s_11007_jpg, hotel).
holds(s_11007_jpg, billboard).
holds(s_11007_jpg, sign).
holds(s_11007_jpg, table).
holds(s_11007_jpg, tiledroof).
holds(s_11007_jpg, tiledrooftop).
holds(s_11007_jpg, vendingmachine).
holds(s_11007_jpg, wallsign).
holds(s_11007_jpg, chimney).
holds(s_11007_jpg, pipe).
holds(s_11007_jpg, machine).
holds(s_11007_jpg, car).
holds(s_11007_jpg, commercial).

sample(s_12833_jpg).
holds(s_12833_jpg, building).
holds(s_12833_jpg, feature).
holds(s_12833_jpg, sign).
holds(s_12833_jpg, table).
holds(s_12833_jpg, tiledrooftop).
holds(s_12833_jpg, vendingmachine).
holds(s_12833_jpg, statue).
holds(s_12833_jpg, pipe).
holds(s_12833_jpg, machine).

sample(s_1657_jpg).
holds(s_1657_jpg, building).
holds(s_1657_jpg, feature).
holds(s_1657_jpg, watertreatment).
holds(s_1657_jpg, door).
holds(s_1657_jpg, billboard).
holds(s_1657_jpg, porch).
holds(s_1657_jpg, sign).
holds(s_1657_jpg, tiledroof).
holds(s_1657_jpg, tiledrooftop).
holds(s_1657_jpg, wallsign).
holds(s_1657_jpg, pipe).
holds(s_1657_jpg, industrial).

sample(s_1796_jpg).
holds(s_1796_jpg, building).
holds(s_1796_jpg, feature).
holds(s_1796_jpg, porch).
holds(s_1796_jpg, sign).
holds(s_1796_jpg, table).
holds(s_1796_jpg, tiledrooftop).
holds(s_1796_jpg, vendingmachine).
holds(s_1796_jpg, statue).
holds(s_1796_jpg, pipe).

sample(s_12160_jpg).
holds(s_12160_jpg, building).
holds(s_12160_jpg, feature).
holds(s_12160_jpg, watertreatment).
holds(s_12160_jpg, door).
holds(s_12160_jpg, billboard).
holds(s_12160_jpg, porch).
holds(s_12160_jpg, sign).
holds(s_12160_jpg, tiledroof).
holds(s_12160_jpg, tiledrooftop).
holds(s_12160_jpg, wallsign).
holds(s_12160_jpg, pipe).
holds(s_12160_jpg, industrial).

sample(s_4451_jpg).
holds(s_4451_jpg, building).
holds(s_4451_jpg, feature).
holds(s_4451_jpg, porch).
holds(s_4451_jpg, sign).
holds(s_4451_jpg, table).
holds(s_4451_jpg, tiledrooftop).
holds(s_4451_jpg, vendingmachine).
holds(s_4451_jpg, statue).
holds(s_4451_jpg, pipe).
holds(s_4451_jpg, machine).

sample(s_12626_jpg).
holds(s_12626_jpg, building).
holds(s_12626_jpg, feature).
holds(s_12626_jpg, sign).
holds(s_12626_jpg, table).
holds(s_12626_jpg, tiledrooftop).
holds(s_12626_jpg, vendingmachine).
holds(s_12626_jpg, statue).
holds(s_12626_jpg, pipe).

sample(s_15427_jpg).
holds(s_15427_jpg, building).
holds(s_15427_jpg, feature).
holds(s_15427_jpg, watertreatment).
holds(s_15427_jpg, door).
holds(s_15427_jpg, billboard).
holds(s_15427_jpg, sign).
holds(s_15427_jpg, tiledroof).
holds(s_15427_jpg, tiledrooftop).
holds(s_15427_jpg, wallsign).
holds(s_15427_jpg, pipe).
holds(s_15427_jpg, industrial).

sample(s_9675_jpg).
holds(s_9675_jpg, building).
holds(s_9675_jpg, feature).
holds(s_9675_jpg, hotel).
holds(s_9675_jpg, billboard).
holds(s_9675_jpg, sign).
holds(s_9675_jpg, tiledroof).
holds(s_9675_jpg, tiledrooftop).
holds(s_9675_jpg, chimney).
holds(s_9675_jpg, pipe).
holds(s_9675_jpg, machine).
holds(s_9675_jpg, car).
holds(s_9675_jpg, commercial).

sample(s_6869_jpg).
holds(s_6869_jpg, building).
holds(s_6869_jpg, feature).
holds(s_6869_jpg, porch).
holds(s_6869_jpg, sign).
holds(s_6869_jpg, table).
holds(s_6869_jpg, tiledrooftop).
holds(s_6869_jpg, vendingmachine).
holds(s_6869_jpg, statue).
holds(s_6869_jpg, pipe).

sample(s_12565_jpg).
holds(s_12565_jpg, building).
holds(s_12565_jpg, feature).
holds(s_12565_jpg, watertreatment).
holds(s_12565_jpg, door).
holds(s_12565_jpg, billboard).
holds(s_12565_jpg, porch).
holds(s_12565_jpg, sign).
holds(s_12565_jpg, tiledroof).
holds(s_12565_jpg, tiledrooftop).
holds(s_12565_jpg, wallsign).
holds(s_12565_jpg, industrial).

sample(s_14278_jpg).
holds(s_14278_jpg, building).
holds(s_14278_jpg, feature).
holds(s_14278_jpg, watertreatment).
holds(s_14278_jpg, door).
holds(s_14278_jpg, billboard).
holds(s_14278_jpg, porch).
holds(s_14278_jpg, sign).
holds(s_14278_jpg, tiledroof).
holds(s_14278_jpg, tiledrooftop).
holds(s_14278_jpg, wallsign).
holds(s_14278_jpg, pipe).
holds(s_14278_jpg, industrial).

sample(s_1840_jpg).
holds(s_1840_jpg, building).
holds(s_1840_jpg, feature).
holds(s_1840_jpg, watertreatment).
holds(s_1840_jpg, door).
holds(s_1840_jpg, billboard).
holds(s_1840_jpg, porch).
holds(s_1840_jpg, sign).
holds(s_1840_jpg, tiledroof).
holds(s_1840_jpg, wallsign).
holds(s_1840_jpg, industrial).

sample(s_7620_jpg).
holds(s_7620_jpg, building).
holds(s_7620_jpg, feature).
holds(s_7620_jpg, hotel).
holds(s_7620_jpg, door).
holds(s_7620_jpg, billboard).
holds(s_7620_jpg, porch).
holds(s_7620_jpg, sign).
holds(s_7620_jpg, tiledroof).
holds(s_7620_jpg, tiledrooftop).
holds(s_7620_jpg, wallsign).
holds(s_7620_jpg, chimney).
holds(s_7620_jpg, pipe).
holds(s_7620_jpg, car).
holds(s_7620_jpg, commercial).

sample(s_2798_jpg).
holds(s_2798_jpg, building).
holds(s_2798_jpg, feature).
holds(s_2798_jpg, window).
holds(s_2798_jpg, porch).
holds(s_2798_jpg, sign).
holds(s_2798_jpg, table).
holds(s_2798_jpg, tiledrooftop).
holds(s_2798_jpg, vendingmachine).
holds(s_2798_jpg, statue).
holds(s_2798_jpg, pipe).

sample(s_71_jpg).
holds(s_71_jpg, building).
holds(s_71_jpg, feature).
holds(s_71_jpg, porch).
holds(s_71_jpg, sign).
holds(s_71_jpg, table).
holds(s_71_jpg, tiledrooftop).
holds(s_71_jpg, vendingmachine).
holds(s_71_jpg, statue).
holds(s_71_jpg, pipe).

sample(s_14571_jpg).
holds(s_14571_jpg, building).
holds(s_14571_jpg, feature).
holds(s_14571_jpg, hotel).
holds(s_14571_jpg, billboard).
holds(s_14571_jpg, sign).
holds(s_14571_jpg, tiledroof).
holds(s_14571_jpg, tiledrooftop).
holds(s_14571_jpg, vendingmachine).
holds(s_14571_jpg, wallsign).
holds(s_14571_jpg, chimney).
holds(s_14571_jpg, pipe).
holds(s_14571_jpg, machine).
holds(s_14571_jpg, car).
holds(s_14571_jpg, commercial).

sample(s_6639_jpg).
holds(s_6639_jpg, building).
holds(s_6639_jpg, feature).
holds(s_6639_jpg, hotel).
holds(s_6639_jpg, door).
holds(s_6639_jpg, billboard).
holds(s_6639_jpg, sign).
holds(s_6639_jpg, tiledroof).
holds(s_6639_jpg, tiledrooftop).
holds(s_6639_jpg, wallsign).
holds(s_6639_jpg, chimney).
holds(s_6639_jpg, pipe).
holds(s_6639_jpg, car).
holds(s_6639_jpg, commercial).

sample(s_8243_jpg).
holds(s_8243_jpg, building).
holds(s_8243_jpg, feature).
holds(s_8243_jpg, porch).
holds(s_8243_jpg, sign).
holds(s_8243_jpg, table).
holds(s_8243_jpg, tiledrooftop).
holds(s_8243_jpg, vendingmachine).
holds(s_8243_jpg, statue).
holds(s_8243_jpg, pipe).
holds(s_8243_jpg, machine).

sample(s_1811_jpg).
holds(s_1811_jpg, building).
holds(s_1811_jpg, feature).
holds(s_1811_jpg, sign).
holds(s_1811_jpg, table).
holds(s_1811_jpg, tiledrooftop).
holds(s_1811_jpg, vendingmachine).
holds(s_1811_jpg, statue).
holds(s_1811_jpg, pipe).
holds(s_1811_jpg, machine).

sample(s_5837_jpg).
holds(s_5837_jpg, building).
holds(s_5837_jpg, feature).
holds(s_5837_jpg, sign).
holds(s_5837_jpg, table).
holds(s_5837_jpg, tiledrooftop).
holds(s_5837_jpg, vendingmachine).
holds(s_5837_jpg, statue).
holds(s_5837_jpg, pipe).
holds(s_5837_jpg, machine).

sample(s_22_jpg).
holds(s_22_jpg, building).
holds(s_22_jpg, feature).
holds(s_22_jpg, watertreatment).
holds(s_22_jpg, door).
holds(s_22_jpg, billboard).
holds(s_22_jpg, porch).
holds(s_22_jpg, sign).
holds(s_22_jpg, tiledroof).
holds(s_22_jpg, tiledrooftop).
holds(s_22_jpg, wallsign).
holds(s_22_jpg, pipe).
holds(s_22_jpg, industrial).

sample(s_7295_jpg).
holds(s_7295_jpg, building).
holds(s_7295_jpg, feature).
holds(s_7295_jpg, sign).
holds(s_7295_jpg, table).
holds(s_7295_jpg, tiledrooftop).
holds(s_7295_jpg, vendingmachine).
holds(s_7295_jpg, statue).
holds(s_7295_jpg, pipe).
holds(s_7295_jpg, machine).

sample(s_10082_jpg).
holds(s_10082_jpg, building).
holds(s_10082_jpg, feature).
holds(s_10082_jpg, sign).
holds(s_10082_jpg, table).
holds(s_10082_jpg, tiledrooftop).
holds(s_10082_jpg, vendingmachine).
holds(s_10082_jpg, statue).
holds(s_10082_jpg, pipe).
holds(s_10082_jpg, machine).

sample(s_1826_jpg).
holds(s_1826_jpg, building).
holds(s_1826_jpg, feature).
holds(s_1826_jpg, window).
holds(s_1826_jpg, porch).
holds(s_1826_jpg, sign).
holds(s_1826_jpg, table).
holds(s_1826_jpg, tiledrooftop).
holds(s_1826_jpg, vendingmachine).
holds(s_1826_jpg, statue).
holds(s_1826_jpg, pipe).

sample(s_3474_jpg).
holds(s_3474_jpg, building).
holds(s_3474_jpg, feature).
holds(s_3474_jpg, hotel).
holds(s_3474_jpg, porch).
holds(s_3474_jpg, sign).
holds(s_3474_jpg, table).
holds(s_3474_jpg, tiledroof).
holds(s_3474_jpg, vendingmachine).
holds(s_3474_jpg, statue).
holds(s_3474_jpg, pipe).
holds(s_3474_jpg, car).
holds(s_3474_jpg, commercial).

sample(s_11318_jpg).
holds(s_11318_jpg, building).
holds(s_11318_jpg, feature).
holds(s_11318_jpg, sign).
holds(s_11318_jpg, table).
holds(s_11318_jpg, tiledrooftop).
holds(s_11318_jpg, vendingmachine).
holds(s_11318_jpg, statue).
holds(s_11318_jpg, pipe).
holds(s_11318_jpg, machine).

sample(s_7552_jpg).
holds(s_7552_jpg, building).
holds(s_7552_jpg, feature).
holds(s_7552_jpg, watertreatment).
holds(s_7552_jpg, door).
holds(s_7552_jpg, billboard).
holds(s_7552_jpg, porch).
holds(s_7552_jpg, sign).
holds(s_7552_jpg, tiledroof).
holds(s_7552_jpg, wallsign).
holds(s_7552_jpg, industrial).

sample(s_7908_jpg).
holds(s_7908_jpg, building).
holds(s_7908_jpg, feature).
holds(s_7908_jpg, hotel).
holds(s_7908_jpg, billboard).
holds(s_7908_jpg, sign).
holds(s_7908_jpg, table).
holds(s_7908_jpg, tiledroof).
holds(s_7908_jpg, tiledrooftop).
holds(s_7908_jpg, vendingmachine).
holds(s_7908_jpg, statue).
holds(s_7908_jpg, chimney).
holds(s_7908_jpg, pipe).
holds(s_7908_jpg, machine).
holds(s_7908_jpg, car).
holds(s_7908_jpg, commercial).

sample(s_11487_jpg).
holds(s_11487_jpg, building).
holds(s_11487_jpg, feature).
holds(s_11487_jpg, hotel).
holds(s_11487_jpg, door).
holds(s_11487_jpg, billboard).
holds(s_11487_jpg, porch).
holds(s_11487_jpg, sign).
holds(s_11487_jpg, tiledroof).
holds(s_11487_jpg, tiledrooftop).
holds(s_11487_jpg, wallsign).
holds(s_11487_jpg, chimney).
holds(s_11487_jpg, pipe).
holds(s_11487_jpg, car).
holds(s_11487_jpg, commercial).

sample(s_14260_jpg).
holds(s_14260_jpg, building).
holds(s_14260_jpg, feature).
holds(s_14260_jpg, watertreatment).
holds(s_14260_jpg, door).
holds(s_14260_jpg, billboard).
holds(s_14260_jpg, porch).
holds(s_14260_jpg, sign).
holds(s_14260_jpg, tiledroof).
holds(s_14260_jpg, tiledrooftop).
holds(s_14260_jpg, wallsign).
holds(s_14260_jpg, pipe).
holds(s_14260_jpg, industrial).

sample(s_13825_jpg).
holds(s_13825_jpg, building).
holds(s_13825_jpg, feature).
holds(s_13825_jpg, watertreatment).
holds(s_13825_jpg, door).
holds(s_13825_jpg, billboard).
holds(s_13825_jpg, porch).
holds(s_13825_jpg, sign).
holds(s_13825_jpg, tiledroof).
holds(s_13825_jpg, wallsign).
holds(s_13825_jpg, industrial).

sample(s_12373_jpg).
holds(s_12373_jpg, building).
holds(s_12373_jpg, feature).
holds(s_12373_jpg, watertreatment).
holds(s_12373_jpg, door).
holds(s_12373_jpg, billboard).
holds(s_12373_jpg, porch).
holds(s_12373_jpg, sign).
holds(s_12373_jpg, tiledroof).
holds(s_12373_jpg, wallsign).
holds(s_12373_jpg, pipe).
holds(s_12373_jpg, industrial).

sample(s_8402_jpg).
holds(s_8402_jpg, building).
holds(s_8402_jpg, feature).
holds(s_8402_jpg, sign).
holds(s_8402_jpg, table).
holds(s_8402_jpg, tiledrooftop).
holds(s_8402_jpg, vendingmachine).
holds(s_8402_jpg, statue).
holds(s_8402_jpg, pipe).

sample(s_7083_jpg).
holds(s_7083_jpg, building).
holds(s_7083_jpg, feature).
holds(s_7083_jpg, hotel).
holds(s_7083_jpg, billboard).
holds(s_7083_jpg, sign).
holds(s_7083_jpg, table).
holds(s_7083_jpg, tiledroof).
holds(s_7083_jpg, tiledrooftop).
holds(s_7083_jpg, vendingmachine).
holds(s_7083_jpg, wallsign).
holds(s_7083_jpg, chimney).
holds(s_7083_jpg, pipe).
holds(s_7083_jpg, machine).
holds(s_7083_jpg, car).
holds(s_7083_jpg, commercial).

sample(s_6535_jpg).
holds(s_6535_jpg, building).
holds(s_6535_jpg, feature).
holds(s_6535_jpg, watertreatment).
holds(s_6535_jpg, door).
holds(s_6535_jpg, billboard).
holds(s_6535_jpg, porch).
holds(s_6535_jpg, sign).
holds(s_6535_jpg, tiledroof).
holds(s_6535_jpg, tiledrooftop).
holds(s_6535_jpg, wallsign).
holds(s_6535_jpg, pipe).
holds(s_6535_jpg, industrial).

sample(s_12968_jpg).
holds(s_12968_jpg, building).
holds(s_12968_jpg, feature).
holds(s_12968_jpg, window).
holds(s_12968_jpg, porch).
holds(s_12968_jpg, sign).
holds(s_12968_jpg, table).
holds(s_12968_jpg, tiledrooftop).
holds(s_12968_jpg, vendingmachine).
holds(s_12968_jpg, statue).
holds(s_12968_jpg, pipe).

sample(s_6118_jpg).
holds(s_6118_jpg, building).
holds(s_6118_jpg, feature).
holds(s_6118_jpg, watertreatment).
holds(s_6118_jpg, door).
holds(s_6118_jpg, billboard).
holds(s_6118_jpg, porch).
holds(s_6118_jpg, sign).
holds(s_6118_jpg, tiledroof).
holds(s_6118_jpg, tiledrooftop).
holds(s_6118_jpg, wallsign).
holds(s_6118_jpg, pipe).
holds(s_6118_jpg, industrial).

sample(s_11593_jpg).
holds(s_11593_jpg, building).
holds(s_11593_jpg, feature).
holds(s_11593_jpg, watertreatment).
holds(s_11593_jpg, door).
holds(s_11593_jpg, billboard).
holds(s_11593_jpg, porch).
holds(s_11593_jpg, sign).
holds(s_11593_jpg, tiledroof).
holds(s_11593_jpg, tiledrooftop).
holds(s_11593_jpg, wallsign).
holds(s_11593_jpg, pipe).
holds(s_11593_jpg, industrial).

sample(s_13868_jpg).
holds(s_13868_jpg, building).
holds(s_13868_jpg, feature).
holds(s_13868_jpg, window).
holds(s_13868_jpg, porch).
holds(s_13868_jpg, sign).
holds(s_13868_jpg, table).
holds(s_13868_jpg, tiledrooftop).
holds(s_13868_jpg, vendingmachine).
holds(s_13868_jpg, statue).
holds(s_13868_jpg, pipe).

sample(s_4369_jpg).
holds(s_4369_jpg, building).
holds(s_4369_jpg, feature).
holds(s_4369_jpg, watertreatment).
holds(s_4369_jpg, door).
holds(s_4369_jpg, billboard).
holds(s_4369_jpg, porch).
holds(s_4369_jpg, sign).
holds(s_4369_jpg, tiledroof).
holds(s_4369_jpg, wallsign).
holds(s_4369_jpg, industrial).

sample(s_14455_jpg).
holds(s_14455_jpg, building).
holds(s_14455_jpg, feature).
holds(s_14455_jpg, watertreatment).
holds(s_14455_jpg, door).
holds(s_14455_jpg, billboard).
holds(s_14455_jpg, porch).
holds(s_14455_jpg, sign).
holds(s_14455_jpg, tiledroof).
holds(s_14455_jpg, wallsign).
holds(s_14455_jpg, chimney).
holds(s_14455_jpg, pipe).
holds(s_14455_jpg, industrial).

sample(s_10121_jpg).
holds(s_10121_jpg, building).
holds(s_10121_jpg, feature).
holds(s_10121_jpg, sign).
holds(s_10121_jpg, table).
holds(s_10121_jpg, tiledrooftop).
holds(s_10121_jpg, vendingmachine).
holds(s_10121_jpg, statue).
holds(s_10121_jpg, pipe).
holds(s_10121_jpg, machine).

sample(s_4627_jpg).
holds(s_4627_jpg, building).
holds(s_4627_jpg, feature).
holds(s_4627_jpg, watertreatment).
holds(s_4627_jpg, door).
holds(s_4627_jpg, billboard).
holds(s_4627_jpg, porch).
holds(s_4627_jpg, sign).
holds(s_4627_jpg, tiledroof).
holds(s_4627_jpg, wallsign).
holds(s_4627_jpg, industrial).

sample(s_12053_jpg).
holds(s_12053_jpg, building).
holds(s_12053_jpg, feature).
holds(s_12053_jpg, sign).
holds(s_12053_jpg, table).
holds(s_12053_jpg, tiledrooftop).
holds(s_12053_jpg, vendingmachine).
holds(s_12053_jpg, statue).
holds(s_12053_jpg, pipe).

sample(s_2790_jpg).
holds(s_2790_jpg, building).
holds(s_2790_jpg, feature).
holds(s_2790_jpg, hotel).
holds(s_2790_jpg, billboard).
holds(s_2790_jpg, porch).
holds(s_2790_jpg, sign).
holds(s_2790_jpg, table).
holds(s_2790_jpg, tiledroof).
holds(s_2790_jpg, tiledrooftop).
holds(s_2790_jpg, vendingmachine).
holds(s_2790_jpg, wallsign).
holds(s_2790_jpg, chimney).
holds(s_2790_jpg, pipe).
holds(s_2790_jpg, machine).
holds(s_2790_jpg, car).
holds(s_2790_jpg, commercial).

sample(s_2335_jpg).
holds(s_2335_jpg, building).
holds(s_2335_jpg, feature).
holds(s_2335_jpg, watertreatment).
holds(s_2335_jpg, door).
holds(s_2335_jpg, billboard).
holds(s_2335_jpg, porch).
holds(s_2335_jpg, sign).
holds(s_2335_jpg, tiledroof).
holds(s_2335_jpg, tiledrooftop).
holds(s_2335_jpg, wallsign).
holds(s_2335_jpg, pipe).
holds(s_2335_jpg, industrial).

sample(s_57_jpg).
holds(s_57_jpg, building).
holds(s_57_jpg, feature).
holds(s_57_jpg, hotel).
holds(s_57_jpg, billboard).
holds(s_57_jpg, sign).
holds(s_57_jpg, table).
holds(s_57_jpg, tiledroof).
holds(s_57_jpg, tiledrooftop).
holds(s_57_jpg, vendingmachine).
holds(s_57_jpg, statue).
holds(s_57_jpg, chimney).
holds(s_57_jpg, pipe).
holds(s_57_jpg, machine).
holds(s_57_jpg, car).
holds(s_57_jpg, commercial).

sample(s_8245_jpg).
holds(s_8245_jpg, building).
holds(s_8245_jpg, feature).
holds(s_8245_jpg, watertreatment).
holds(s_8245_jpg, door).
holds(s_8245_jpg, billboard).
holds(s_8245_jpg, porch).
holds(s_8245_jpg, sign).
holds(s_8245_jpg, tiledroof).
holds(s_8245_jpg, wallsign).
holds(s_8245_jpg, industrial).

sample(s_2611_jpg).
holds(s_2611_jpg, building).
holds(s_2611_jpg, feature).
holds(s_2611_jpg, watertreatment).
holds(s_2611_jpg, door).
holds(s_2611_jpg, billboard).
holds(s_2611_jpg, porch).
holds(s_2611_jpg, sign).
holds(s_2611_jpg, tiledroof).
holds(s_2611_jpg, tiledrooftop).
holds(s_2611_jpg, wallsign).
holds(s_2611_jpg, pipe).
holds(s_2611_jpg, industrial).

sample(s_6775_jpg).
holds(s_6775_jpg, building).
holds(s_6775_jpg, feature).
holds(s_6775_jpg, watertreatment).
holds(s_6775_jpg, door).
holds(s_6775_jpg, billboard).
holds(s_6775_jpg, porch).
holds(s_6775_jpg, sign).
holds(s_6775_jpg, tiledroof).
holds(s_6775_jpg, wallsign).
holds(s_6775_jpg, industrial).

sample(s_11869_jpg).
holds(s_11869_jpg, building).
holds(s_11869_jpg, feature).
holds(s_11869_jpg, watertreatment).
holds(s_11869_jpg, door).
holds(s_11869_jpg, billboard).
holds(s_11869_jpg, porch).
holds(s_11869_jpg, sign).
holds(s_11869_jpg, tiledroof).
holds(s_11869_jpg, wallsign).
holds(s_11869_jpg, pipe).
holds(s_11869_jpg, industrial).

sample(s_15376_jpg).
holds(s_15376_jpg, building).
holds(s_15376_jpg, feature).
holds(s_15376_jpg, watertreatment).
holds(s_15376_jpg, door).
holds(s_15376_jpg, billboard).
holds(s_15376_jpg, sign).
holds(s_15376_jpg, tiledroof).
holds(s_15376_jpg, tiledrooftop).
holds(s_15376_jpg, wallsign).
holds(s_15376_jpg, pipe).
holds(s_15376_jpg, industrial).

sample(s_1571_jpg).
holds(s_1571_jpg, building).
holds(s_1571_jpg, feature).
holds(s_1571_jpg, billboard).
holds(s_1571_jpg, sign).
holds(s_1571_jpg, table).
holds(s_1571_jpg, tiledrooftop).
holds(s_1571_jpg, vendingmachine).
holds(s_1571_jpg, statue).
holds(s_1571_jpg, pipe).

sample(s_14501_jpg).
holds(s_14501_jpg, building).
holds(s_14501_jpg, feature).
holds(s_14501_jpg, billboard).
holds(s_14501_jpg, sign).
holds(s_14501_jpg, table).
holds(s_14501_jpg, tiledrooftop).
holds(s_14501_jpg, vendingmachine).
holds(s_14501_jpg, statue).
holds(s_14501_jpg, pipe).
holds(s_14501_jpg, machine).

sample(s_1506_jpg).
holds(s_1506_jpg, building).
holds(s_1506_jpg, feature).
holds(s_1506_jpg, hotel).
holds(s_1506_jpg, billboard).
holds(s_1506_jpg, porch).
holds(s_1506_jpg, sign).
holds(s_1506_jpg, table).
holds(s_1506_jpg, tiledroof).
holds(s_1506_jpg, tiledrooftop).
holds(s_1506_jpg, vendingmachine).
holds(s_1506_jpg, wallsign).
holds(s_1506_jpg, chimney).
holds(s_1506_jpg, pipe).
holds(s_1506_jpg, machine).
holds(s_1506_jpg, car).
holds(s_1506_jpg, commercial).

sample(s_6611_jpg).
holds(s_6611_jpg, building).
holds(s_6611_jpg, feature).
holds(s_6611_jpg, porch).
holds(s_6611_jpg, sign).
holds(s_6611_jpg, table).
holds(s_6611_jpg, tiledrooftop).
holds(s_6611_jpg, vendingmachine).
holds(s_6611_jpg, statue).
holds(s_6611_jpg, pipe).

sample(s_2088_jpg).
holds(s_2088_jpg, building).
holds(s_2088_jpg, feature).
holds(s_2088_jpg, hotel).
holds(s_2088_jpg, billboard).
holds(s_2088_jpg, sign).
holds(s_2088_jpg, table).
holds(s_2088_jpg, tiledroof).
holds(s_2088_jpg, tiledrooftop).
holds(s_2088_jpg, vendingmachine).
holds(s_2088_jpg, chimney).
holds(s_2088_jpg, pipe).
holds(s_2088_jpg, machine).
holds(s_2088_jpg, car).
holds(s_2088_jpg, commercial).

sample(s_14805_jpg).
holds(s_14805_jpg, building).
holds(s_14805_jpg, feature).
holds(s_14805_jpg, hotel).
holds(s_14805_jpg, billboard).
holds(s_14805_jpg, porch).
holds(s_14805_jpg, sign).
holds(s_14805_jpg, table).
holds(s_14805_jpg, tiledroof).
holds(s_14805_jpg, tiledrooftop).
holds(s_14805_jpg, vendingmachine).
holds(s_14805_jpg, chimney).
holds(s_14805_jpg, pipe).
holds(s_14805_jpg, machine).
holds(s_14805_jpg, car).
holds(s_14805_jpg, commercial).

sample(s_11008_jpg).
holds(s_11008_jpg, building).
holds(s_11008_jpg, feature).
holds(s_11008_jpg, watertreatment).
holds(s_11008_jpg, door).
holds(s_11008_jpg, billboard).
holds(s_11008_jpg, porch).
holds(s_11008_jpg, sign).
holds(s_11008_jpg, tiledroof).
holds(s_11008_jpg, tiledrooftop).
holds(s_11008_jpg, wallsign).
holds(s_11008_jpg, industrial).

sample(s_9684_jpg).
holds(s_9684_jpg, building).
holds(s_9684_jpg, feature).
holds(s_9684_jpg, hotel).
holds(s_9684_jpg, billboard).
holds(s_9684_jpg, porch).
holds(s_9684_jpg, sign).
holds(s_9684_jpg, table).
holds(s_9684_jpg, tiledroof).
holds(s_9684_jpg, tiledrooftop).
holds(s_9684_jpg, vendingmachine).
holds(s_9684_jpg, statue).
holds(s_9684_jpg, chimney).
holds(s_9684_jpg, pipe).
holds(s_9684_jpg, machine).
holds(s_9684_jpg, car).
holds(s_9684_jpg, commercial).

sample(s_14129_jpg).
holds(s_14129_jpg, building).
holds(s_14129_jpg, feature).
holds(s_14129_jpg, sign).
holds(s_14129_jpg, table).
holds(s_14129_jpg, tiledrooftop).
holds(s_14129_jpg, vendingmachine).
holds(s_14129_jpg, statue).
holds(s_14129_jpg, pipe).

sample(s_2853_jpg).
holds(s_2853_jpg, building).
holds(s_2853_jpg, feature).
holds(s_2853_jpg, hotel).
holds(s_2853_jpg, door).
holds(s_2853_jpg, billboard).
holds(s_2853_jpg, porch).
holds(s_2853_jpg, sign).
holds(s_2853_jpg, tiledroof).
holds(s_2853_jpg, tiledrooftop).
holds(s_2853_jpg, vendingmachine).
holds(s_2853_jpg, wallsign).
holds(s_2853_jpg, chimney).
holds(s_2853_jpg, pipe).
holds(s_2853_jpg, machine).
holds(s_2853_jpg, car).
holds(s_2853_jpg, commercial).

sample(s_14816_jpg).
holds(s_14816_jpg, building).
holds(s_14816_jpg, feature).
holds(s_14816_jpg, window).
holds(s_14816_jpg, porch).
holds(s_14816_jpg, table).
holds(s_14816_jpg, tiledrooftop).
holds(s_14816_jpg, vendingmachine).
holds(s_14816_jpg, statue).

sample(s_14804_jpg).
holds(s_14804_jpg, building).
holds(s_14804_jpg, feature).
holds(s_14804_jpg, sign).
holds(s_14804_jpg, table).
holds(s_14804_jpg, tiledrooftop).
holds(s_14804_jpg, vendingmachine).
holds(s_14804_jpg, statue).
holds(s_14804_jpg, pipe).
holds(s_14804_jpg, machine).

sample(s_5096_jpg).
holds(s_5096_jpg, building).
holds(s_5096_jpg, feature).
holds(s_5096_jpg, sign).
holds(s_5096_jpg, table).
holds(s_5096_jpg, tiledrooftop).
holds(s_5096_jpg, vendingmachine).
holds(s_5096_jpg, statue).
holds(s_5096_jpg, pipe).
holds(s_5096_jpg, machine).

sample(s_7823_jpg).
holds(s_7823_jpg, building).
holds(s_7823_jpg, feature).
holds(s_7823_jpg, billboard).
holds(s_7823_jpg, sign).
holds(s_7823_jpg, table).
holds(s_7823_jpg, tiledrooftop).
holds(s_7823_jpg, vendingmachine).
holds(s_7823_jpg, statue).
holds(s_7823_jpg, pipe).
holds(s_7823_jpg, machine).

sample(s_10324_jpg).
holds(s_10324_jpg, building).
holds(s_10324_jpg, feature).
holds(s_10324_jpg, watertreatment).
holds(s_10324_jpg, door).
holds(s_10324_jpg, billboard).
holds(s_10324_jpg, porch).
holds(s_10324_jpg, sign).
holds(s_10324_jpg, tiledroof).
holds(s_10324_jpg, wallsign).
holds(s_10324_jpg, industrial).

sample(s_15220_jpg).
holds(s_15220_jpg, building).
holds(s_15220_jpg, feature).
holds(s_15220_jpg, hotel).
holds(s_15220_jpg, door).
holds(s_15220_jpg, billboard).
holds(s_15220_jpg, sign).
holds(s_15220_jpg, tiledroof).
holds(s_15220_jpg, tiledrooftop).
holds(s_15220_jpg, wallsign).
holds(s_15220_jpg, chimney).
holds(s_15220_jpg, pipe).
holds(s_15220_jpg, commercial).

sample(s_6203_jpg).
holds(s_6203_jpg, building).
holds(s_6203_jpg, feature).
holds(s_6203_jpg, window).
holds(s_6203_jpg, porch).
holds(s_6203_jpg, sign).
holds(s_6203_jpg, table).
holds(s_6203_jpg, tiledrooftop).
holds(s_6203_jpg, vendingmachine).
holds(s_6203_jpg, statue).
holds(s_6203_jpg, pipe).
holds(s_6203_jpg, machine).

sample(s_15765_jpg).
holds(s_15765_jpg, building).
holds(s_15765_jpg, feature).
holds(s_15765_jpg, hotel).
holds(s_15765_jpg, billboard).
holds(s_15765_jpg, sign).
holds(s_15765_jpg, tiledroof).
holds(s_15765_jpg, tiledrooftop).
holds(s_15765_jpg, wallsign).
holds(s_15765_jpg, chimney).
holds(s_15765_jpg, pipe).
holds(s_15765_jpg, machine).
holds(s_15765_jpg, car).
holds(s_15765_jpg, commercial).

sample(s_14108_jpg).
holds(s_14108_jpg, building).
holds(s_14108_jpg, feature).
holds(s_14108_jpg, sign).
holds(s_14108_jpg, table).
holds(s_14108_jpg, tiledrooftop).
holds(s_14108_jpg, vendingmachine).
holds(s_14108_jpg, statue).
holds(s_14108_jpg, pipe).

sample(s_15571_jpg).
holds(s_15571_jpg, building).
holds(s_15571_jpg, feature).
holds(s_15571_jpg, watertreatment).
holds(s_15571_jpg, door).
holds(s_15571_jpg, billboard).
holds(s_15571_jpg, porch).
holds(s_15571_jpg, sign).
holds(s_15571_jpg, tiledroof).
holds(s_15571_jpg, wallsign).
holds(s_15571_jpg, industrial).

sample(s_2927_jpg).
holds(s_2927_jpg, building).
holds(s_2927_jpg, feature).
holds(s_2927_jpg, porch).
holds(s_2927_jpg, sign).
holds(s_2927_jpg, table).
holds(s_2927_jpg, tiledrooftop).
holds(s_2927_jpg, vendingmachine).
holds(s_2927_jpg, statue).
holds(s_2927_jpg, pipe).
holds(s_2927_jpg, machine).

sample(s_12995_jpg).
holds(s_12995_jpg, building).
holds(s_12995_jpg, feature).
holds(s_12995_jpg, sign).
holds(s_12995_jpg, table).
holds(s_12995_jpg, tiledrooftop).
holds(s_12995_jpg, vendingmachine).
holds(s_12995_jpg, statue).
holds(s_12995_jpg, pipe).

sample(s_11475_jpg).
holds(s_11475_jpg, building).
holds(s_11475_jpg, feature).
holds(s_11475_jpg, hotel).
holds(s_11475_jpg, billboard).
holds(s_11475_jpg, sign).
holds(s_11475_jpg, table).
holds(s_11475_jpg, tiledroof).
holds(s_11475_jpg, tiledrooftop).
holds(s_11475_jpg, vendingmachine).
holds(s_11475_jpg, statue).
holds(s_11475_jpg, chimney).
holds(s_11475_jpg, pipe).
holds(s_11475_jpg, machine).
holds(s_11475_jpg, car).
holds(s_11475_jpg, commercial).

sample(s_13624_jpg).
holds(s_13624_jpg, building).
holds(s_13624_jpg, feature).
holds(s_13624_jpg, watertreatment).
holds(s_13624_jpg, door).
holds(s_13624_jpg, billboard).
holds(s_13624_jpg, porch).
holds(s_13624_jpg, sign).
holds(s_13624_jpg, tiledroof).
holds(s_13624_jpg, wallsign).
holds(s_13624_jpg, chimney).
holds(s_13624_jpg, pipe).
holds(s_13624_jpg, industrial).

sample(s_15437_jpg).
holds(s_15437_jpg, building).
holds(s_15437_jpg, feature).
holds(s_15437_jpg, sign).
holds(s_15437_jpg, table).
holds(s_15437_jpg, tiledrooftop).
holds(s_15437_jpg, vendingmachine).
holds(s_15437_jpg, statue).
holds(s_15437_jpg, pipe).

sample(s_1997_jpg).
holds(s_1997_jpg, building).
holds(s_1997_jpg, feature).
holds(s_1997_jpg, sign).
holds(s_1997_jpg, table).
holds(s_1997_jpg, tiledrooftop).
holds(s_1997_jpg, vendingmachine).
holds(s_1997_jpg, statue).
holds(s_1997_jpg, pipe).

sample(s_2365_jpg).
holds(s_2365_jpg, building).
holds(s_2365_jpg, feature).
holds(s_2365_jpg, watertreatment).
holds(s_2365_jpg, door).
holds(s_2365_jpg, billboard).
holds(s_2365_jpg, porch).
holds(s_2365_jpg, sign).
holds(s_2365_jpg, tiledroof).
holds(s_2365_jpg, wallsign).
holds(s_2365_jpg, industrial).

sample(s_4999_jpg).
holds(s_4999_jpg, building).
holds(s_4999_jpg, feature).
holds(s_4999_jpg, watertreatment).
holds(s_4999_jpg, door).
holds(s_4999_jpg, billboard).
holds(s_4999_jpg, porch).
holds(s_4999_jpg, sign).
holds(s_4999_jpg, tiledroof).
holds(s_4999_jpg, wallsign).
holds(s_4999_jpg, industrial).

sample(s_15449_jpg).
holds(s_15449_jpg, building).
holds(s_15449_jpg, feature).
holds(s_15449_jpg, sign).
holds(s_15449_jpg, table).
holds(s_15449_jpg, tiledrooftop).
holds(s_15449_jpg, vendingmachine).
holds(s_15449_jpg, statue).
holds(s_15449_jpg, pipe).

sample(s_11657_jpg).
holds(s_11657_jpg, building).
holds(s_11657_jpg, feature).
holds(s_11657_jpg, sign).
holds(s_11657_jpg, table).
holds(s_11657_jpg, tiledrooftop).
holds(s_11657_jpg, vendingmachine).
holds(s_11657_jpg, statue).
holds(s_11657_jpg, pipe).
holds(s_11657_jpg, machine).

sample(s_11323_jpg).
holds(s_11323_jpg, building).
holds(s_11323_jpg, feature).
holds(s_11323_jpg, watertreatment).
holds(s_11323_jpg, door).
holds(s_11323_jpg, billboard).
holds(s_11323_jpg, porch).
holds(s_11323_jpg, sign).
holds(s_11323_jpg, tiledroof).
holds(s_11323_jpg, wallsign).
holds(s_11323_jpg, industrial).

sample(s_2033_jpg).
holds(s_2033_jpg, building).
holds(s_2033_jpg, feature).
holds(s_2033_jpg, sign).
holds(s_2033_jpg, table).
holds(s_2033_jpg, tiledrooftop).
holds(s_2033_jpg, vendingmachine).
holds(s_2033_jpg, statue).
holds(s_2033_jpg, pipe).
holds(s_2033_jpg, machine).

sample(s_4174_jpg).
holds(s_4174_jpg, building).
holds(s_4174_jpg, feature).
holds(s_4174_jpg, watertreatment).
holds(s_4174_jpg, door).
holds(s_4174_jpg, billboard).
holds(s_4174_jpg, porch).
holds(s_4174_jpg, sign).
holds(s_4174_jpg, tiledroof).
holds(s_4174_jpg, wallsign).
holds(s_4174_jpg, chimney).
holds(s_4174_jpg, pipe).
holds(s_4174_jpg, car).
holds(s_4174_jpg, industrial).

sample(s_2147_jpg).
holds(s_2147_jpg, building).
holds(s_2147_jpg, feature).
holds(s_2147_jpg, porch).
holds(s_2147_jpg, sign).
holds(s_2147_jpg, table).
holds(s_2147_jpg, tiledrooftop).
holds(s_2147_jpg, vendingmachine).
holds(s_2147_jpg, statue).
holds(s_2147_jpg, pipe).
holds(s_2147_jpg, machine).

sample(s_14300_jpg).
holds(s_14300_jpg, building).
holds(s_14300_jpg, feature).
holds(s_14300_jpg, sign).
holds(s_14300_jpg, table).
holds(s_14300_jpg, tiledrooftop).
holds(s_14300_jpg, vendingmachine).
holds(s_14300_jpg, statue).
holds(s_14300_jpg, pipe).

sample(s_13512_jpg).
holds(s_13512_jpg, building).
holds(s_13512_jpg, feature).
holds(s_13512_jpg, hotel).
holds(s_13512_jpg, door).
holds(s_13512_jpg, billboard).
holds(s_13512_jpg, porch).
holds(s_13512_jpg, sign).
holds(s_13512_jpg, tiledroof).
holds(s_13512_jpg, tiledrooftop).
holds(s_13512_jpg, wallsign).
holds(s_13512_jpg, chimney).
holds(s_13512_jpg, pipe).
holds(s_13512_jpg, car).
holds(s_13512_jpg, commercial).

sample(s_7201_jpg).
holds(s_7201_jpg, building).
holds(s_7201_jpg, feature).
holds(s_7201_jpg, watertreatment).
holds(s_7201_jpg, door).
holds(s_7201_jpg, billboard).
holds(s_7201_jpg, porch).
holds(s_7201_jpg, sign).
holds(s_7201_jpg, tiledroof).
holds(s_7201_jpg, wallsign).
holds(s_7201_jpg, chimney).
holds(s_7201_jpg, pipe).
holds(s_7201_jpg, car).
holds(s_7201_jpg, industrial).

sample(s_13398_jpg).
holds(s_13398_jpg, building).
holds(s_13398_jpg, feature).
holds(s_13398_jpg, hotel).
holds(s_13398_jpg, door).
holds(s_13398_jpg, billboard).
holds(s_13398_jpg, porch).
holds(s_13398_jpg, sign).
holds(s_13398_jpg, tiledroof).
holds(s_13398_jpg, tiledrooftop).
holds(s_13398_jpg, vendingmachine).
holds(s_13398_jpg, wallsign).
holds(s_13398_jpg, chimney).
holds(s_13398_jpg, pipe).
holds(s_13398_jpg, car).
holds(s_13398_jpg, commercial).

sample(s_6642_jpg).
holds(s_6642_jpg, building).
holds(s_6642_jpg, feature).
holds(s_6642_jpg, hotel).
holds(s_6642_jpg, door).
holds(s_6642_jpg, billboard).
holds(s_6642_jpg, porch).
holds(s_6642_jpg, sign).
holds(s_6642_jpg, table).
holds(s_6642_jpg, tiledroof).
holds(s_6642_jpg, tiledrooftop).
holds(s_6642_jpg, wallsign).
holds(s_6642_jpg, statue).
holds(s_6642_jpg, chimney).
holds(s_6642_jpg, pipe).
holds(s_6642_jpg, car).
holds(s_6642_jpg, commercial).

sample(s_1464_jpg).
holds(s_1464_jpg, building).
holds(s_1464_jpg, feature).
holds(s_1464_jpg, hotel).
holds(s_1464_jpg, door).
holds(s_1464_jpg, billboard).
holds(s_1464_jpg, porch).
holds(s_1464_jpg, sign).
holds(s_1464_jpg, tiledroof).
holds(s_1464_jpg, tiledrooftop).
holds(s_1464_jpg, vendingmachine).
holds(s_1464_jpg, wallsign).
holds(s_1464_jpg, chimney).
holds(s_1464_jpg, pipe).
holds(s_1464_jpg, car).
holds(s_1464_jpg, commercial).

sample(s_5166_jpg).
holds(s_5166_jpg, building).
holds(s_5166_jpg, feature).
holds(s_5166_jpg, hotel).
holds(s_5166_jpg, door).
holds(s_5166_jpg, billboard).
holds(s_5166_jpg, sign).
holds(s_5166_jpg, tiledroof).
holds(s_5166_jpg, tiledrooftop).
holds(s_5166_jpg, wallsign).
holds(s_5166_jpg, chimney).
holds(s_5166_jpg, pipe).
holds(s_5166_jpg, machine).
holds(s_5166_jpg, car).
holds(s_5166_jpg, commercial).

sample(s_11532_jpg).
holds(s_11532_jpg, building).
holds(s_11532_jpg, feature).
holds(s_11532_jpg, hotel).
holds(s_11532_jpg, door).
holds(s_11532_jpg, billboard).
holds(s_11532_jpg, porch).
holds(s_11532_jpg, sign).
holds(s_11532_jpg, tiledroof).
holds(s_11532_jpg, tiledrooftop).
holds(s_11532_jpg, wallsign).
holds(s_11532_jpg, chimney).
holds(s_11532_jpg, pipe).
holds(s_11532_jpg, car).
holds(s_11532_jpg, commercial).

sample(s_8382_jpg).
holds(s_8382_jpg, building).
holds(s_8382_jpg, feature).
holds(s_8382_jpg, hotel).
holds(s_8382_jpg, door).
holds(s_8382_jpg, billboard).
holds(s_8382_jpg, porch).
holds(s_8382_jpg, sign).
holds(s_8382_jpg, tiledroof).
holds(s_8382_jpg, tiledrooftop).
holds(s_8382_jpg, wallsign).
holds(s_8382_jpg, chimney).
holds(s_8382_jpg, pipe).
holds(s_8382_jpg, car).
holds(s_8382_jpg, commercial).

sample(s_1970_jpg).
holds(s_1970_jpg, building).
holds(s_1970_jpg, feature).
holds(s_1970_jpg, porch).
holds(s_1970_jpg, sign).
holds(s_1970_jpg, table).
holds(s_1970_jpg, tiledrooftop).
holds(s_1970_jpg, vendingmachine).
holds(s_1970_jpg, statue).

sample(s_3379_jpg).
holds(s_3379_jpg, building).
holds(s_3379_jpg, feature).
holds(s_3379_jpg, watertreatment).
holds(s_3379_jpg, door).
holds(s_3379_jpg, billboard).
holds(s_3379_jpg, porch).
holds(s_3379_jpg, sign).
holds(s_3379_jpg, tiledroof).
holds(s_3379_jpg, tiledrooftop).
holds(s_3379_jpg, wallsign).
holds(s_3379_jpg, industrial).

sample(s_7324_jpg).
holds(s_7324_jpg, building).
holds(s_7324_jpg, feature).
holds(s_7324_jpg, watertreatment).
holds(s_7324_jpg, door).
holds(s_7324_jpg, billboard).
holds(s_7324_jpg, porch).
holds(s_7324_jpg, sign).
holds(s_7324_jpg, tiledroof).
holds(s_7324_jpg, wallsign).
holds(s_7324_jpg, industrial).

sample(s_9045_jpg).
holds(s_9045_jpg, building).
holds(s_9045_jpg, feature).
holds(s_9045_jpg, hotel).
holds(s_9045_jpg, billboard).
holds(s_9045_jpg, sign).
holds(s_9045_jpg, table).
holds(s_9045_jpg, tiledroof).
holds(s_9045_jpg, tiledrooftop).
holds(s_9045_jpg, vendingmachine).
holds(s_9045_jpg, chimney).
holds(s_9045_jpg, pipe).
holds(s_9045_jpg, machine).
holds(s_9045_jpg, car).
holds(s_9045_jpg, commercial).

sample(s_14188_jpg).
holds(s_14188_jpg, building).
holds(s_14188_jpg, feature).
holds(s_14188_jpg, watertreatment).
holds(s_14188_jpg, door).
holds(s_14188_jpg, billboard).
holds(s_14188_jpg, porch).
holds(s_14188_jpg, sign).
holds(s_14188_jpg, tiledroof).
holds(s_14188_jpg, wallsign).
holds(s_14188_jpg, industrial).

sample(s_7203_jpg).
holds(s_7203_jpg, building).
holds(s_7203_jpg, feature).
holds(s_7203_jpg, hotel).
holds(s_7203_jpg, door).
holds(s_7203_jpg, billboard).
holds(s_7203_jpg, sign).
holds(s_7203_jpg, tiledroof).
holds(s_7203_jpg, tiledrooftop).
holds(s_7203_jpg, wallsign).
holds(s_7203_jpg, chimney).
holds(s_7203_jpg, pipe).
holds(s_7203_jpg, car).
holds(s_7203_jpg, commercial).

sample(s_14905_jpg).
holds(s_14905_jpg, building).
holds(s_14905_jpg, feature).
holds(s_14905_jpg, watertreatment).
holds(s_14905_jpg, door).
holds(s_14905_jpg, billboard).
holds(s_14905_jpg, porch).
holds(s_14905_jpg, sign).
holds(s_14905_jpg, tiledroof).
holds(s_14905_jpg, wallsign).
holds(s_14905_jpg, industrial).

sample(s_11469_jpg).
holds(s_11469_jpg, building).
holds(s_11469_jpg, feature).
holds(s_11469_jpg, hotel).
holds(s_11469_jpg, billboard).
holds(s_11469_jpg, sign).
holds(s_11469_jpg, table).
holds(s_11469_jpg, tiledroof).
holds(s_11469_jpg, tiledrooftop).
holds(s_11469_jpg, vendingmachine).
holds(s_11469_jpg, statue).
holds(s_11469_jpg, chimney).
holds(s_11469_jpg, pipe).
holds(s_11469_jpg, machine).
holds(s_11469_jpg, car).
holds(s_11469_jpg, commercial).

sample(s_7791_jpg).
holds(s_7791_jpg, building).
holds(s_7791_jpg, feature).
holds(s_7791_jpg, hotel).
holds(s_7791_jpg, billboard).
holds(s_7791_jpg, sign).
holds(s_7791_jpg, tiledroof).
holds(s_7791_jpg, tiledrooftop).
holds(s_7791_jpg, vendingmachine).
holds(s_7791_jpg, wallsign).
holds(s_7791_jpg, chimney).
holds(s_7791_jpg, pipe).
holds(s_7791_jpg, machine).
holds(s_7791_jpg, car).
holds(s_7791_jpg, commercial).

sample(s_3162_jpg).
holds(s_3162_jpg, building).
holds(s_3162_jpg, feature).
holds(s_3162_jpg, hotel).
holds(s_3162_jpg, door).
holds(s_3162_jpg, billboard).
holds(s_3162_jpg, porch).
holds(s_3162_jpg, sign).
holds(s_3162_jpg, table).
holds(s_3162_jpg, tiledroof).
holds(s_3162_jpg, tiledrooftop).
holds(s_3162_jpg, vendingmachine).
holds(s_3162_jpg, wallsign).
holds(s_3162_jpg, chimney).
holds(s_3162_jpg, pipe).
holds(s_3162_jpg, car).
holds(s_3162_jpg, commercial).

sample(s_9569_jpg).
holds(s_9569_jpg, building).
holds(s_9569_jpg, feature).
holds(s_9569_jpg, sign).
holds(s_9569_jpg, table).
holds(s_9569_jpg, tiledrooftop).
holds(s_9569_jpg, vendingmachine).
holds(s_9569_jpg, statue).
holds(s_9569_jpg, pipe).
holds(s_9569_jpg, machine).

sample(s_11541_jpg).
holds(s_11541_jpg, building).
holds(s_11541_jpg, feature).
holds(s_11541_jpg, hotel).
holds(s_11541_jpg, billboard).
holds(s_11541_jpg, sign).
holds(s_11541_jpg, table).
holds(s_11541_jpg, tiledroof).
holds(s_11541_jpg, tiledrooftop).
holds(s_11541_jpg, vendingmachine).
holds(s_11541_jpg, wallsign).
holds(s_11541_jpg, chimney).
holds(s_11541_jpg, pipe).
holds(s_11541_jpg, machine).
holds(s_11541_jpg, car).
holds(s_11541_jpg, commercial).

sample(s_10454_jpg).
holds(s_10454_jpg, building).
holds(s_10454_jpg, feature).
holds(s_10454_jpg, sign).
holds(s_10454_jpg, table).
holds(s_10454_jpg, tiledrooftop).
holds(s_10454_jpg, vendingmachine).
holds(s_10454_jpg, statue).
holds(s_10454_jpg, pipe).
holds(s_10454_jpg, machine).

sample(s_2273_jpg).
holds(s_2273_jpg, building).
holds(s_2273_jpg, feature).
holds(s_2273_jpg, sign).
holds(s_2273_jpg, table).
holds(s_2273_jpg, tiledrooftop).
holds(s_2273_jpg, vendingmachine).
holds(s_2273_jpg, statue).
holds(s_2273_jpg, pipe).
holds(s_2273_jpg, machine).

sample(s_9500_jpg).
holds(s_9500_jpg, building).
holds(s_9500_jpg, feature).
holds(s_9500_jpg, sign).
holds(s_9500_jpg, table).
holds(s_9500_jpg, tiledrooftop).
holds(s_9500_jpg, vendingmachine).
holds(s_9500_jpg, statue).
holds(s_9500_jpg, pipe).

sample(s_14477_jpg).
holds(s_14477_jpg, building).
holds(s_14477_jpg, feature).
holds(s_14477_jpg, sign).
holds(s_14477_jpg, table).
holds(s_14477_jpg, tiledrooftop).
holds(s_14477_jpg, vendingmachine).
holds(s_14477_jpg, statue).
holds(s_14477_jpg, pipe).

sample(s_2942_jpg).
holds(s_2942_jpg, building).
holds(s_2942_jpg, feature).
holds(s_2942_jpg, sign).
holds(s_2942_jpg, table).
holds(s_2942_jpg, tiledrooftop).
holds(s_2942_jpg, vendingmachine).
holds(s_2942_jpg, statue).
holds(s_2942_jpg, pipe).
holds(s_2942_jpg, machine).

sample(s_14904_jpg).
holds(s_14904_jpg, building).
holds(s_14904_jpg, feature).
holds(s_14904_jpg, hotel).
holds(s_14904_jpg, billboard).
holds(s_14904_jpg, porch).
holds(s_14904_jpg, sign).
holds(s_14904_jpg, table).
holds(s_14904_jpg, tiledroof).
holds(s_14904_jpg, tiledrooftop).
holds(s_14904_jpg, vendingmachine).
holds(s_14904_jpg, wallsign).
holds(s_14904_jpg, chimney).
holds(s_14904_jpg, pipe).
holds(s_14904_jpg, machine).
holds(s_14904_jpg, car).
holds(s_14904_jpg, commercial).

sample(s_12808_jpg).
holds(s_12808_jpg, building).
holds(s_12808_jpg, feature).
holds(s_12808_jpg, watertreatment).
holds(s_12808_jpg, porch).
holds(s_12808_jpg, sign).
holds(s_12808_jpg, table).
holds(s_12808_jpg, tiledroof).
holds(s_12808_jpg, vendingmachine).
holds(s_12808_jpg, statue).
holds(s_12808_jpg, pipe).
holds(s_12808_jpg, industrial).

sample(s_2426_jpg).
holds(s_2426_jpg, building).
holds(s_2426_jpg, feature).
holds(s_2426_jpg, sign).
holds(s_2426_jpg, table).
holds(s_2426_jpg, tiledrooftop).
holds(s_2426_jpg, vendingmachine).
holds(s_2426_jpg, statue).
holds(s_2426_jpg, pipe).
holds(s_2426_jpg, machine).

sample(s_1901_jpg).
holds(s_1901_jpg, building).
holds(s_1901_jpg, feature).
holds(s_1901_jpg, sign).
holds(s_1901_jpg, table).
holds(s_1901_jpg, tiledrooftop).
holds(s_1901_jpg, vendingmachine).
holds(s_1901_jpg, statue).
holds(s_1901_jpg, pipe).
holds(s_1901_jpg, machine).

sample(s_15168_jpg).
holds(s_15168_jpg, building).
holds(s_15168_jpg, feature).
holds(s_15168_jpg, hotel).
holds(s_15168_jpg, door).
holds(s_15168_jpg, billboard).
holds(s_15168_jpg, porch).
holds(s_15168_jpg, sign).
holds(s_15168_jpg, tiledroof).
holds(s_15168_jpg, tiledrooftop).
holds(s_15168_jpg, wallsign).
holds(s_15168_jpg, chimney).
holds(s_15168_jpg, pipe).
holds(s_15168_jpg, car).
holds(s_15168_jpg, commercial).

sample(s_7093_jpg).
holds(s_7093_jpg, building).
holds(s_7093_jpg, feature).
holds(s_7093_jpg, watertreatment).
holds(s_7093_jpg, door).
holds(s_7093_jpg, billboard).
holds(s_7093_jpg, porch).
holds(s_7093_jpg, sign).
holds(s_7093_jpg, tiledroof).
holds(s_7093_jpg, tiledrooftop).
holds(s_7093_jpg, wallsign).
holds(s_7093_jpg, industrial).

sample(s_13706_jpg).
holds(s_13706_jpg, building).
holds(s_13706_jpg, feature).
holds(s_13706_jpg, billboard).
holds(s_13706_jpg, sign).
holds(s_13706_jpg, table).
holds(s_13706_jpg, tiledrooftop).
holds(s_13706_jpg, vendingmachine).
holds(s_13706_jpg, statue).
holds(s_13706_jpg, pipe).
holds(s_13706_jpg, machine).

sample(s_836_jpg).
holds(s_836_jpg, building).
holds(s_836_jpg, feature).
holds(s_836_jpg, porch).
holds(s_836_jpg, sign).
holds(s_836_jpg, table).
holds(s_836_jpg, tiledrooftop).
holds(s_836_jpg, vendingmachine).
holds(s_836_jpg, statue).
holds(s_836_jpg, pipe).
holds(s_836_jpg, machine).

sample(s_5784_jpg).
holds(s_5784_jpg, building).
holds(s_5784_jpg, feature).
holds(s_5784_jpg, hotel).
holds(s_5784_jpg, billboard).
holds(s_5784_jpg, porch).
holds(s_5784_jpg, sign).
holds(s_5784_jpg, table).
holds(s_5784_jpg, tiledroof).
holds(s_5784_jpg, tiledrooftop).
holds(s_5784_jpg, vendingmachine).
holds(s_5784_jpg, wallsign).
holds(s_5784_jpg, chimney).
holds(s_5784_jpg, pipe).
holds(s_5784_jpg, car).
holds(s_5784_jpg, commercial).

sample(s_4755_jpg).
holds(s_4755_jpg, building).
holds(s_4755_jpg, feature).
holds(s_4755_jpg, hotel).
holds(s_4755_jpg, billboard).
holds(s_4755_jpg, sign).
holds(s_4755_jpg, table).
holds(s_4755_jpg, tiledroof).
holds(s_4755_jpg, tiledrooftop).
holds(s_4755_jpg, vendingmachine).
holds(s_4755_jpg, wallsign).
holds(s_4755_jpg, chimney).
holds(s_4755_jpg, pipe).
holds(s_4755_jpg, machine).
holds(s_4755_jpg, car).
holds(s_4755_jpg, commercial).

sample(s_6846_jpg).
holds(s_6846_jpg, building).
holds(s_6846_jpg, feature).
holds(s_6846_jpg, hotel).
holds(s_6846_jpg, door).
holds(s_6846_jpg, billboard).
holds(s_6846_jpg, sign).
holds(s_6846_jpg, tiledroof).
holds(s_6846_jpg, tiledrooftop).
holds(s_6846_jpg, wallsign).
holds(s_6846_jpg, chimney).
holds(s_6846_jpg, pipe).
holds(s_6846_jpg, car).
holds(s_6846_jpg, commercial).

sample(s_9626_jpg).
holds(s_9626_jpg, building).
holds(s_9626_jpg, feature).
holds(s_9626_jpg, porch).
holds(s_9626_jpg, sign).
holds(s_9626_jpg, table).
holds(s_9626_jpg, tiledrooftop).
holds(s_9626_jpg, vendingmachine).
holds(s_9626_jpg, statue).
holds(s_9626_jpg, pipe).

sample(s_14265_jpg).
holds(s_14265_jpg, building).
holds(s_14265_jpg, feature).
holds(s_14265_jpg, hotel).
holds(s_14265_jpg, door).
holds(s_14265_jpg, billboard).
holds(s_14265_jpg, porch).
holds(s_14265_jpg, sign).
holds(s_14265_jpg, tiledroof).
holds(s_14265_jpg, tiledrooftop).
holds(s_14265_jpg, wallsign).
holds(s_14265_jpg, chimney).
holds(s_14265_jpg, pipe).
holds(s_14265_jpg, car).
holds(s_14265_jpg, commercial).

sample(s_14225_jpg).
holds(s_14225_jpg, building).
holds(s_14225_jpg, feature).
holds(s_14225_jpg, window).
holds(s_14225_jpg, porch).
holds(s_14225_jpg, sign).
holds(s_14225_jpg, table).
holds(s_14225_jpg, tiledrooftop).
holds(s_14225_jpg, vendingmachine).
holds(s_14225_jpg, statue).
holds(s_14225_jpg, pipe).

sample(s_4154_jpg).
holds(s_4154_jpg, building).
holds(s_4154_jpg, feature).
holds(s_4154_jpg, window).
holds(s_4154_jpg, porch).
holds(s_4154_jpg, sign).
holds(s_4154_jpg, table).
holds(s_4154_jpg, tiledrooftop).
holds(s_4154_jpg, vendingmachine).
holds(s_4154_jpg, statue).
holds(s_4154_jpg, pipe).

sample(s_3947_jpg).
holds(s_3947_jpg, building).
holds(s_3947_jpg, feature).
holds(s_3947_jpg, window).
holds(s_3947_jpg, porch).
holds(s_3947_jpg, sign).
holds(s_3947_jpg, table).
holds(s_3947_jpg, tiledrooftop).
holds(s_3947_jpg, vendingmachine).
holds(s_3947_jpg, statue).
holds(s_3947_jpg, pipe).

sample(s_126_jpg).
holds(s_126_jpg, building).
holds(s_126_jpg, feature).
holds(s_126_jpg, hotel).
holds(s_126_jpg, billboard).
holds(s_126_jpg, sign).
holds(s_126_jpg, table).
holds(s_126_jpg, tiledroof).
holds(s_126_jpg, tiledrooftop).
holds(s_126_jpg, vendingmachine).
holds(s_126_jpg, chimney).
holds(s_126_jpg, pipe).
holds(s_126_jpg, machine).
holds(s_126_jpg, car).
holds(s_126_jpg, commercial).

sample(s_1414_jpg).
holds(s_1414_jpg, building).
holds(s_1414_jpg, feature).
holds(s_1414_jpg, watertreatment).
holds(s_1414_jpg, door).
holds(s_1414_jpg, billboard).
holds(s_1414_jpg, porch).
holds(s_1414_jpg, sign).
holds(s_1414_jpg, tiledroof).
holds(s_1414_jpg, wallsign).
holds(s_1414_jpg, industrial).

sample(s_11153_jpg).
holds(s_11153_jpg, building).
holds(s_11153_jpg, feature).
holds(s_11153_jpg, sign).
holds(s_11153_jpg, table).
holds(s_11153_jpg, tiledrooftop).
holds(s_11153_jpg, vendingmachine).
holds(s_11153_jpg, statue).
holds(s_11153_jpg, pipe).

sample(s_8116_jpg).
holds(s_8116_jpg, building).
holds(s_8116_jpg, feature).
holds(s_8116_jpg, watertreatment).
holds(s_8116_jpg, door).
holds(s_8116_jpg, billboard).
holds(s_8116_jpg, porch).
holds(s_8116_jpg, sign).
holds(s_8116_jpg, tiledroof).
holds(s_8116_jpg, tiledrooftop).
holds(s_8116_jpg, wallsign).
holds(s_8116_jpg, pipe).
holds(s_8116_jpg, industrial).

sample(s_275_jpg).
holds(s_275_jpg, building).
holds(s_275_jpg, feature).
holds(s_275_jpg, sign).
holds(s_275_jpg, table).
holds(s_275_jpg, tiledrooftop).
holds(s_275_jpg, vendingmachine).
holds(s_275_jpg, statue).
holds(s_275_jpg, pipe).
holds(s_275_jpg, machine).

sample(s_15007_jpg).
holds(s_15007_jpg, building).
holds(s_15007_jpg, feature).
holds(s_15007_jpg, watertreatment).
holds(s_15007_jpg, door).
holds(s_15007_jpg, billboard).
holds(s_15007_jpg, porch).
holds(s_15007_jpg, sign).
holds(s_15007_jpg, tiledroof).
holds(s_15007_jpg, wallsign).
holds(s_15007_jpg, industrial).

sample(s_9338_jpg).
holds(s_9338_jpg, building).
holds(s_9338_jpg, feature).
holds(s_9338_jpg, sign).
holds(s_9338_jpg, table).
holds(s_9338_jpg, tiledrooftop).
holds(s_9338_jpg, vendingmachine).
holds(s_9338_jpg, statue).
holds(s_9338_jpg, pipe).
holds(s_9338_jpg, machine).

sample(s_6474_jpg).
holds(s_6474_jpg, building).
holds(s_6474_jpg, feature).
holds(s_6474_jpg, hotel).
holds(s_6474_jpg, door).
holds(s_6474_jpg, billboard).
holds(s_6474_jpg, porch).
holds(s_6474_jpg, sign).
holds(s_6474_jpg, tiledroof).
holds(s_6474_jpg, tiledrooftop).
holds(s_6474_jpg, wallsign).
holds(s_6474_jpg, chimney).
holds(s_6474_jpg, pipe).
holds(s_6474_jpg, car).
holds(s_6474_jpg, commercial).

sample(s_14837_jpg).
holds(s_14837_jpg, building).
holds(s_14837_jpg, feature).
holds(s_14837_jpg, sign).
holds(s_14837_jpg, table).
holds(s_14837_jpg, tiledrooftop).
holds(s_14837_jpg, vendingmachine).
holds(s_14837_jpg, statue).
holds(s_14837_jpg, pipe).
holds(s_14837_jpg, machine).

sample(s_9842_jpg).
holds(s_9842_jpg, building).
holds(s_9842_jpg, feature).
holds(s_9842_jpg, porch).
holds(s_9842_jpg, sign).
holds(s_9842_jpg, table).
holds(s_9842_jpg, tiledrooftop).
holds(s_9842_jpg, vendingmachine).
holds(s_9842_jpg, statue).
holds(s_9842_jpg, pipe).

sample(s_5677_jpg).
holds(s_5677_jpg, building).
holds(s_5677_jpg, feature).
holds(s_5677_jpg, watertreatment).
holds(s_5677_jpg, door).
holds(s_5677_jpg, billboard).
holds(s_5677_jpg, porch).
holds(s_5677_jpg, sign).
holds(s_5677_jpg, tiledroof).
holds(s_5677_jpg, tiledrooftop).
holds(s_5677_jpg, wallsign).
holds(s_5677_jpg, pipe).
holds(s_5677_jpg, industrial).

sample(s_8247_jpg).
holds(s_8247_jpg, building).
holds(s_8247_jpg, feature).
holds(s_8247_jpg, hotel).
holds(s_8247_jpg, billboard).
holds(s_8247_jpg, sign).
holds(s_8247_jpg, tiledroof).
holds(s_8247_jpg, tiledrooftop).
holds(s_8247_jpg, wallsign).
holds(s_8247_jpg, chimney).
holds(s_8247_jpg, pipe).
holds(s_8247_jpg, machine).
holds(s_8247_jpg, car).
holds(s_8247_jpg, commercial).

sample(s_11752_jpg).
holds(s_11752_jpg, building).
holds(s_11752_jpg, feature).
holds(s_11752_jpg, watertreatment).
holds(s_11752_jpg, door).
holds(s_11752_jpg, billboard).
holds(s_11752_jpg, porch).
holds(s_11752_jpg, sign).
holds(s_11752_jpg, tiledroof).
holds(s_11752_jpg, tiledrooftop).
holds(s_11752_jpg, wallsign).
holds(s_11752_jpg, industrial).

sample(s_8242_jpg).
holds(s_8242_jpg, building).
holds(s_8242_jpg, feature).
holds(s_8242_jpg, watertreatment).
holds(s_8242_jpg, door).
holds(s_8242_jpg, billboard).
holds(s_8242_jpg, porch).
holds(s_8242_jpg, sign).
holds(s_8242_jpg, tiledroof).
holds(s_8242_jpg, wallsign).
holds(s_8242_jpg, industrial).

sample(s_7614_jpg).
holds(s_7614_jpg, building).
holds(s_7614_jpg, feature).
holds(s_7614_jpg, hotel).
holds(s_7614_jpg, door).
holds(s_7614_jpg, billboard).
holds(s_7614_jpg, porch).
holds(s_7614_jpg, sign).
holds(s_7614_jpg, tiledroof).
holds(s_7614_jpg, tiledrooftop).
holds(s_7614_jpg, wallsign).
holds(s_7614_jpg, chimney).
holds(s_7614_jpg, pipe).
holds(s_7614_jpg, car).
holds(s_7614_jpg, commercial).

sample(s_12733_jpg).
holds(s_12733_jpg, building).
holds(s_12733_jpg, feature).
holds(s_12733_jpg, watertreatment).
holds(s_12733_jpg, door).
holds(s_12733_jpg, billboard).
holds(s_12733_jpg, porch).
holds(s_12733_jpg, sign).
holds(s_12733_jpg, tiledroof).
holds(s_12733_jpg, wallsign).
holds(s_12733_jpg, chimney).
holds(s_12733_jpg, pipe).
holds(s_12733_jpg, industrial).

sample(s_8725_jpg).
holds(s_8725_jpg, building).
holds(s_8725_jpg, feature).
holds(s_8725_jpg, watertreatment).
holds(s_8725_jpg, door).
holds(s_8725_jpg, billboard).
holds(s_8725_jpg, porch).
holds(s_8725_jpg, sign).
holds(s_8725_jpg, tiledroof).
holds(s_8725_jpg, tiledrooftop).
holds(s_8725_jpg, wallsign).
holds(s_8725_jpg, pipe).
holds(s_8725_jpg, industrial).

sample(s_5075_jpg).
holds(s_5075_jpg, building).
holds(s_5075_jpg, feature).
holds(s_5075_jpg, window).
holds(s_5075_jpg, porch).
holds(s_5075_jpg, sign).
holds(s_5075_jpg, table).
holds(s_5075_jpg, tiledrooftop).
holds(s_5075_jpg, vendingmachine).
holds(s_5075_jpg, statue).
holds(s_5075_jpg, pipe).

sample(s_15712_jpg).
holds(s_15712_jpg, building).
holds(s_15712_jpg, feature).
holds(s_15712_jpg, watertreatment).
holds(s_15712_jpg, door).
holds(s_15712_jpg, billboard).
holds(s_15712_jpg, porch).
holds(s_15712_jpg, sign).
holds(s_15712_jpg, tiledroof).
holds(s_15712_jpg, tiledrooftop).
holds(s_15712_jpg, wallsign).
holds(s_15712_jpg, industrial).

sample(s_11548_jpg).
holds(s_11548_jpg, building).
holds(s_11548_jpg, feature).
holds(s_11548_jpg, hotel).
holds(s_11548_jpg, billboard).
holds(s_11548_jpg, sign).
holds(s_11548_jpg, tiledroof).
holds(s_11548_jpg, tiledrooftop).
holds(s_11548_jpg, chimney).
holds(s_11548_jpg, pipe).
holds(s_11548_jpg, commercial).

sample(s_68_jpg).
holds(s_68_jpg, building).
holds(s_68_jpg, feature).
holds(s_68_jpg, window).
holds(s_68_jpg, porch).
holds(s_68_jpg, sign).
holds(s_68_jpg, table).
holds(s_68_jpg, tiledrooftop).
holds(s_68_jpg, vendingmachine).
holds(s_68_jpg, statue).
holds(s_68_jpg, pipe).

sample(s_1169_jpg).
holds(s_1169_jpg, building).
holds(s_1169_jpg, feature).
holds(s_1169_jpg, porch).
holds(s_1169_jpg, sign).
holds(s_1169_jpg, table).
holds(s_1169_jpg, tiledrooftop).
holds(s_1169_jpg, vendingmachine).
holds(s_1169_jpg, statue).
holds(s_1169_jpg, pipe).
holds(s_1169_jpg, machine).

sample(s_14685_jpg).
holds(s_14685_jpg, building).
holds(s_14685_jpg, feature).
holds(s_14685_jpg, hotel).
holds(s_14685_jpg, billboard).
holds(s_14685_jpg, porch).
holds(s_14685_jpg, sign).
holds(s_14685_jpg, table).
holds(s_14685_jpg, tiledroof).
holds(s_14685_jpg, tiledrooftop).
holds(s_14685_jpg, vendingmachine).
holds(s_14685_jpg, wallsign).
holds(s_14685_jpg, statue).
holds(s_14685_jpg, chimney).
holds(s_14685_jpg, pipe).
holds(s_14685_jpg, machine).
holds(s_14685_jpg, car).
holds(s_14685_jpg, commercial).

sample(s_11602_jpg).
holds(s_11602_jpg, building).
holds(s_11602_jpg, feature).
holds(s_11602_jpg, watertreatment).
holds(s_11602_jpg, door).
holds(s_11602_jpg, billboard).
holds(s_11602_jpg, porch).
holds(s_11602_jpg, sign).
holds(s_11602_jpg, tiledroof).
holds(s_11602_jpg, wallsign).
holds(s_11602_jpg, pipe).
holds(s_11602_jpg, industrial).

sample(s_11282_jpg).
holds(s_11282_jpg, building).
holds(s_11282_jpg, feature).
holds(s_11282_jpg, sign).
holds(s_11282_jpg, table).
holds(s_11282_jpg, tiledrooftop).
holds(s_11282_jpg, vendingmachine).
holds(s_11282_jpg, statue).
holds(s_11282_jpg, pipe).

sample(s_15563_jpg).
holds(s_15563_jpg, building).
holds(s_15563_jpg, feature).
holds(s_15563_jpg, porch).
holds(s_15563_jpg, sign).
holds(s_15563_jpg, table).
holds(s_15563_jpg, tiledrooftop).
holds(s_15563_jpg, vendingmachine).
holds(s_15563_jpg, statue).
holds(s_15563_jpg, pipe).

sample(s_13592_jpg).
holds(s_13592_jpg, building).
holds(s_13592_jpg, feature).
holds(s_13592_jpg, sign).
holds(s_13592_jpg, table).
holds(s_13592_jpg, tiledrooftop).
holds(s_13592_jpg, vendingmachine).
holds(s_13592_jpg, statue).
holds(s_13592_jpg, pipe).

sample(s_8990_jpg).
holds(s_8990_jpg, building).
holds(s_8990_jpg, feature).
holds(s_8990_jpg, sign).
holds(s_8990_jpg, table).
holds(s_8990_jpg, tiledrooftop).
holds(s_8990_jpg, vendingmachine).
holds(s_8990_jpg, statue).
holds(s_8990_jpg, pipe).
holds(s_8990_jpg, machine).

sample(s_324_jpg).
holds(s_324_jpg, building).
holds(s_324_jpg, feature).
holds(s_324_jpg, hotel).
holds(s_324_jpg, door).
holds(s_324_jpg, billboard).
holds(s_324_jpg, porch).
holds(s_324_jpg, sign).
holds(s_324_jpg, tiledroof).
holds(s_324_jpg, tiledrooftop).
holds(s_324_jpg, wallsign).
holds(s_324_jpg, chimney).
holds(s_324_jpg, pipe).
holds(s_324_jpg, car).
holds(s_324_jpg, commercial).

sample(s_2623_jpg).
holds(s_2623_jpg, building).
holds(s_2623_jpg, feature).
holds(s_2623_jpg, watertreatment).
holds(s_2623_jpg, door).
holds(s_2623_jpg, billboard).
holds(s_2623_jpg, porch).
holds(s_2623_jpg, sign).
holds(s_2623_jpg, tiledroof).
holds(s_2623_jpg, wallsign).
holds(s_2623_jpg, pipe).
holds(s_2623_jpg, industrial).

sample(s_12881_jpg).
holds(s_12881_jpg, building).
holds(s_12881_jpg, feature).
holds(s_12881_jpg, sign).
holds(s_12881_jpg, table).
holds(s_12881_jpg, tiledrooftop).
holds(s_12881_jpg, vendingmachine).
holds(s_12881_jpg, statue).
holds(s_12881_jpg, pipe).

sample(s_11570_jpg).
holds(s_11570_jpg, building).
holds(s_11570_jpg, feature).
holds(s_11570_jpg, sign).
holds(s_11570_jpg, table).
holds(s_11570_jpg, tiledrooftop).
holds(s_11570_jpg, vendingmachine).
holds(s_11570_jpg, statue).
holds(s_11570_jpg, pipe).

sample(s_7236_jpg).
holds(s_7236_jpg, building).
holds(s_7236_jpg, feature).
holds(s_7236_jpg, hotel).
holds(s_7236_jpg, billboard).
holds(s_7236_jpg, porch).
holds(s_7236_jpg, sign).
holds(s_7236_jpg, table).
holds(s_7236_jpg, tiledroof).
holds(s_7236_jpg, tiledrooftop).
holds(s_7236_jpg, vendingmachine).
holds(s_7236_jpg, wallsign).
holds(s_7236_jpg, chimney).
holds(s_7236_jpg, pipe).
holds(s_7236_jpg, machine).
holds(s_7236_jpg, car).
holds(s_7236_jpg, commercial).

sample(s_3041_jpg).
holds(s_3041_jpg, building).
holds(s_3041_jpg, feature).
holds(s_3041_jpg, porch).
holds(s_3041_jpg, sign).
holds(s_3041_jpg, table).
holds(s_3041_jpg, tiledrooftop).
holds(s_3041_jpg, vendingmachine).
holds(s_3041_jpg, statue).

sample(s_10118_jpg).
holds(s_10118_jpg, building).
holds(s_10118_jpg, feature).
holds(s_10118_jpg, billboard).
holds(s_10118_jpg, sign).
holds(s_10118_jpg, table).
holds(s_10118_jpg, tiledrooftop).
holds(s_10118_jpg, vendingmachine).
holds(s_10118_jpg, statue).
holds(s_10118_jpg, pipe).
holds(s_10118_jpg, machine).

sample(s_3818_jpg).
holds(s_3818_jpg, building).
holds(s_3818_jpg, feature).
holds(s_3818_jpg, sign).
holds(s_3818_jpg, table).
holds(s_3818_jpg, tiledrooftop).
holds(s_3818_jpg, vendingmachine).
holds(s_3818_jpg, statue).
holds(s_3818_jpg, pipe).

sample(s_1775_jpg).
holds(s_1775_jpg, building).
holds(s_1775_jpg, feature).
holds(s_1775_jpg, sign).
holds(s_1775_jpg, table).
holds(s_1775_jpg, tiledrooftop).
holds(s_1775_jpg, vendingmachine).
holds(s_1775_jpg, statue).
holds(s_1775_jpg, pipe).

sample(s_13182_jpg).
holds(s_13182_jpg, building).
holds(s_13182_jpg, feature).
holds(s_13182_jpg, hotel).
holds(s_13182_jpg, door).
holds(s_13182_jpg, billboard).
holds(s_13182_jpg, sign).
holds(s_13182_jpg, tiledroof).
holds(s_13182_jpg, tiledrooftop).
holds(s_13182_jpg, wallsign).
holds(s_13182_jpg, chimney).
holds(s_13182_jpg, pipe).
holds(s_13182_jpg, car).
holds(s_13182_jpg, commercial).

sample(s_14629_jpg).
holds(s_14629_jpg, building).
holds(s_14629_jpg, feature).
holds(s_14629_jpg, watertreatment).
holds(s_14629_jpg, door).
holds(s_14629_jpg, billboard).
holds(s_14629_jpg, porch).
holds(s_14629_jpg, sign).
holds(s_14629_jpg, tiledroof).
holds(s_14629_jpg, wallsign).
holds(s_14629_jpg, industrial).

sample(s_3689_jpg).
holds(s_3689_jpg, building).
holds(s_3689_jpg, feature).
holds(s_3689_jpg, window).
holds(s_3689_jpg, porch).
holds(s_3689_jpg, sign).
holds(s_3689_jpg, table).
holds(s_3689_jpg, tiledrooftop).
holds(s_3689_jpg, vendingmachine).
holds(s_3689_jpg, statue).
holds(s_3689_jpg, pipe).

sample(s_3131_jpg).
holds(s_3131_jpg, building).
holds(s_3131_jpg, feature).
holds(s_3131_jpg, sign).
holds(s_3131_jpg, table).
holds(s_3131_jpg, tiledrooftop).
holds(s_3131_jpg, vendingmachine).
holds(s_3131_jpg, statue).
holds(s_3131_jpg, pipe).

sample(s_5407_jpg).
holds(s_5407_jpg, building).
holds(s_5407_jpg, feature).
holds(s_5407_jpg, watertreatment).
holds(s_5407_jpg, door).
holds(s_5407_jpg, billboard).
holds(s_5407_jpg, porch).
holds(s_5407_jpg, sign).
holds(s_5407_jpg, tiledroof).
holds(s_5407_jpg, wallsign).
holds(s_5407_jpg, pipe).
holds(s_5407_jpg, industrial).

sample(s_6688_jpg).
holds(s_6688_jpg, building).
holds(s_6688_jpg, feature).
holds(s_6688_jpg, watertreatment).
holds(s_6688_jpg, door).
holds(s_6688_jpg, billboard).
holds(s_6688_jpg, porch).
holds(s_6688_jpg, sign).
holds(s_6688_jpg, tiledroof).
holds(s_6688_jpg, tiledrooftop).
holds(s_6688_jpg, wallsign).
holds(s_6688_jpg, industrial).

sample(s_10239_jpg).
holds(s_10239_jpg, building).
holds(s_10239_jpg, feature).
holds(s_10239_jpg, hotel).
holds(s_10239_jpg, billboard).
holds(s_10239_jpg, sign).
holds(s_10239_jpg, table).
holds(s_10239_jpg, tiledroof).
holds(s_10239_jpg, tiledrooftop).
holds(s_10239_jpg, vendingmachine).
holds(s_10239_jpg, statue).
holds(s_10239_jpg, pipe).
holds(s_10239_jpg, commercial).

sample(s_9105_jpg).
holds(s_9105_jpg, building).
holds(s_9105_jpg, feature).
holds(s_9105_jpg, hotel).
holds(s_9105_jpg, door).
holds(s_9105_jpg, billboard).
holds(s_9105_jpg, porch).
holds(s_9105_jpg, sign).
holds(s_9105_jpg, tiledroof).
holds(s_9105_jpg, tiledrooftop).
holds(s_9105_jpg, vendingmachine).
holds(s_9105_jpg, wallsign).
holds(s_9105_jpg, chimney).
holds(s_9105_jpg, pipe).
holds(s_9105_jpg, car).
holds(s_9105_jpg, commercial).

sample(s_13267_jpg).
holds(s_13267_jpg, building).
holds(s_13267_jpg, feature).
holds(s_13267_jpg, watertreatment).
holds(s_13267_jpg, door).
holds(s_13267_jpg, billboard).
holds(s_13267_jpg, porch).
holds(s_13267_jpg, sign).
holds(s_13267_jpg, tiledroof).
holds(s_13267_jpg, tiledrooftop).
holds(s_13267_jpg, wallsign).
holds(s_13267_jpg, pipe).
holds(s_13267_jpg, industrial).

sample(s_12028_jpg).
holds(s_12028_jpg, building).
holds(s_12028_jpg, feature).
holds(s_12028_jpg, watertreatment).
holds(s_12028_jpg, door).
holds(s_12028_jpg, billboard).
holds(s_12028_jpg, porch).
holds(s_12028_jpg, sign).
holds(s_12028_jpg, tiledroof).
holds(s_12028_jpg, tiledrooftop).
holds(s_12028_jpg, wallsign).
holds(s_12028_jpg, chimney).
holds(s_12028_jpg, pipe).
holds(s_12028_jpg, industrial).

sample(s_6368_jpg).
holds(s_6368_jpg, building).
holds(s_6368_jpg, feature).
holds(s_6368_jpg, window).
holds(s_6368_jpg, porch).
holds(s_6368_jpg, sign).
holds(s_6368_jpg, table).
holds(s_6368_jpg, tiledrooftop).
holds(s_6368_jpg, vendingmachine).
holds(s_6368_jpg, statue).
holds(s_6368_jpg, pipe).

sample(s_12167_jpg).
holds(s_12167_jpg, building).
holds(s_12167_jpg, feature).
holds(s_12167_jpg, sign).
holds(s_12167_jpg, table).
holds(s_12167_jpg, tiledrooftop).
holds(s_12167_jpg, vendingmachine).
holds(s_12167_jpg, statue).
holds(s_12167_jpg, pipe).
holds(s_12167_jpg, machine).

sample(s_1632_jpg).
holds(s_1632_jpg, building).
holds(s_1632_jpg, feature).
holds(s_1632_jpg, hotel).
holds(s_1632_jpg, door).
holds(s_1632_jpg, billboard).
holds(s_1632_jpg, sign).
holds(s_1632_jpg, tiledroof).
holds(s_1632_jpg, tiledrooftop).
holds(s_1632_jpg, wallsign).
holds(s_1632_jpg, chimney).
holds(s_1632_jpg, pipe).
holds(s_1632_jpg, car).
holds(s_1632_jpg, commercial).

sample(s_12992_jpg).
holds(s_12992_jpg, building).
holds(s_12992_jpg, feature).
holds(s_12992_jpg, sign).
holds(s_12992_jpg, table).
holds(s_12992_jpg, tiledrooftop).
holds(s_12992_jpg, vendingmachine).
holds(s_12992_jpg, statue).
holds(s_12992_jpg, pipe).

sample(s_6993_jpg).
holds(s_6993_jpg, building).
holds(s_6993_jpg, feature).
holds(s_6993_jpg, hotel).
holds(s_6993_jpg, door).
holds(s_6993_jpg, billboard).
holds(s_6993_jpg, porch).
holds(s_6993_jpg, sign).
holds(s_6993_jpg, tiledroof).
holds(s_6993_jpg, tiledrooftop).
holds(s_6993_jpg, wallsign).
holds(s_6993_jpg, chimney).
holds(s_6993_jpg, pipe).
holds(s_6993_jpg, car).
holds(s_6993_jpg, commercial).

sample(s_3538_jpg).
holds(s_3538_jpg, building).
holds(s_3538_jpg, feature).
holds(s_3538_jpg, watertreatment).
holds(s_3538_jpg, window).
holds(s_3538_jpg, porch).
holds(s_3538_jpg, sign).
holds(s_3538_jpg, table).
holds(s_3538_jpg, tiledroof).
holds(s_3538_jpg, vendingmachine).
holds(s_3538_jpg, statue).
holds(s_3538_jpg, pipe).
holds(s_3538_jpg, industrial).

sample(s_14296_jpg).
holds(s_14296_jpg, building).
holds(s_14296_jpg, feature).
holds(s_14296_jpg, watertreatment).
holds(s_14296_jpg, door).
holds(s_14296_jpg, billboard).
holds(s_14296_jpg, sign).
holds(s_14296_jpg, tiledroof).
holds(s_14296_jpg, tiledrooftop).
holds(s_14296_jpg, wallsign).
holds(s_14296_jpg, pipe).
holds(s_14296_jpg, industrial).

sample(s_10917_jpg).
holds(s_10917_jpg, building).
holds(s_10917_jpg, feature).
holds(s_10917_jpg, hotel).
holds(s_10917_jpg, door).
holds(s_10917_jpg, billboard).
holds(s_10917_jpg, porch).
holds(s_10917_jpg, sign).
holds(s_10917_jpg, tiledroof).
holds(s_10917_jpg, tiledrooftop).
holds(s_10917_jpg, wallsign).
holds(s_10917_jpg, chimney).
holds(s_10917_jpg, pipe).
holds(s_10917_jpg, car).
holds(s_10917_jpg, commercial).

sample(s_7372_jpg).
holds(s_7372_jpg, building).
holds(s_7372_jpg, feature).
holds(s_7372_jpg, watertreatment).
holds(s_7372_jpg, door).
holds(s_7372_jpg, billboard).
holds(s_7372_jpg, porch).
holds(s_7372_jpg, sign).
holds(s_7372_jpg, tiledroof).
holds(s_7372_jpg, wallsign).
holds(s_7372_jpg, industrial).

sample(s_5663_jpg).
holds(s_5663_jpg, building).
holds(s_5663_jpg, feature).
holds(s_5663_jpg, sign).
holds(s_5663_jpg, table).
holds(s_5663_jpg, tiledrooftop).
holds(s_5663_jpg, vendingmachine).
holds(s_5663_jpg, statue).
holds(s_5663_jpg, pipe).

sample(s_10146_jpg).
holds(s_10146_jpg, building).
holds(s_10146_jpg, feature).
holds(s_10146_jpg, hotel).
holds(s_10146_jpg, door).
holds(s_10146_jpg, billboard).
holds(s_10146_jpg, porch).
holds(s_10146_jpg, sign).
holds(s_10146_jpg, tiledroof).
holds(s_10146_jpg, tiledrooftop).
holds(s_10146_jpg, vendingmachine).
holds(s_10146_jpg, wallsign).
holds(s_10146_jpg, chimney).
holds(s_10146_jpg, pipe).
holds(s_10146_jpg, machine).
holds(s_10146_jpg, car).
holds(s_10146_jpg, commercial).

sample(s_6632_jpg).
holds(s_6632_jpg, building).
holds(s_6632_jpg, feature).
holds(s_6632_jpg, sign).
holds(s_6632_jpg, table).
holds(s_6632_jpg, tiledrooftop).
holds(s_6632_jpg, vendingmachine).
holds(s_6632_jpg, statue).
holds(s_6632_jpg, pipe).
holds(s_6632_jpg, machine).

sample(s_5188_jpg).
holds(s_5188_jpg, building).
holds(s_5188_jpg, feature).
holds(s_5188_jpg, watertreatment).
holds(s_5188_jpg, door).
holds(s_5188_jpg, billboard).
holds(s_5188_jpg, porch).
holds(s_5188_jpg, sign).
holds(s_5188_jpg, tiledroof).
holds(s_5188_jpg, tiledrooftop).
holds(s_5188_jpg, wallsign).
holds(s_5188_jpg, pipe).
holds(s_5188_jpg, industrial).

sample(s_1500_jpg).
holds(s_1500_jpg, building).
holds(s_1500_jpg, feature).
holds(s_1500_jpg, hotel).
holds(s_1500_jpg, door).
holds(s_1500_jpg, billboard).
holds(s_1500_jpg, porch).
holds(s_1500_jpg, sign).
holds(s_1500_jpg, tiledroof).
holds(s_1500_jpg, tiledrooftop).
holds(s_1500_jpg, vendingmachine).
holds(s_1500_jpg, wallsign).
holds(s_1500_jpg, chimney).
holds(s_1500_jpg, pipe).
holds(s_1500_jpg, car).
holds(s_1500_jpg, commercial).

sample(s_9523_jpg).
holds(s_9523_jpg, building).
holds(s_9523_jpg, feature).
holds(s_9523_jpg, watertreatment).
holds(s_9523_jpg, door).
holds(s_9523_jpg, billboard).
holds(s_9523_jpg, sign).
holds(s_9523_jpg, tiledroof).
holds(s_9523_jpg, tiledrooftop).
holds(s_9523_jpg, wallsign).
holds(s_9523_jpg, pipe).
holds(s_9523_jpg, industrial).

sample(s_9318_jpg).
holds(s_9318_jpg, building).
holds(s_9318_jpg, feature).
holds(s_9318_jpg, billboard).
holds(s_9318_jpg, sign).
holds(s_9318_jpg, table).
holds(s_9318_jpg, tiledrooftop).
holds(s_9318_jpg, vendingmachine).
holds(s_9318_jpg, statue).
holds(s_9318_jpg, chimney).
holds(s_9318_jpg, pipe).
holds(s_9318_jpg, machine).
holds(s_9318_jpg, car).
holds(s_9318_jpg, commercial).

sample(s_5635_jpg).
holds(s_5635_jpg, building).
holds(s_5635_jpg, feature).
holds(s_5635_jpg, watertreatment).
holds(s_5635_jpg, door).
holds(s_5635_jpg, billboard).
holds(s_5635_jpg, porch).
holds(s_5635_jpg, sign).
holds(s_5635_jpg, tiledroof).
holds(s_5635_jpg, tiledrooftop).
holds(s_5635_jpg, wallsign).
holds(s_5635_jpg, pipe).
holds(s_5635_jpg, industrial).

sample(s_14016_jpg).
holds(s_14016_jpg, building).
holds(s_14016_jpg, feature).
holds(s_14016_jpg, hotel).
holds(s_14016_jpg, billboard).
holds(s_14016_jpg, porch).
holds(s_14016_jpg, sign).
holds(s_14016_jpg, table).
holds(s_14016_jpg, tiledroof).
holds(s_14016_jpg, tiledrooftop).
holds(s_14016_jpg, vendingmachine).
holds(s_14016_jpg, wallsign).
holds(s_14016_jpg, chimney).
holds(s_14016_jpg, pipe).
holds(s_14016_jpg, machine).
holds(s_14016_jpg, car).
holds(s_14016_jpg, commercial).

sample(s_14320_jpg).
holds(s_14320_jpg, building).
holds(s_14320_jpg, feature).
holds(s_14320_jpg, watertreatment).
holds(s_14320_jpg, door).
holds(s_14320_jpg, billboard).
holds(s_14320_jpg, sign).
holds(s_14320_jpg, tiledroof).
holds(s_14320_jpg, tiledrooftop).
holds(s_14320_jpg, wallsign).
holds(s_14320_jpg, pipe).
holds(s_14320_jpg, industrial).

sample(s_10137_jpg).
holds(s_10137_jpg, building).
holds(s_10137_jpg, feature).
holds(s_10137_jpg, hotel).
holds(s_10137_jpg, door).
holds(s_10137_jpg, billboard).
holds(s_10137_jpg, sign).
holds(s_10137_jpg, tiledroof).
holds(s_10137_jpg, tiledrooftop).
holds(s_10137_jpg, wallsign).
holds(s_10137_jpg, chimney).
holds(s_10137_jpg, pipe).
holds(s_10137_jpg, car).
holds(s_10137_jpg, commercial).

sample(s_9367_jpg).
holds(s_9367_jpg, building).
holds(s_9367_jpg, feature).
holds(s_9367_jpg, watertreatment).
holds(s_9367_jpg, door).
holds(s_9367_jpg, billboard).
holds(s_9367_jpg, porch).
holds(s_9367_jpg, sign).
holds(s_9367_jpg, tiledroof).
holds(s_9367_jpg, wallsign).
holds(s_9367_jpg, industrial).

sample(s_14106_jpg).
holds(s_14106_jpg, building).
holds(s_14106_jpg, feature).
holds(s_14106_jpg, hotel).
holds(s_14106_jpg, door).
holds(s_14106_jpg, billboard).
holds(s_14106_jpg, sign).
holds(s_14106_jpg, tiledroof).
holds(s_14106_jpg, tiledrooftop).
holds(s_14106_jpg, wallsign).
holds(s_14106_jpg, chimney).
holds(s_14106_jpg, pipe).
holds(s_14106_jpg, car).
holds(s_14106_jpg, commercial).

sample(s_2043_jpg).
holds(s_2043_jpg, building).
holds(s_2043_jpg, feature).
holds(s_2043_jpg, hotel).
holds(s_2043_jpg, door).
holds(s_2043_jpg, billboard).
holds(s_2043_jpg, porch).
holds(s_2043_jpg, sign).
holds(s_2043_jpg, tiledroof).
holds(s_2043_jpg, tiledrooftop).
holds(s_2043_jpg, vendingmachine).
holds(s_2043_jpg, wallsign).
holds(s_2043_jpg, chimney).
holds(s_2043_jpg, pipe).
holds(s_2043_jpg, car).
holds(s_2043_jpg, commercial).

sample(s_13460_jpg).
holds(s_13460_jpg, building).
holds(s_13460_jpg, feature).
holds(s_13460_jpg, sign).
holds(s_13460_jpg, table).
holds(s_13460_jpg, tiledrooftop).
holds(s_13460_jpg, vendingmachine).
holds(s_13460_jpg, statue).
holds(s_13460_jpg, pipe).

sample(s_12723_jpg).
holds(s_12723_jpg, building).
holds(s_12723_jpg, feature).
holds(s_12723_jpg, hotel).
holds(s_12723_jpg, door).
holds(s_12723_jpg, billboard).
holds(s_12723_jpg, porch).
holds(s_12723_jpg, sign).
holds(s_12723_jpg, tiledroof).
holds(s_12723_jpg, tiledrooftop).
holds(s_12723_jpg, wallsign).
holds(s_12723_jpg, chimney).
holds(s_12723_jpg, pipe).
holds(s_12723_jpg, car).
holds(s_12723_jpg, commercial).

sample(s_7069_jpg).
holds(s_7069_jpg, building).
holds(s_7069_jpg, feature).
holds(s_7069_jpg, watertreatment).
holds(s_7069_jpg, door).
holds(s_7069_jpg, billboard).
holds(s_7069_jpg, porch).
holds(s_7069_jpg, sign).
holds(s_7069_jpg, tiledroof).
holds(s_7069_jpg, wallsign).
holds(s_7069_jpg, industrial).

sample(s_7415_jpg).
holds(s_7415_jpg, building).
holds(s_7415_jpg, feature).
holds(s_7415_jpg, sign).
holds(s_7415_jpg, table).
holds(s_7415_jpg, tiledrooftop).
holds(s_7415_jpg, vendingmachine).
holds(s_7415_jpg, statue).
holds(s_7415_jpg, pipe).

sample(s_4380_jpg).
holds(s_4380_jpg, building).
holds(s_4380_jpg, feature).
holds(s_4380_jpg, hotel).
holds(s_4380_jpg, door).
holds(s_4380_jpg, billboard).
holds(s_4380_jpg, porch).
holds(s_4380_jpg, sign).
holds(s_4380_jpg, tiledroof).
holds(s_4380_jpg, tiledrooftop).
holds(s_4380_jpg, wallsign).
holds(s_4380_jpg, chimney).
holds(s_4380_jpg, pipe).
holds(s_4380_jpg, car).
holds(s_4380_jpg, commercial).

sample(s_9478_jpg).
holds(s_9478_jpg, building).
holds(s_9478_jpg, feature).
holds(s_9478_jpg, watertreatment).
holds(s_9478_jpg, door).
holds(s_9478_jpg, billboard).
holds(s_9478_jpg, porch).
holds(s_9478_jpg, sign).
holds(s_9478_jpg, tiledroof).
holds(s_9478_jpg, tiledrooftop).
holds(s_9478_jpg, wallsign).
holds(s_9478_jpg, pipe).
holds(s_9478_jpg, industrial).

sample(s_9873_jpg).
holds(s_9873_jpg, building).
holds(s_9873_jpg, feature).
holds(s_9873_jpg, hotel).
holds(s_9873_jpg, billboard).
holds(s_9873_jpg, sign).
holds(s_9873_jpg, table).
holds(s_9873_jpg, tiledroof).
holds(s_9873_jpg, tiledrooftop).
holds(s_9873_jpg, vendingmachine).
holds(s_9873_jpg, wallsign).
holds(s_9873_jpg, chimney).
holds(s_9873_jpg, pipe).
holds(s_9873_jpg, machine).
holds(s_9873_jpg, car).
holds(s_9873_jpg, commercial).

sample(s_6745_jpg).
holds(s_6745_jpg, building).
holds(s_6745_jpg, feature).
holds(s_6745_jpg, watertreatment).
holds(s_6745_jpg, door).
holds(s_6745_jpg, billboard).
holds(s_6745_jpg, porch).
holds(s_6745_jpg, sign).
holds(s_6745_jpg, tiledroof).
holds(s_6745_jpg, tiledrooftop).
holds(s_6745_jpg, wallsign).
holds(s_6745_jpg, industrial).

sample(s_13247_jpg).
holds(s_13247_jpg, building).
holds(s_13247_jpg, feature).
holds(s_13247_jpg, porch).
holds(s_13247_jpg, sign).
holds(s_13247_jpg, table).
holds(s_13247_jpg, tiledrooftop).
holds(s_13247_jpg, vendingmachine).
holds(s_13247_jpg, statue).
holds(s_13247_jpg, pipe).
holds(s_13247_jpg, machine).

sample(s_14735_jpg).
holds(s_14735_jpg, building).
holds(s_14735_jpg, feature).
holds(s_14735_jpg, sign).
holds(s_14735_jpg, table).
holds(s_14735_jpg, tiledrooftop).
holds(s_14735_jpg, vendingmachine).
holds(s_14735_jpg, statue).
holds(s_14735_jpg, pipe).

sample(s_5753_jpg).
holds(s_5753_jpg, building).
holds(s_5753_jpg, feature).
holds(s_5753_jpg, sign).
holds(s_5753_jpg, table).
holds(s_5753_jpg, tiledrooftop).
holds(s_5753_jpg, vendingmachine).
holds(s_5753_jpg, statue).
holds(s_5753_jpg, pipe).
holds(s_5753_jpg, machine).

sample(s_1320_jpg).
holds(s_1320_jpg, building).
holds(s_1320_jpg, feature).
holds(s_1320_jpg, hotel).
holds(s_1320_jpg, billboard).
holds(s_1320_jpg, sign).
holds(s_1320_jpg, table).
holds(s_1320_jpg, tiledroof).
holds(s_1320_jpg, tiledrooftop).
holds(s_1320_jpg, vendingmachine).
holds(s_1320_jpg, statue).
holds(s_1320_jpg, chimney).
holds(s_1320_jpg, pipe).
holds(s_1320_jpg, machine).
holds(s_1320_jpg, car).
holds(s_1320_jpg, commercial).

sample(s_6500_jpg).
holds(s_6500_jpg, building).
holds(s_6500_jpg, feature).
holds(s_6500_jpg, sign).
holds(s_6500_jpg, table).
holds(s_6500_jpg, tiledrooftop).
holds(s_6500_jpg, vendingmachine).
holds(s_6500_jpg, statue).
holds(s_6500_jpg, pipe).

sample(s_2834_jpg).
holds(s_2834_jpg, building).
holds(s_2834_jpg, feature).
holds(s_2834_jpg, window).
holds(s_2834_jpg, porch).
holds(s_2834_jpg, sign).
holds(s_2834_jpg, table).
holds(s_2834_jpg, tiledrooftop).
holds(s_2834_jpg, vendingmachine).
holds(s_2834_jpg, statue).
holds(s_2834_jpg, pipe).

sample(s_3492_jpg).
holds(s_3492_jpg, building).
holds(s_3492_jpg, feature).
holds(s_3492_jpg, hotel).
holds(s_3492_jpg, billboard).
holds(s_3492_jpg, sign).
holds(s_3492_jpg, tiledroof).
holds(s_3492_jpg, tiledrooftop).
holds(s_3492_jpg, vendingmachine).
holds(s_3492_jpg, wallsign).
holds(s_3492_jpg, chimney).
holds(s_3492_jpg, pipe).
holds(s_3492_jpg, machine).
holds(s_3492_jpg, car).
holds(s_3492_jpg, commercial).

sample(s_10431_jpg).
holds(s_10431_jpg, building).
holds(s_10431_jpg, feature).
holds(s_10431_jpg, watertreatment).
holds(s_10431_jpg, door).
holds(s_10431_jpg, billboard).
holds(s_10431_jpg, porch).
holds(s_10431_jpg, sign).
holds(s_10431_jpg, table).
holds(s_10431_jpg, tiledroof).
holds(s_10431_jpg, tiledrooftop).
holds(s_10431_jpg, wallsign).
holds(s_10431_jpg, pipe).
holds(s_10431_jpg, industrial).

sample(s_8830_jpg).
holds(s_8830_jpg, building).
holds(s_8830_jpg, feature).
holds(s_8830_jpg, watertreatment).
holds(s_8830_jpg, door).
holds(s_8830_jpg, billboard).
holds(s_8830_jpg, porch).
holds(s_8830_jpg, sign).
holds(s_8830_jpg, tiledroof).
holds(s_8830_jpg, tiledrooftop).
holds(s_8830_jpg, wallsign).
holds(s_8830_jpg, industrial).

sample(s_15925_jpg).
holds(s_15925_jpg, building).
holds(s_15925_jpg, feature).
holds(s_15925_jpg, watertreatment).
holds(s_15925_jpg, door).
holds(s_15925_jpg, billboard).
holds(s_15925_jpg, porch).
holds(s_15925_jpg, sign).
holds(s_15925_jpg, tiledroof).
holds(s_15925_jpg, tiledrooftop).
holds(s_15925_jpg, wallsign).
holds(s_15925_jpg, pipe).
holds(s_15925_jpg, industrial).

sample(s_9632_jpg).
holds(s_9632_jpg, building).
holds(s_9632_jpg, feature).
holds(s_9632_jpg, sign).
holds(s_9632_jpg, table).
holds(s_9632_jpg, tiledrooftop).
holds(s_9632_jpg, vendingmachine).
holds(s_9632_jpg, statue).
holds(s_9632_jpg, pipe).
holds(s_9632_jpg, machine).

sample(s_10933_jpg).
holds(s_10933_jpg, building).
holds(s_10933_jpg, feature).
holds(s_10933_jpg, watertreatment).
holds(s_10933_jpg, door).
holds(s_10933_jpg, billboard).
holds(s_10933_jpg, porch).
holds(s_10933_jpg, sign).
holds(s_10933_jpg, tiledroof).
holds(s_10933_jpg, wallsign).
holds(s_10933_jpg, pipe).
holds(s_10933_jpg, industrial).

sample(s_6598_jpg).
holds(s_6598_jpg, building).
holds(s_6598_jpg, feature).
holds(s_6598_jpg, watertreatment).
holds(s_6598_jpg, door).
holds(s_6598_jpg, billboard).
holds(s_6598_jpg, porch).
holds(s_6598_jpg, sign).
holds(s_6598_jpg, tiledroof).
holds(s_6598_jpg, wallsign).
holds(s_6598_jpg, chimney).
holds(s_6598_jpg, pipe).
holds(s_6598_jpg, industrial).

sample(s_12967_jpg).
holds(s_12967_jpg, building).
holds(s_12967_jpg, feature).
holds(s_12967_jpg, watertreatment).
holds(s_12967_jpg, door).
holds(s_12967_jpg, billboard).
holds(s_12967_jpg, sign).
holds(s_12967_jpg, tiledroof).
holds(s_12967_jpg, tiledrooftop).
holds(s_12967_jpg, wallsign).
holds(s_12967_jpg, pipe).
holds(s_12967_jpg, industrial).

sample(s_15258_jpg).
holds(s_15258_jpg, building).
holds(s_15258_jpg, feature).
holds(s_15258_jpg, hotel).
holds(s_15258_jpg, door).
holds(s_15258_jpg, billboard).
holds(s_15258_jpg, sign).
holds(s_15258_jpg, tiledroof).
holds(s_15258_jpg, tiledrooftop).
holds(s_15258_jpg, wallsign).
holds(s_15258_jpg, chimney).
holds(s_15258_jpg, pipe).
holds(s_15258_jpg, car).
holds(s_15258_jpg, commercial).

sample(s_16_jpg).
holds(s_16_jpg, building).
holds(s_16_jpg, feature).
holds(s_16_jpg, watertreatment).
holds(s_16_jpg, door).
holds(s_16_jpg, billboard).
holds(s_16_jpg, porch).
holds(s_16_jpg, sign).
holds(s_16_jpg, tiledroof).
holds(s_16_jpg, wallsign).
holds(s_16_jpg, industrial).

sample(s_13899_jpg).
holds(s_13899_jpg, building).
holds(s_13899_jpg, feature).
holds(s_13899_jpg, hotel).
holds(s_13899_jpg, billboard).
holds(s_13899_jpg, sign).
holds(s_13899_jpg, tiledroof).
holds(s_13899_jpg, tiledrooftop).
holds(s_13899_jpg, chimney).
holds(s_13899_jpg, pipe).
holds(s_13899_jpg, machine).
holds(s_13899_jpg, car).
holds(s_13899_jpg, commercial).

sample(s_11328_jpg).
holds(s_11328_jpg, building).
holds(s_11328_jpg, feature).
holds(s_11328_jpg, hotel).
holds(s_11328_jpg, door).
holds(s_11328_jpg, billboard).
holds(s_11328_jpg, sign).
holds(s_11328_jpg, tiledroof).
holds(s_11328_jpg, tiledrooftop).
holds(s_11328_jpg, wallsign).
holds(s_11328_jpg, chimney).
holds(s_11328_jpg, pipe).
holds(s_11328_jpg, car).
holds(s_11328_jpg, commercial).

sample(s_15615_jpg).
holds(s_15615_jpg, building).
holds(s_15615_jpg, feature).
holds(s_15615_jpg, hotel).
holds(s_15615_jpg, door).
holds(s_15615_jpg, billboard).
holds(s_15615_jpg, sign).
holds(s_15615_jpg, tiledroof).
holds(s_15615_jpg, tiledrooftop).
holds(s_15615_jpg, wallsign).
holds(s_15615_jpg, chimney).
holds(s_15615_jpg, pipe).
holds(s_15615_jpg, car).
holds(s_15615_jpg, commercial).

sample(s_12311_jpg).
holds(s_12311_jpg, building).
holds(s_12311_jpg, feature).
holds(s_12311_jpg, sign).
holds(s_12311_jpg, table).
holds(s_12311_jpg, tiledrooftop).
holds(s_12311_jpg, vendingmachine).
holds(s_12311_jpg, statue).
holds(s_12311_jpg, pipe).
holds(s_12311_jpg, machine).

sample(s_12459_jpg).
holds(s_12459_jpg, building).
holds(s_12459_jpg, feature).
holds(s_12459_jpg, hotel).
holds(s_12459_jpg, billboard).
holds(s_12459_jpg, sign).
holds(s_12459_jpg, tiledroof).
holds(s_12459_jpg, tiledrooftop).
holds(s_12459_jpg, chimney).
holds(s_12459_jpg, pipe).
holds(s_12459_jpg, machine).
holds(s_12459_jpg, car).
holds(s_12459_jpg, commercial).

sample(s_3656_jpg).
holds(s_3656_jpg, building).
holds(s_3656_jpg, feature).
holds(s_3656_jpg, porch).
holds(s_3656_jpg, sign).
holds(s_3656_jpg, table).
holds(s_3656_jpg, tiledrooftop).
holds(s_3656_jpg, vendingmachine).
holds(s_3656_jpg, statue).
holds(s_3656_jpg, pipe).

sample(s_11954_jpg).
holds(s_11954_jpg, building).
holds(s_11954_jpg, feature).
holds(s_11954_jpg, sign).
holds(s_11954_jpg, table).
holds(s_11954_jpg, tiledrooftop).
holds(s_11954_jpg, vendingmachine).
holds(s_11954_jpg, statue).
holds(s_11954_jpg, pipe).

sample(s_14514_jpg).
holds(s_14514_jpg, building).
holds(s_14514_jpg, feature).
holds(s_14514_jpg, hotel).
holds(s_14514_jpg, door).
holds(s_14514_jpg, billboard).
holds(s_14514_jpg, porch).
holds(s_14514_jpg, sign).
holds(s_14514_jpg, tiledroof).
holds(s_14514_jpg, tiledrooftop).
holds(s_14514_jpg, wallsign).
holds(s_14514_jpg, chimney).
holds(s_14514_jpg, pipe).
holds(s_14514_jpg, car).
holds(s_14514_jpg, commercial).

sample(s_10171_jpg).
holds(s_10171_jpg, building).
holds(s_10171_jpg, feature).
holds(s_10171_jpg, watertreatment).
holds(s_10171_jpg, door).
holds(s_10171_jpg, billboard).
holds(s_10171_jpg, porch).
holds(s_10171_jpg, sign).
holds(s_10171_jpg, tiledroof).
holds(s_10171_jpg, wallsign).
holds(s_10171_jpg, pipe).
holds(s_10171_jpg, industrial).

sample(s_11171_jpg).
holds(s_11171_jpg, building).
holds(s_11171_jpg, feature).
holds(s_11171_jpg, porch).
holds(s_11171_jpg, sign).
holds(s_11171_jpg, table).
holds(s_11171_jpg, tiledrooftop).
holds(s_11171_jpg, vendingmachine).
holds(s_11171_jpg, statue).
holds(s_11171_jpg, pipe).
holds(s_11171_jpg, machine).

sample(s_7057_jpg).
holds(s_7057_jpg, building).
holds(s_7057_jpg, feature).
holds(s_7057_jpg, watertreatment).
holds(s_7057_jpg, door).
holds(s_7057_jpg, billboard).
holds(s_7057_jpg, porch).
holds(s_7057_jpg, sign).
holds(s_7057_jpg, tiledroof).
holds(s_7057_jpg, wallsign).
holds(s_7057_jpg, industrial).

sample(s_6073_jpg).
holds(s_6073_jpg, building).
holds(s_6073_jpg, feature).
holds(s_6073_jpg, watertreatment).
holds(s_6073_jpg, door).
holds(s_6073_jpg, billboard).
holds(s_6073_jpg, porch).
holds(s_6073_jpg, sign).
holds(s_6073_jpg, tiledroof).
holds(s_6073_jpg, wallsign).
holds(s_6073_jpg, chimney).
holds(s_6073_jpg, pipe).
holds(s_6073_jpg, industrial).

sample(s_2075_jpg).
holds(s_2075_jpg, building).
holds(s_2075_jpg, feature).
holds(s_2075_jpg, sign).
holds(s_2075_jpg, table).
holds(s_2075_jpg, tiledrooftop).
holds(s_2075_jpg, vendingmachine).
holds(s_2075_jpg, statue).
holds(s_2075_jpg, pipe).
holds(s_2075_jpg, machine).

sample(s_15384_jpg).
holds(s_15384_jpg, building).
holds(s_15384_jpg, feature).
holds(s_15384_jpg, hotel).
holds(s_15384_jpg, billboard).
holds(s_15384_jpg, porch).
holds(s_15384_jpg, sign).
holds(s_15384_jpg, table).
holds(s_15384_jpg, tiledroof).
holds(s_15384_jpg, tiledrooftop).
holds(s_15384_jpg, vendingmachine).
holds(s_15384_jpg, chimney).
holds(s_15384_jpg, pipe).
holds(s_15384_jpg, machine).
holds(s_15384_jpg, car).
holds(s_15384_jpg, commercial).

sample(s_4421_jpg).
holds(s_4421_jpg, building).
holds(s_4421_jpg, feature).
holds(s_4421_jpg, porch).
holds(s_4421_jpg, sign).
holds(s_4421_jpg, table).
holds(s_4421_jpg, tiledrooftop).
holds(s_4421_jpg, vendingmachine).
holds(s_4421_jpg, statue).
holds(s_4421_jpg, pipe).

sample(s_9375_jpg).
holds(s_9375_jpg, building).
holds(s_9375_jpg, feature).
holds(s_9375_jpg, hotel).
holds(s_9375_jpg, door).
holds(s_9375_jpg, billboard).
holds(s_9375_jpg, porch).
holds(s_9375_jpg, sign).
holds(s_9375_jpg, tiledroof).
holds(s_9375_jpg, tiledrooftop).
holds(s_9375_jpg, wallsign).
holds(s_9375_jpg, chimney).
holds(s_9375_jpg, pipe).
holds(s_9375_jpg, car).
holds(s_9375_jpg, commercial).

sample(s_8999_jpg).
holds(s_8999_jpg, building).
holds(s_8999_jpg, feature).
holds(s_8999_jpg, sign).
holds(s_8999_jpg, table).
holds(s_8999_jpg, tiledrooftop).
holds(s_8999_jpg, vendingmachine).
holds(s_8999_jpg, statue).
holds(s_8999_jpg, pipe).

sample(s_1981_jpg).
holds(s_1981_jpg, building).
holds(s_1981_jpg, feature).
holds(s_1981_jpg, watertreatment).
holds(s_1981_jpg, door).
holds(s_1981_jpg, billboard).
holds(s_1981_jpg, porch).
holds(s_1981_jpg, sign).
holds(s_1981_jpg, tiledroof).
holds(s_1981_jpg, wallsign).
holds(s_1981_jpg, industrial).

sample(s_2202_jpg).
holds(s_2202_jpg, building).
holds(s_2202_jpg, feature).
holds(s_2202_jpg, hotel).
holds(s_2202_jpg, door).
holds(s_2202_jpg, billboard).
holds(s_2202_jpg, porch).
holds(s_2202_jpg, sign).
holds(s_2202_jpg, tiledroof).
holds(s_2202_jpg, tiledrooftop).
holds(s_2202_jpg, vendingmachine).
holds(s_2202_jpg, wallsign).
holds(s_2202_jpg, chimney).
holds(s_2202_jpg, pipe).
holds(s_2202_jpg, machine).
holds(s_2202_jpg, car).
holds(s_2202_jpg, commercial).

sample(s_7818_jpg).
holds(s_7818_jpg, building).
holds(s_7818_jpg, feature).
holds(s_7818_jpg, hotel).
holds(s_7818_jpg, porch).
holds(s_7818_jpg, sign).
holds(s_7818_jpg, table).
holds(s_7818_jpg, tiledroof).
holds(s_7818_jpg, tiledrooftop).
holds(s_7818_jpg, vendingmachine).
holds(s_7818_jpg, statue).
holds(s_7818_jpg, pipe).
holds(s_7818_jpg, commercial).

sample(s_10874_jpg).
holds(s_10874_jpg, building).
holds(s_10874_jpg, feature).
holds(s_10874_jpg, sign).
holds(s_10874_jpg, table).
holds(s_10874_jpg, tiledrooftop).
holds(s_10874_jpg, vendingmachine).
holds(s_10874_jpg, statue).
holds(s_10874_jpg, pipe).
holds(s_10874_jpg, machine).

sample(s_13152_jpg).
holds(s_13152_jpg, building).
holds(s_13152_jpg, feature).
holds(s_13152_jpg, hotel).
holds(s_13152_jpg, door).
holds(s_13152_jpg, billboard).
holds(s_13152_jpg, porch).
holds(s_13152_jpg, sign).
holds(s_13152_jpg, tiledroof).
holds(s_13152_jpg, tiledrooftop).
holds(s_13152_jpg, vendingmachine).
holds(s_13152_jpg, wallsign).
holds(s_13152_jpg, chimney).
holds(s_13152_jpg, pipe).
holds(s_13152_jpg, machine).
holds(s_13152_jpg, car).
holds(s_13152_jpg, commercial).

sample(s_221_jpg).
holds(s_221_jpg, building).
holds(s_221_jpg, feature).
holds(s_221_jpg, porch).
holds(s_221_jpg, sign).
holds(s_221_jpg, table).
holds(s_221_jpg, tiledrooftop).
holds(s_221_jpg, vendingmachine).
holds(s_221_jpg, statue).

sample(s_15513_jpg).
holds(s_15513_jpg, building).
holds(s_15513_jpg, feature).
holds(s_15513_jpg, hotel).
holds(s_15513_jpg, door).
holds(s_15513_jpg, billboard).
holds(s_15513_jpg, porch).
holds(s_15513_jpg, sign).
holds(s_15513_jpg, tiledroof).
holds(s_15513_jpg, tiledrooftop).
holds(s_15513_jpg, wallsign).
holds(s_15513_jpg, chimney).
holds(s_15513_jpg, pipe).
holds(s_15513_jpg, car).
holds(s_15513_jpg, commercial).

sample(s_2076_jpg).
holds(s_2076_jpg, building).
holds(s_2076_jpg, feature).
holds(s_2076_jpg, hotel).
holds(s_2076_jpg, porch).
holds(s_2076_jpg, sign).
holds(s_2076_jpg, table).
holds(s_2076_jpg, tiledroof).
holds(s_2076_jpg, vendingmachine).
holds(s_2076_jpg, statue).
holds(s_2076_jpg, pipe).
holds(s_2076_jpg, commercial).

sample(s_12034_jpg).
holds(s_12034_jpg, building).
holds(s_12034_jpg, feature).
holds(s_12034_jpg, watertreatment).
holds(s_12034_jpg, door).
holds(s_12034_jpg, billboard).
holds(s_12034_jpg, porch).
holds(s_12034_jpg, sign).
holds(s_12034_jpg, tiledroof).
holds(s_12034_jpg, tiledrooftop).
holds(s_12034_jpg, wallsign).
holds(s_12034_jpg, pipe).
holds(s_12034_jpg, industrial).

sample(s_8837_jpg).
holds(s_8837_jpg, building).
holds(s_8837_jpg, feature).
holds(s_8837_jpg, sign).
holds(s_8837_jpg, table).
holds(s_8837_jpg, tiledrooftop).
holds(s_8837_jpg, vendingmachine).
holds(s_8837_jpg, statue).
holds(s_8837_jpg, pipe).

sample(s_15683_jpg).
holds(s_15683_jpg, building).
holds(s_15683_jpg, feature).
holds(s_15683_jpg, sign).
holds(s_15683_jpg, table).
holds(s_15683_jpg, tiledrooftop).
holds(s_15683_jpg, vendingmachine).
holds(s_15683_jpg, statue).
holds(s_15683_jpg, pipe).
holds(s_15683_jpg, machine).

sample(s_8175_jpg).
holds(s_8175_jpg, building).
holds(s_8175_jpg, feature).
holds(s_8175_jpg, hotel).
holds(s_8175_jpg, billboard).
holds(s_8175_jpg, sign).
holds(s_8175_jpg, tiledroof).
holds(s_8175_jpg, tiledrooftop).
holds(s_8175_jpg, chimney).
holds(s_8175_jpg, pipe).
holds(s_8175_jpg, machine).
holds(s_8175_jpg, car).
holds(s_8175_jpg, commercial).

sample(s_14963_jpg).
holds(s_14963_jpg, building).
holds(s_14963_jpg, feature).
holds(s_14963_jpg, sign).
holds(s_14963_jpg, table).
holds(s_14963_jpg, tiledrooftop).
holds(s_14963_jpg, vendingmachine).
holds(s_14963_jpg, statue).
holds(s_14963_jpg, pipe).
holds(s_14963_jpg, machine).

sample(s_10792_jpg).
holds(s_10792_jpg, building).
holds(s_10792_jpg, feature).
holds(s_10792_jpg, watertreatment).
holds(s_10792_jpg, door).
holds(s_10792_jpg, billboard).
holds(s_10792_jpg, porch).
holds(s_10792_jpg, sign).
holds(s_10792_jpg, tiledroof).
holds(s_10792_jpg, tiledrooftop).
holds(s_10792_jpg, wallsign).
holds(s_10792_jpg, pipe).
holds(s_10792_jpg, industrial).

sample(s_9438_jpg).
holds(s_9438_jpg, building).
holds(s_9438_jpg, feature).
holds(s_9438_jpg, hotel).
holds(s_9438_jpg, porch).
holds(s_9438_jpg, sign).
holds(s_9438_jpg, table).
holds(s_9438_jpg, tiledroof).
holds(s_9438_jpg, tiledrooftop).
holds(s_9438_jpg, vendingmachine).
holds(s_9438_jpg, statue).
holds(s_9438_jpg, chimney).
holds(s_9438_jpg, pipe).
holds(s_9438_jpg, car).
holds(s_9438_jpg, commercial).

sample(s_9366_jpg).
holds(s_9366_jpg, building).
holds(s_9366_jpg, feature).
holds(s_9366_jpg, hotel).
holds(s_9366_jpg, door).
holds(s_9366_jpg, billboard).
holds(s_9366_jpg, porch).
holds(s_9366_jpg, sign).
holds(s_9366_jpg, tiledroof).
holds(s_9366_jpg, tiledrooftop).
holds(s_9366_jpg, vendingmachine).
holds(s_9366_jpg, wallsign).
holds(s_9366_jpg, chimney).
holds(s_9366_jpg, pipe).
holds(s_9366_jpg, machine).
holds(s_9366_jpg, car).
holds(s_9366_jpg, commercial).

sample(s_7914_jpg).
holds(s_7914_jpg, building).
holds(s_7914_jpg, feature).
holds(s_7914_jpg, hotel).
holds(s_7914_jpg, billboard).
holds(s_7914_jpg, porch).
holds(s_7914_jpg, sign).
holds(s_7914_jpg, table).
holds(s_7914_jpg, tiledroof).
holds(s_7914_jpg, tiledrooftop).
holds(s_7914_jpg, vendingmachine).
holds(s_7914_jpg, wallsign).
holds(s_7914_jpg, chimney).
holds(s_7914_jpg, pipe).
holds(s_7914_jpg, machine).
holds(s_7914_jpg, car).
holds(s_7914_jpg, commercial).

sample(s_70_jpg).
holds(s_70_jpg, building).
holds(s_70_jpg, feature).
holds(s_70_jpg, watertreatment).
holds(s_70_jpg, door).
holds(s_70_jpg, billboard).
holds(s_70_jpg, porch).
holds(s_70_jpg, sign).
holds(s_70_jpg, tiledroof).
holds(s_70_jpg, wallsign).
holds(s_70_jpg, industrial).

sample(s_13476_jpg).
holds(s_13476_jpg, building).
holds(s_13476_jpg, feature).
holds(s_13476_jpg, hotel).
holds(s_13476_jpg, door).
holds(s_13476_jpg, billboard).
holds(s_13476_jpg, porch).
holds(s_13476_jpg, sign).
holds(s_13476_jpg, tiledroof).
holds(s_13476_jpg, tiledrooftop).
holds(s_13476_jpg, vendingmachine).
holds(s_13476_jpg, wallsign).
holds(s_13476_jpg, chimney).
holds(s_13476_jpg, pipe).
holds(s_13476_jpg, machine).
holds(s_13476_jpg, car).
holds(s_13476_jpg, commercial).

sample(s_13393_jpg).
holds(s_13393_jpg, building).
holds(s_13393_jpg, feature).
holds(s_13393_jpg, watertreatment).
holds(s_13393_jpg, door).
holds(s_13393_jpg, billboard).
holds(s_13393_jpg, sign).
holds(s_13393_jpg, tiledroof).
holds(s_13393_jpg, tiledrooftop).
holds(s_13393_jpg, wallsign).
holds(s_13393_jpg, pipe).
holds(s_13393_jpg, industrial).

sample(s_2295_jpg).
holds(s_2295_jpg, building).
holds(s_2295_jpg, feature).
holds(s_2295_jpg, hotel).
holds(s_2295_jpg, door).
holds(s_2295_jpg, billboard).
holds(s_2295_jpg, porch).
holds(s_2295_jpg, sign).
holds(s_2295_jpg, tiledroof).
holds(s_2295_jpg, tiledrooftop).
holds(s_2295_jpg, vendingmachine).
holds(s_2295_jpg, wallsign).
holds(s_2295_jpg, chimney).
holds(s_2295_jpg, pipe).
holds(s_2295_jpg, car).
holds(s_2295_jpg, commercial).

sample(s_10422_jpg).
holds(s_10422_jpg, building).
holds(s_10422_jpg, feature).
holds(s_10422_jpg, hotel).
holds(s_10422_jpg, door).
holds(s_10422_jpg, billboard).
holds(s_10422_jpg, porch).
holds(s_10422_jpg, sign).
holds(s_10422_jpg, tiledroof).
holds(s_10422_jpg, tiledrooftop).
holds(s_10422_jpg, wallsign).
holds(s_10422_jpg, chimney).
holds(s_10422_jpg, pipe).
holds(s_10422_jpg, car).
holds(s_10422_jpg, commercial).

sample(s_8173_jpg).
holds(s_8173_jpg, building).
holds(s_8173_jpg, feature).
holds(s_8173_jpg, watertreatment).
holds(s_8173_jpg, door).
holds(s_8173_jpg, billboard).
holds(s_8173_jpg, porch).
holds(s_8173_jpg, sign).
holds(s_8173_jpg, tiledroof).
holds(s_8173_jpg, tiledrooftop).
holds(s_8173_jpg, wallsign).
holds(s_8173_jpg, industrial).

sample(s_12361_jpg).
holds(s_12361_jpg, building).
holds(s_12361_jpg, feature).
holds(s_12361_jpg, watertreatment).
holds(s_12361_jpg, door).
holds(s_12361_jpg, billboard).
holds(s_12361_jpg, porch).
holds(s_12361_jpg, sign).
holds(s_12361_jpg, tiledroof).
holds(s_12361_jpg, tiledrooftop).
holds(s_12361_jpg, wallsign).
holds(s_12361_jpg, industrial).

sample(s_8797_jpg).
holds(s_8797_jpg, building).
holds(s_8797_jpg, feature).
holds(s_8797_jpg, watertreatment).
holds(s_8797_jpg, door).
holds(s_8797_jpg, billboard).
holds(s_8797_jpg, porch).
holds(s_8797_jpg, sign).
holds(s_8797_jpg, tiledroof).
holds(s_8797_jpg, tiledrooftop).
holds(s_8797_jpg, wallsign).
holds(s_8797_jpg, industrial).

sample(s_9191_jpg).
holds(s_9191_jpg, building).
holds(s_9191_jpg, feature).
holds(s_9191_jpg, porch).
holds(s_9191_jpg, sign).
holds(s_9191_jpg, table).
holds(s_9191_jpg, tiledrooftop).
holds(s_9191_jpg, vendingmachine).
holds(s_9191_jpg, statue).

sample(s_8938_jpg).
holds(s_8938_jpg, building).
holds(s_8938_jpg, feature).
holds(s_8938_jpg, watertreatment).
holds(s_8938_jpg, door).
holds(s_8938_jpg, billboard).
holds(s_8938_jpg, porch).
holds(s_8938_jpg, sign).
holds(s_8938_jpg, tiledroof).
holds(s_8938_jpg, wallsign).
holds(s_8938_jpg, industrial).

sample(s_381_jpg).
holds(s_381_jpg, building).
holds(s_381_jpg, feature).
holds(s_381_jpg, hotel).
holds(s_381_jpg, billboard).
holds(s_381_jpg, porch).
holds(s_381_jpg, sign).
holds(s_381_jpg, table).
holds(s_381_jpg, tiledroof).
holds(s_381_jpg, tiledrooftop).
holds(s_381_jpg, vendingmachine).
holds(s_381_jpg, statue).
holds(s_381_jpg, chimney).
holds(s_381_jpg, pipe).
holds(s_381_jpg, machine).
holds(s_381_jpg, car).
holds(s_381_jpg, commercial).

sample(s_12039_jpg).
holds(s_12039_jpg, building).
holds(s_12039_jpg, feature).
holds(s_12039_jpg, hotel).
holds(s_12039_jpg, billboard).
holds(s_12039_jpg, sign).
holds(s_12039_jpg, table).
holds(s_12039_jpg, tiledroof).
holds(s_12039_jpg, tiledrooftop).
holds(s_12039_jpg, vendingmachine).
holds(s_12039_jpg, statue).
holds(s_12039_jpg, chimney).
holds(s_12039_jpg, pipe).
holds(s_12039_jpg, machine).
holds(s_12039_jpg, car).
holds(s_12039_jpg, commercial).

sample(s_12524_jpg).
holds(s_12524_jpg, building).
holds(s_12524_jpg, feature).
holds(s_12524_jpg, sign).
holds(s_12524_jpg, table).
holds(s_12524_jpg, tiledrooftop).
holds(s_12524_jpg, vendingmachine).
holds(s_12524_jpg, statue).
holds(s_12524_jpg, pipe).
holds(s_12524_jpg, machine).

sample(s_828_jpg).
holds(s_828_jpg, building).
holds(s_828_jpg, feature).
holds(s_828_jpg, hotel).
holds(s_828_jpg, door).
holds(s_828_jpg, billboard).
holds(s_828_jpg, sign).
holds(s_828_jpg, tiledroof).
holds(s_828_jpg, tiledrooftop).
holds(s_828_jpg, wallsign).
holds(s_828_jpg, pipe).
holds(s_828_jpg, commercial).

sample(s_6537_jpg).
holds(s_6537_jpg, building).
holds(s_6537_jpg, feature).
holds(s_6537_jpg, hotel).
holds(s_6537_jpg, billboard).
holds(s_6537_jpg, porch).
holds(s_6537_jpg, sign).
holds(s_6537_jpg, table).
holds(s_6537_jpg, tiledroof).
holds(s_6537_jpg, tiledrooftop).
holds(s_6537_jpg, vendingmachine).
holds(s_6537_jpg, wallsign).
holds(s_6537_jpg, chimney).
holds(s_6537_jpg, pipe).
holds(s_6537_jpg, car).
holds(s_6537_jpg, commercial).

sample(s_2651_jpg).
holds(s_2651_jpg, building).
holds(s_2651_jpg, feature).
holds(s_2651_jpg, sign).
holds(s_2651_jpg, table).
holds(s_2651_jpg, tiledrooftop).
holds(s_2651_jpg, vendingmachine).
holds(s_2651_jpg, statue).
holds(s_2651_jpg, pipe).
holds(s_2651_jpg, machine).

sample(s_11700_jpg).
holds(s_11700_jpg, building).
holds(s_11700_jpg, feature).
holds(s_11700_jpg, hotel).
holds(s_11700_jpg, door).
holds(s_11700_jpg, billboard).
holds(s_11700_jpg, sign).
holds(s_11700_jpg, tiledroof).
holds(s_11700_jpg, tiledrooftop).
holds(s_11700_jpg, wallsign).
holds(s_11700_jpg, chimney).
holds(s_11700_jpg, pipe).
holds(s_11700_jpg, car).
holds(s_11700_jpg, commercial).

sample(s_7256_jpg).
holds(s_7256_jpg, building).
holds(s_7256_jpg, feature).
holds(s_7256_jpg, window).
holds(s_7256_jpg, porch).
holds(s_7256_jpg, sign).
holds(s_7256_jpg, table).
holds(s_7256_jpg, tiledrooftop).
holds(s_7256_jpg, vendingmachine).
holds(s_7256_jpg, statue).
holds(s_7256_jpg, pipe).

sample(s_12753_jpg).
holds(s_12753_jpg, building).
holds(s_12753_jpg, feature).
holds(s_12753_jpg, hotel).
holds(s_12753_jpg, door).
holds(s_12753_jpg, billboard).
holds(s_12753_jpg, porch).
holds(s_12753_jpg, sign).
holds(s_12753_jpg, tiledroof).
holds(s_12753_jpg, tiledrooftop).
holds(s_12753_jpg, wallsign).
holds(s_12753_jpg, chimney).
holds(s_12753_jpg, pipe).
holds(s_12753_jpg, car).
holds(s_12753_jpg, commercial).

sample(s_5473_jpg).
holds(s_5473_jpg, building).
holds(s_5473_jpg, feature).
holds(s_5473_jpg, watertreatment).
holds(s_5473_jpg, door).
holds(s_5473_jpg, billboard).
holds(s_5473_jpg, porch).
holds(s_5473_jpg, sign).
holds(s_5473_jpg, tiledroof).
holds(s_5473_jpg, wallsign).
holds(s_5473_jpg, industrial).

sample(s_13148_jpg).
holds(s_13148_jpg, building).
holds(s_13148_jpg, feature).
holds(s_13148_jpg, sign).
holds(s_13148_jpg, table).
holds(s_13148_jpg, tiledrooftop).
holds(s_13148_jpg, vendingmachine).
holds(s_13148_jpg, statue).
holds(s_13148_jpg, pipe).

sample(s_8650_jpg).
holds(s_8650_jpg, building).
holds(s_8650_jpg, feature).
holds(s_8650_jpg, watertreatment).
holds(s_8650_jpg, door).
holds(s_8650_jpg, billboard).
holds(s_8650_jpg, porch).
holds(s_8650_jpg, sign).
holds(s_8650_jpg, tiledroof).
holds(s_8650_jpg, wallsign).
holds(s_8650_jpg, pipe).
holds(s_8650_jpg, industrial).

sample(s_7926_jpg).
holds(s_7926_jpg, building).
holds(s_7926_jpg, feature).
holds(s_7926_jpg, hotel).
holds(s_7926_jpg, billboard).
holds(s_7926_jpg, sign).
holds(s_7926_jpg, table).
holds(s_7926_jpg, tiledroof).
holds(s_7926_jpg, tiledrooftop).
holds(s_7926_jpg, vendingmachine).
holds(s_7926_jpg, wallsign).
holds(s_7926_jpg, chimney).
holds(s_7926_jpg, pipe).
holds(s_7926_jpg, machine).
holds(s_7926_jpg, car).
holds(s_7926_jpg, commercial).

sample(s_4472_jpg).
holds(s_4472_jpg, building).
holds(s_4472_jpg, feature).
holds(s_4472_jpg, sign).
holds(s_4472_jpg, table).
holds(s_4472_jpg, tiledrooftop).
holds(s_4472_jpg, vendingmachine).
holds(s_4472_jpg, statue).
holds(s_4472_jpg, pipe).
holds(s_4472_jpg, machine).

sample(s_12442_jpg).
holds(s_12442_jpg, building).
holds(s_12442_jpg, feature).
holds(s_12442_jpg, watertreatment).
holds(s_12442_jpg, door).
holds(s_12442_jpg, billboard).
holds(s_12442_jpg, porch).
holds(s_12442_jpg, sign).
holds(s_12442_jpg, tiledroof).
holds(s_12442_jpg, tiledrooftop).
holds(s_12442_jpg, wallsign).
holds(s_12442_jpg, chimney).
holds(s_12442_jpg, pipe).
holds(s_12442_jpg, industrial).

sample(s_6522_jpg).
holds(s_6522_jpg, building).
holds(s_6522_jpg, feature).
holds(s_6522_jpg, billboard).
holds(s_6522_jpg, porch).
holds(s_6522_jpg, sign).
holds(s_6522_jpg, table).
holds(s_6522_jpg, tiledrooftop).
holds(s_6522_jpg, vendingmachine).
holds(s_6522_jpg, statue).
holds(s_6522_jpg, pipe).
holds(s_6522_jpg, machine).

sample(s_14749_jpg).
holds(s_14749_jpg, building).
holds(s_14749_jpg, feature).
holds(s_14749_jpg, watertreatment).
holds(s_14749_jpg, door).
holds(s_14749_jpg, billboard).
holds(s_14749_jpg, porch).
holds(s_14749_jpg, sign).
holds(s_14749_jpg, tiledroof).
holds(s_14749_jpg, wallsign).
holds(s_14749_jpg, industrial).

sample(s_8235_jpg).
holds(s_8235_jpg, building).
holds(s_8235_jpg, feature).
holds(s_8235_jpg, hotel).
holds(s_8235_jpg, door).
holds(s_8235_jpg, billboard).
holds(s_8235_jpg, porch).
holds(s_8235_jpg, sign).
holds(s_8235_jpg, tiledroof).
holds(s_8235_jpg, tiledrooftop).
holds(s_8235_jpg, wallsign).
holds(s_8235_jpg, chimney).
holds(s_8235_jpg, pipe).
holds(s_8235_jpg, car).
holds(s_8235_jpg, commercial).

sample(s_12851_jpg).
holds(s_12851_jpg, building).
holds(s_12851_jpg, feature).
holds(s_12851_jpg, sign).
holds(s_12851_jpg, table).
holds(s_12851_jpg, tiledrooftop).
holds(s_12851_jpg, vendingmachine).
holds(s_12851_jpg, statue).
holds(s_12851_jpg, pipe).
holds(s_12851_jpg, machine).

sample(s_8384_jpg).
holds(s_8384_jpg, building).
holds(s_8384_jpg, feature).
holds(s_8384_jpg, sign).
holds(s_8384_jpg, table).
holds(s_8384_jpg, tiledrooftop).
holds(s_8384_jpg, vendingmachine).
holds(s_8384_jpg, statue).
holds(s_8384_jpg, pipe).
holds(s_8384_jpg, machine).

sample(s_11451_jpg).
holds(s_11451_jpg, building).
holds(s_11451_jpg, feature).
holds(s_11451_jpg, hotel).
holds(s_11451_jpg, billboard).
holds(s_11451_jpg, sign).
holds(s_11451_jpg, table).
holds(s_11451_jpg, tiledroof).
holds(s_11451_jpg, tiledrooftop).
holds(s_11451_jpg, vendingmachine).
holds(s_11451_jpg, statue).
holds(s_11451_jpg, chimney).
holds(s_11451_jpg, pipe).
holds(s_11451_jpg, machine).
holds(s_11451_jpg, car).
holds(s_11451_jpg, commercial).

sample(s_1283_jpg).
holds(s_1283_jpg, building).
holds(s_1283_jpg, feature).
holds(s_1283_jpg, sign).
holds(s_1283_jpg, table).
holds(s_1283_jpg, tiledrooftop).
holds(s_1283_jpg, vendingmachine).
holds(s_1283_jpg, statue).
holds(s_1283_jpg, pipe).

sample(s_7176_jpg).
holds(s_7176_jpg, building).
holds(s_7176_jpg, feature).
holds(s_7176_jpg, hotel).
holds(s_7176_jpg, door).
holds(s_7176_jpg, billboard).
holds(s_7176_jpg, porch).
holds(s_7176_jpg, sign).
holds(s_7176_jpg, tiledroof).
holds(s_7176_jpg, tiledrooftop).
holds(s_7176_jpg, vendingmachine).
holds(s_7176_jpg, wallsign).
holds(s_7176_jpg, chimney).
holds(s_7176_jpg, pipe).
holds(s_7176_jpg, car).
holds(s_7176_jpg, commercial).

sample(s_11852_jpg).
holds(s_11852_jpg, building).
holds(s_11852_jpg, feature).
holds(s_11852_jpg, sign).
holds(s_11852_jpg, table).
holds(s_11852_jpg, tiledrooftop).
holds(s_11852_jpg, vendingmachine).
holds(s_11852_jpg, statue).
holds(s_11852_jpg, pipe).

sample(s_83_jpg).
holds(s_83_jpg, building).
holds(s_83_jpg, feature).
holds(s_83_jpg, window).
holds(s_83_jpg, porch).
holds(s_83_jpg, table).
holds(s_83_jpg, tiledrooftop).
holds(s_83_jpg, vendingmachine).
holds(s_83_jpg, statue).

sample(s_5203_jpg).
holds(s_5203_jpg, building).
holds(s_5203_jpg, feature).
holds(s_5203_jpg, watertreatment).
holds(s_5203_jpg, door).
holds(s_5203_jpg, billboard).
holds(s_5203_jpg, porch).
holds(s_5203_jpg, sign).
holds(s_5203_jpg, tiledroof).
holds(s_5203_jpg, tiledrooftop).
holds(s_5203_jpg, wallsign).
holds(s_5203_jpg, pipe).
holds(s_5203_jpg, industrial).

sample(s_605_jpg).
holds(s_605_jpg, building).
holds(s_605_jpg, feature).
holds(s_605_jpg, sign).
holds(s_605_jpg, table).
holds(s_605_jpg, tiledrooftop).
holds(s_605_jpg, vendingmachine).
holds(s_605_jpg, statue).
holds(s_605_jpg, pipe).
holds(s_605_jpg, machine).

sample(s_15738_jpg).
holds(s_15738_jpg, building).
holds(s_15738_jpg, feature).
holds(s_15738_jpg, hotel).
holds(s_15738_jpg, billboard).
holds(s_15738_jpg, sign).
holds(s_15738_jpg, table).
holds(s_15738_jpg, tiledroof).
holds(s_15738_jpg, tiledrooftop).
holds(s_15738_jpg, vendingmachine).
holds(s_15738_jpg, wallsign).
holds(s_15738_jpg, chimney).
holds(s_15738_jpg, pipe).
holds(s_15738_jpg, machine).
holds(s_15738_jpg, car).
holds(s_15738_jpg, commercial).

sample(s_10367_jpg).
holds(s_10367_jpg, building).
holds(s_10367_jpg, feature).
holds(s_10367_jpg, window).
holds(s_10367_jpg, porch).
holds(s_10367_jpg, sign).
holds(s_10367_jpg, table).
holds(s_10367_jpg, tiledrooftop).
holds(s_10367_jpg, vendingmachine).
holds(s_10367_jpg, statue).
holds(s_10367_jpg, pipe).

sample(s_9462_jpg).
holds(s_9462_jpg, building).
holds(s_9462_jpg, feature).
holds(s_9462_jpg, hotel).
holds(s_9462_jpg, billboard).
holds(s_9462_jpg, sign).
holds(s_9462_jpg, tiledroof).
holds(s_9462_jpg, tiledrooftop).
holds(s_9462_jpg, wallsign).
holds(s_9462_jpg, chimney).
holds(s_9462_jpg, pipe).
holds(s_9462_jpg, machine).
holds(s_9462_jpg, car).
holds(s_9462_jpg, commercial).

sample(s_9040_jpg).
holds(s_9040_jpg, building).
holds(s_9040_jpg, feature).
holds(s_9040_jpg, watertreatment).
holds(s_9040_jpg, door).
holds(s_9040_jpg, billboard).
holds(s_9040_jpg, porch).
holds(s_9040_jpg, sign).
holds(s_9040_jpg, tiledroof).
holds(s_9040_jpg, wallsign).
holds(s_9040_jpg, industrial).

sample(s_9086_jpg).
holds(s_9086_jpg, building).
holds(s_9086_jpg, feature).
holds(s_9086_jpg, porch).
holds(s_9086_jpg, sign).
holds(s_9086_jpg, table).
holds(s_9086_jpg, tiledrooftop).
holds(s_9086_jpg, vendingmachine).
holds(s_9086_jpg, statue).
holds(s_9086_jpg, pipe).

sample(s_10510_jpg).
holds(s_10510_jpg, building).
holds(s_10510_jpg, feature).
holds(s_10510_jpg, watertreatment).
holds(s_10510_jpg, door).
holds(s_10510_jpg, billboard).
holds(s_10510_jpg, porch).
holds(s_10510_jpg, sign).
holds(s_10510_jpg, tiledroof).
holds(s_10510_jpg, wallsign).
holds(s_10510_jpg, industrial).

sample(s_4456_jpg).
holds(s_4456_jpg, building).
holds(s_4456_jpg, feature).
holds(s_4456_jpg, watertreatment).
holds(s_4456_jpg, door).
holds(s_4456_jpg, billboard).
holds(s_4456_jpg, porch).
holds(s_4456_jpg, sign).
holds(s_4456_jpg, tiledroof).
holds(s_4456_jpg, tiledrooftop).
holds(s_4456_jpg, wallsign).
holds(s_4456_jpg, pipe).
holds(s_4456_jpg, industrial).

sample(s_2240_jpg).
holds(s_2240_jpg, building).
holds(s_2240_jpg, feature).
holds(s_2240_jpg, sign).
holds(s_2240_jpg, table).
holds(s_2240_jpg, tiledrooftop).
holds(s_2240_jpg, vendingmachine).
holds(s_2240_jpg, statue).
holds(s_2240_jpg, pipe).
holds(s_2240_jpg, machine).

sample(s_2402_jpg).
holds(s_2402_jpg, building).
holds(s_2402_jpg, feature).
holds(s_2402_jpg, sign).
holds(s_2402_jpg, table).
holds(s_2402_jpg, tiledrooftop).
holds(s_2402_jpg, vendingmachine).
holds(s_2402_jpg, statue).
holds(s_2402_jpg, pipe).
holds(s_2402_jpg, machine).

sample(s_3016_jpg).
holds(s_3016_jpg, building).
holds(s_3016_jpg, feature).
holds(s_3016_jpg, watertreatment).
holds(s_3016_jpg, door).
holds(s_3016_jpg, billboard).
holds(s_3016_jpg, porch).
holds(s_3016_jpg, sign).
holds(s_3016_jpg, tiledroof).
holds(s_3016_jpg, tiledrooftop).
holds(s_3016_jpg, wallsign).
holds(s_3016_jpg, chimney).
holds(s_3016_jpg, pipe).
holds(s_3016_jpg, industrial).

sample(s_2501_jpg).
holds(s_2501_jpg, building).
holds(s_2501_jpg, feature).
holds(s_2501_jpg, porch).
holds(s_2501_jpg, sign).
holds(s_2501_jpg, table).
holds(s_2501_jpg, tiledrooftop).
holds(s_2501_jpg, vendingmachine).
holds(s_2501_jpg, statue).
holds(s_2501_jpg, pipe).

sample(s_3752_jpg).
holds(s_3752_jpg, building).
holds(s_3752_jpg, feature).
holds(s_3752_jpg, porch).
holds(s_3752_jpg, sign).
holds(s_3752_jpg, table).
holds(s_3752_jpg, tiledrooftop).
holds(s_3752_jpg, vendingmachine).
holds(s_3752_jpg, statue).
holds(s_3752_jpg, pipe).

sample(s_2005_jpg).
holds(s_2005_jpg, building).
holds(s_2005_jpg, feature).
holds(s_2005_jpg, watertreatment).
holds(s_2005_jpg, door).
holds(s_2005_jpg, billboard).
holds(s_2005_jpg, porch).
holds(s_2005_jpg, sign).
holds(s_2005_jpg, tiledroof).
holds(s_2005_jpg, wallsign).
holds(s_2005_jpg, pipe).
holds(s_2005_jpg, industrial).

sample(s_4788_jpg).
holds(s_4788_jpg, building).
holds(s_4788_jpg, feature).
holds(s_4788_jpg, hotel).
holds(s_4788_jpg, door).
holds(s_4788_jpg, billboard).
holds(s_4788_jpg, porch).
holds(s_4788_jpg, sign).
holds(s_4788_jpg, tiledroof).
holds(s_4788_jpg, tiledrooftop).
holds(s_4788_jpg, wallsign).
holds(s_4788_jpg, chimney).
holds(s_4788_jpg, pipe).
holds(s_4788_jpg, car).
holds(s_4788_jpg, commercial).

sample(s_7422_jpg).
holds(s_7422_jpg, building).
holds(s_7422_jpg, feature).
holds(s_7422_jpg, hotel).
holds(s_7422_jpg, door).
holds(s_7422_jpg, billboard).
holds(s_7422_jpg, sign).
holds(s_7422_jpg, tiledroof).
holds(s_7422_jpg, tiledrooftop).
holds(s_7422_jpg, wallsign).
holds(s_7422_jpg, chimney).
holds(s_7422_jpg, pipe).
holds(s_7422_jpg, car).
holds(s_7422_jpg, commercial).

sample(s_5824_jpg).
holds(s_5824_jpg, building).
holds(s_5824_jpg, feature).
holds(s_5824_jpg, watertreatment).
holds(s_5824_jpg, door).
holds(s_5824_jpg, billboard).
holds(s_5824_jpg, porch).
holds(s_5824_jpg, sign).
holds(s_5824_jpg, tiledroof).
holds(s_5824_jpg, wallsign).
holds(s_5824_jpg, industrial).

sample(s_11073_jpg).
holds(s_11073_jpg, building).
holds(s_11073_jpg, feature).
holds(s_11073_jpg, hotel).
holds(s_11073_jpg, door).
holds(s_11073_jpg, billboard).
holds(s_11073_jpg, porch).
holds(s_11073_jpg, sign).
holds(s_11073_jpg, tiledroof).
holds(s_11073_jpg, wallsign).
holds(s_11073_jpg, chimney).
holds(s_11073_jpg, pipe).
holds(s_11073_jpg, car).
holds(s_11073_jpg, commercial).

sample(s_8979_jpg).
holds(s_8979_jpg, building).
holds(s_8979_jpg, feature).
holds(s_8979_jpg, hotel).
holds(s_8979_jpg, door).
holds(s_8979_jpg, billboard).
holds(s_8979_jpg, porch).
holds(s_8979_jpg, sign).
holds(s_8979_jpg, tiledroof).
holds(s_8979_jpg, tiledrooftop).
holds(s_8979_jpg, vendingmachine).
holds(s_8979_jpg, wallsign).
holds(s_8979_jpg, chimney).
holds(s_8979_jpg, pipe).
holds(s_8979_jpg, car).
holds(s_8979_jpg, commercial).

sample(s_13394_jpg).
holds(s_13394_jpg, building).
holds(s_13394_jpg, feature).
holds(s_13394_jpg, porch).
holds(s_13394_jpg, sign).
holds(s_13394_jpg, table).
holds(s_13394_jpg, tiledrooftop).
holds(s_13394_jpg, vendingmachine).
holds(s_13394_jpg, statue).

sample(s_4976_jpg).
holds(s_4976_jpg, building).
holds(s_4976_jpg, feature).
holds(s_4976_jpg, billboard).
holds(s_4976_jpg, porch).
holds(s_4976_jpg, sign).
holds(s_4976_jpg, table).
holds(s_4976_jpg, tiledrooftop).
holds(s_4976_jpg, vendingmachine).
holds(s_4976_jpg, statue).
holds(s_4976_jpg, pipe).

sample(s_4746_jpg).
holds(s_4746_jpg, building).
holds(s_4746_jpg, feature).
holds(s_4746_jpg, hotel).
holds(s_4746_jpg, door).
holds(s_4746_jpg, billboard).
holds(s_4746_jpg, porch).
holds(s_4746_jpg, sign).
holds(s_4746_jpg, tiledroof).
holds(s_4746_jpg, tiledrooftop).
holds(s_4746_jpg, wallsign).
holds(s_4746_jpg, chimney).
holds(s_4746_jpg, pipe).
holds(s_4746_jpg, car).
holds(s_4746_jpg, commercial).

sample(s_7609_jpg).
holds(s_7609_jpg, building).
holds(s_7609_jpg, feature).
holds(s_7609_jpg, watertreatment).
holds(s_7609_jpg, door).
holds(s_7609_jpg, billboard).
holds(s_7609_jpg, porch).
holds(s_7609_jpg, sign).
holds(s_7609_jpg, tiledroof).
holds(s_7609_jpg, wallsign).
holds(s_7609_jpg, industrial).

sample(s_8212_jpg).
holds(s_8212_jpg, building).
holds(s_8212_jpg, feature).
holds(s_8212_jpg, watertreatment).
holds(s_8212_jpg, door).
holds(s_8212_jpg, billboard).
holds(s_8212_jpg, porch).
holds(s_8212_jpg, sign).
holds(s_8212_jpg, tiledroof).
holds(s_8212_jpg, wallsign).
holds(s_8212_jpg, chimney).
holds(s_8212_jpg, pipe).
holds(s_8212_jpg, car).
holds(s_8212_jpg, industrial).

sample(s_14426_jpg).
holds(s_14426_jpg, building).
holds(s_14426_jpg, feature).
holds(s_14426_jpg, sign).
holds(s_14426_jpg, table).
holds(s_14426_jpg, tiledrooftop).
holds(s_14426_jpg, vendingmachine).
holds(s_14426_jpg, statue).
holds(s_14426_jpg, pipe).
holds(s_14426_jpg, machine).

sample(s_14771_jpg).
holds(s_14771_jpg, building).
holds(s_14771_jpg, feature).
holds(s_14771_jpg, sign).
holds(s_14771_jpg, table).
holds(s_14771_jpg, tiledrooftop).
holds(s_14771_jpg, vendingmachine).
holds(s_14771_jpg, statue).
holds(s_14771_jpg, pipe).
holds(s_14771_jpg, machine).

sample(s_11524_jpg).
holds(s_11524_jpg, building).
holds(s_11524_jpg, feature).
holds(s_11524_jpg, watertreatment).
holds(s_11524_jpg, door).
holds(s_11524_jpg, billboard).
holds(s_11524_jpg, porch).
holds(s_11524_jpg, sign).
holds(s_11524_jpg, tiledroof).
holds(s_11524_jpg, wallsign).
holds(s_11524_jpg, chimney).
holds(s_11524_jpg, pipe).
holds(s_11524_jpg, industrial).

sample(s_15999_jpg).
holds(s_15999_jpg, building).
holds(s_15999_jpg, feature).
holds(s_15999_jpg, hotel).
holds(s_15999_jpg, porch).
holds(s_15999_jpg, sign).
holds(s_15999_jpg, table).
holds(s_15999_jpg, tiledroof).
holds(s_15999_jpg, tiledrooftop).
holds(s_15999_jpg, vendingmachine).
holds(s_15999_jpg, statue).
holds(s_15999_jpg, pipe).
holds(s_15999_jpg, commercial).

sample(s_7413_jpg).
holds(s_7413_jpg, building).
holds(s_7413_jpg, feature).
holds(s_7413_jpg, hotel).
holds(s_7413_jpg, door).
holds(s_7413_jpg, billboard).
holds(s_7413_jpg, porch).
holds(s_7413_jpg, sign).
holds(s_7413_jpg, tiledroof).
holds(s_7413_jpg, tiledrooftop).
holds(s_7413_jpg, vendingmachine).
holds(s_7413_jpg, wallsign).
holds(s_7413_jpg, chimney).
holds(s_7413_jpg, pipe).
holds(s_7413_jpg, machine).
holds(s_7413_jpg, car).
holds(s_7413_jpg, commercial).

sample(s_5889_jpg).
holds(s_5889_jpg, building).
holds(s_5889_jpg, feature).
holds(s_5889_jpg, hotel).
holds(s_5889_jpg, door).
holds(s_5889_jpg, billboard).
holds(s_5889_jpg, sign).
holds(s_5889_jpg, tiledroof).
holds(s_5889_jpg, tiledrooftop).
holds(s_5889_jpg, wallsign).
holds(s_5889_jpg, chimney).
holds(s_5889_jpg, pipe).
holds(s_5889_jpg, car).
holds(s_5889_jpg, commercial).

sample(s_10976_jpg).
holds(s_10976_jpg, building).
holds(s_10976_jpg, feature).
holds(s_10976_jpg, sign).
holds(s_10976_jpg, table).
holds(s_10976_jpg, tiledrooftop).
holds(s_10976_jpg, vendingmachine).
holds(s_10976_jpg, statue).
holds(s_10976_jpg, pipe).
holds(s_10976_jpg, machine).

sample(s_683_jpg).
holds(s_683_jpg, building).
holds(s_683_jpg, feature).
holds(s_683_jpg, sign).
holds(s_683_jpg, table).
holds(s_683_jpg, tiledrooftop).
holds(s_683_jpg, vendingmachine).
holds(s_683_jpg, statue).
holds(s_683_jpg, pipe).

sample(s_10727_jpg).
holds(s_10727_jpg, building).
holds(s_10727_jpg, feature).
holds(s_10727_jpg, sign).
holds(s_10727_jpg, table).
holds(s_10727_jpg, tiledrooftop).
holds(s_10727_jpg, vendingmachine).
holds(s_10727_jpg, statue).
holds(s_10727_jpg, pipe).
holds(s_10727_jpg, machine).

sample(s_12153_jpg).
holds(s_12153_jpg, building).
holds(s_12153_jpg, feature).
holds(s_12153_jpg, watertreatment).
holds(s_12153_jpg, door).
holds(s_12153_jpg, billboard).
holds(s_12153_jpg, sign).
holds(s_12153_jpg, tiledroof).
holds(s_12153_jpg, tiledrooftop).
holds(s_12153_jpg, wallsign).
holds(s_12153_jpg, pipe).
holds(s_12153_jpg, industrial).

sample(s_11920_jpg).
holds(s_11920_jpg, building).
holds(s_11920_jpg, feature).
holds(s_11920_jpg, watertreatment).
holds(s_11920_jpg, door).
holds(s_11920_jpg, billboard).
holds(s_11920_jpg, porch).
holds(s_11920_jpg, sign).
holds(s_11920_jpg, tiledroof).
holds(s_11920_jpg, wallsign).
holds(s_11920_jpg, industrial).

sample(s_13095_jpg).
holds(s_13095_jpg, building).
holds(s_13095_jpg, feature).
holds(s_13095_jpg, watertreatment).
holds(s_13095_jpg, door).
holds(s_13095_jpg, billboard).
holds(s_13095_jpg, sign).
holds(s_13095_jpg, tiledroof).
holds(s_13095_jpg, tiledrooftop).
holds(s_13095_jpg, wallsign).
holds(s_13095_jpg, pipe).
holds(s_13095_jpg, industrial).

sample(s_1805_jpg).
holds(s_1805_jpg, building).
holds(s_1805_jpg, feature).
holds(s_1805_jpg, porch).
holds(s_1805_jpg, sign).
holds(s_1805_jpg, table).
holds(s_1805_jpg, tiledrooftop).
holds(s_1805_jpg, vendingmachine).
holds(s_1805_jpg, statue).

sample(s_10251_jpg).
holds(s_10251_jpg, building).
holds(s_10251_jpg, feature).
holds(s_10251_jpg, hotel).
holds(s_10251_jpg, door).
holds(s_10251_jpg, billboard).
holds(s_10251_jpg, porch).
holds(s_10251_jpg, sign).
holds(s_10251_jpg, table).
holds(s_10251_jpg, tiledroof).
holds(s_10251_jpg, tiledrooftop).
holds(s_10251_jpg, vendingmachine).
holds(s_10251_jpg, wallsign).
holds(s_10251_jpg, chimney).
holds(s_10251_jpg, pipe).
holds(s_10251_jpg, machine).
holds(s_10251_jpg, car).
holds(s_10251_jpg, commercial).

sample(s_519_jpg).
holds(s_519_jpg, building).
holds(s_519_jpg, feature).
holds(s_519_jpg, hotel).
holds(s_519_jpg, billboard).
holds(s_519_jpg, sign).
holds(s_519_jpg, table).
holds(s_519_jpg, tiledroof).
holds(s_519_jpg, tiledrooftop).
holds(s_519_jpg, vendingmachine).
holds(s_519_jpg, wallsign).
holds(s_519_jpg, chimney).
holds(s_519_jpg, pipe).
holds(s_519_jpg, machine).
holds(s_519_jpg, car).
holds(s_519_jpg, commercial).

sample(s_947_jpg).
holds(s_947_jpg, building).
holds(s_947_jpg, feature).
holds(s_947_jpg, sign).
holds(s_947_jpg, table).
holds(s_947_jpg, tiledrooftop).
holds(s_947_jpg, vendingmachine).
holds(s_947_jpg, statue).
holds(s_947_jpg, pipe).

sample(s_8823_jpg).
holds(s_8823_jpg, building).
holds(s_8823_jpg, feature).
holds(s_8823_jpg, hotel).
holds(s_8823_jpg, door).
holds(s_8823_jpg, billboard).
holds(s_8823_jpg, porch).
holds(s_8823_jpg, sign).
holds(s_8823_jpg, table).
holds(s_8823_jpg, tiledroof).
holds(s_8823_jpg, tiledrooftop).
holds(s_8823_jpg, vendingmachine).
holds(s_8823_jpg, wallsign).
holds(s_8823_jpg, chimney).
holds(s_8823_jpg, pipe).
holds(s_8823_jpg, car).
holds(s_8823_jpg, commercial).

sample(s_10681_jpg).
holds(s_10681_jpg, building).
holds(s_10681_jpg, feature).
holds(s_10681_jpg, watertreatment).
holds(s_10681_jpg, door).
holds(s_10681_jpg, billboard).
holds(s_10681_jpg, porch).
holds(s_10681_jpg, sign).
holds(s_10681_jpg, tiledroof).
holds(s_10681_jpg, wallsign).
holds(s_10681_jpg, industrial).

sample(s_5577_jpg).
holds(s_5577_jpg, building).
holds(s_5577_jpg, feature).
holds(s_5577_jpg, hotel).
holds(s_5577_jpg, billboard).
holds(s_5577_jpg, porch).
holds(s_5577_jpg, sign).
holds(s_5577_jpg, table).
holds(s_5577_jpg, tiledroof).
holds(s_5577_jpg, tiledrooftop).
holds(s_5577_jpg, vendingmachine).
holds(s_5577_jpg, wallsign).
holds(s_5577_jpg, chimney).
holds(s_5577_jpg, pipe).
holds(s_5577_jpg, machine).
holds(s_5577_jpg, car).
holds(s_5577_jpg, commercial).

sample(s_11829_jpg).
holds(s_11829_jpg, building).
holds(s_11829_jpg, feature).
holds(s_11829_jpg, hotel).
holds(s_11829_jpg, door).
holds(s_11829_jpg, billboard).
holds(s_11829_jpg, porch).
holds(s_11829_jpg, sign).
holds(s_11829_jpg, tiledroof).
holds(s_11829_jpg, tiledrooftop).
holds(s_11829_jpg, wallsign).
holds(s_11829_jpg, chimney).
holds(s_11829_jpg, pipe).
holds(s_11829_jpg, car).
holds(s_11829_jpg, commercial).

sample(s_8449_jpg).
holds(s_8449_jpg, building).
holds(s_8449_jpg, feature).
holds(s_8449_jpg, watertreatment).
holds(s_8449_jpg, door).
holds(s_8449_jpg, billboard).
holds(s_8449_jpg, porch).
holds(s_8449_jpg, sign).
holds(s_8449_jpg, tiledroof).
holds(s_8449_jpg, wallsign).
holds(s_8449_jpg, industrial).

sample(s_7523_jpg).
holds(s_7523_jpg, building).
holds(s_7523_jpg, feature).
holds(s_7523_jpg, porch).
holds(s_7523_jpg, sign).
holds(s_7523_jpg, table).
holds(s_7523_jpg, tiledrooftop).
holds(s_7523_jpg, vendingmachine).
holds(s_7523_jpg, statue).
holds(s_7523_jpg, pipe).
holds(s_7523_jpg, machine).

sample(s_13449_jpg).
holds(s_13449_jpg, building).
holds(s_13449_jpg, feature).
holds(s_13449_jpg, hotel).
holds(s_13449_jpg, billboard).
holds(s_13449_jpg, porch).
holds(s_13449_jpg, sign).
holds(s_13449_jpg, table).
holds(s_13449_jpg, tiledroof).
holds(s_13449_jpg, tiledrooftop).
holds(s_13449_jpg, vendingmachine).
holds(s_13449_jpg, wallsign).
holds(s_13449_jpg, chimney).
holds(s_13449_jpg, pipe).
holds(s_13449_jpg, car).
holds(s_13449_jpg, commercial).

sample(s_14385_jpg).
holds(s_14385_jpg, building).
holds(s_14385_jpg, feature).
holds(s_14385_jpg, hotel).
holds(s_14385_jpg, door).
holds(s_14385_jpg, billboard).
holds(s_14385_jpg, sign).
holds(s_14385_jpg, tiledroof).
holds(s_14385_jpg, tiledrooftop).
holds(s_14385_jpg, wallsign).
holds(s_14385_jpg, chimney).
holds(s_14385_jpg, pipe).
holds(s_14385_jpg, car).
holds(s_14385_jpg, commercial).

sample(s_12616_jpg).
holds(s_12616_jpg, building).
holds(s_12616_jpg, feature).
holds(s_12616_jpg, watertreatment).
holds(s_12616_jpg, door).
holds(s_12616_jpg, billboard).
holds(s_12616_jpg, porch).
holds(s_12616_jpg, sign).
holds(s_12616_jpg, tiledroof).
holds(s_12616_jpg, tiledrooftop).
holds(s_12616_jpg, wallsign).
holds(s_12616_jpg, pipe).
holds(s_12616_jpg, industrial).

sample(s_15870_jpg).
holds(s_15870_jpg, building).
holds(s_15870_jpg, feature).
holds(s_15870_jpg, hotel).
holds(s_15870_jpg, door).
holds(s_15870_jpg, billboard).
holds(s_15870_jpg, porch).
holds(s_15870_jpg, sign).
holds(s_15870_jpg, tiledroof).
holds(s_15870_jpg, tiledrooftop).
holds(s_15870_jpg, vendingmachine).
holds(s_15870_jpg, wallsign).
holds(s_15870_jpg, chimney).
holds(s_15870_jpg, pipe).
holds(s_15870_jpg, machine).
holds(s_15870_jpg, car).
holds(s_15870_jpg, commercial).

sample(s_15129_jpg).
holds(s_15129_jpg, building).
holds(s_15129_jpg, feature).
holds(s_15129_jpg, hotel).
holds(s_15129_jpg, billboard).
holds(s_15129_jpg, sign).
holds(s_15129_jpg, table).
holds(s_15129_jpg, tiledroof).
holds(s_15129_jpg, tiledrooftop).
holds(s_15129_jpg, vendingmachine).
holds(s_15129_jpg, wallsign).
holds(s_15129_jpg, chimney).
holds(s_15129_jpg, pipe).
holds(s_15129_jpg, machine).
holds(s_15129_jpg, car).
holds(s_15129_jpg, commercial).

sample(s_7904_jpg).
holds(s_7904_jpg, building).
holds(s_7904_jpg, feature).
holds(s_7904_jpg, porch).
holds(s_7904_jpg, sign).
holds(s_7904_jpg, table).
holds(s_7904_jpg, tiledrooftop).
holds(s_7904_jpg, vendingmachine).
holds(s_7904_jpg, statue).
holds(s_7904_jpg, pipe).

sample(s_13037_jpg).
holds(s_13037_jpg, building).
holds(s_13037_jpg, feature).
holds(s_13037_jpg, sign).
holds(s_13037_jpg, table).
holds(s_13037_jpg, tiledrooftop).
holds(s_13037_jpg, vendingmachine).
holds(s_13037_jpg, statue).
holds(s_13037_jpg, pipe).
holds(s_13037_jpg, machine).

sample(s_12445_jpg).
holds(s_12445_jpg, building).
holds(s_12445_jpg, feature).
holds(s_12445_jpg, watertreatment).
holds(s_12445_jpg, door).
holds(s_12445_jpg, billboard).
holds(s_12445_jpg, porch).
holds(s_12445_jpg, sign).
holds(s_12445_jpg, tiledroof).
holds(s_12445_jpg, wallsign).
holds(s_12445_jpg, industrial).

sample(s_4596_jpg).
holds(s_4596_jpg, building).
holds(s_4596_jpg, feature).
holds(s_4596_jpg, hotel).
holds(s_4596_jpg, door).
holds(s_4596_jpg, billboard).
holds(s_4596_jpg, porch).
holds(s_4596_jpg, sign).
holds(s_4596_jpg, tiledroof).
holds(s_4596_jpg, tiledrooftop).
holds(s_4596_jpg, wallsign).
holds(s_4596_jpg, chimney).
holds(s_4596_jpg, pipe).
holds(s_4596_jpg, car).
holds(s_4596_jpg, commercial).

sample(s_7505_jpg).
holds(s_7505_jpg, building).
holds(s_7505_jpg, feature).
holds(s_7505_jpg, sign).
holds(s_7505_jpg, table).
holds(s_7505_jpg, tiledrooftop).
holds(s_7505_jpg, vendingmachine).
holds(s_7505_jpg, statue).
holds(s_7505_jpg, pipe).
holds(s_7505_jpg, machine).

sample(s_11842_jpg).
holds(s_11842_jpg, building).
holds(s_11842_jpg, feature).
holds(s_11842_jpg, watertreatment).
holds(s_11842_jpg, door).
holds(s_11842_jpg, billboard).
holds(s_11842_jpg, porch).
holds(s_11842_jpg, sign).
holds(s_11842_jpg, tiledroof).
holds(s_11842_jpg, tiledrooftop).
holds(s_11842_jpg, wallsign).
holds(s_11842_jpg, industrial).

sample(s_861_jpg).
holds(s_861_jpg, building).
holds(s_861_jpg, feature).
holds(s_861_jpg, hotel).
holds(s_861_jpg, door).
holds(s_861_jpg, billboard).
holds(s_861_jpg, porch).
holds(s_861_jpg, sign).
holds(s_861_jpg, tiledroof).
holds(s_861_jpg, tiledrooftop).
holds(s_861_jpg, vendingmachine).
holds(s_861_jpg, wallsign).
holds(s_861_jpg, chimney).
holds(s_861_jpg, pipe).
holds(s_861_jpg, machine).
holds(s_861_jpg, car).
holds(s_861_jpg, commercial).

sample(s_12749_jpg).
holds(s_12749_jpg, building).
holds(s_12749_jpg, feature).
holds(s_12749_jpg, sign).
holds(s_12749_jpg, table).
holds(s_12749_jpg, tiledrooftop).
holds(s_12749_jpg, vendingmachine).
holds(s_12749_jpg, statue).
holds(s_12749_jpg, pipe).
holds(s_12749_jpg, machine).

sample(s_12009_jpg).
holds(s_12009_jpg, building).
holds(s_12009_jpg, feature).
holds(s_12009_jpg, hotel).
holds(s_12009_jpg, door).
holds(s_12009_jpg, billboard).
holds(s_12009_jpg, porch).
holds(s_12009_jpg, sign).
holds(s_12009_jpg, tiledroof).
holds(s_12009_jpg, tiledrooftop).
holds(s_12009_jpg, wallsign).
holds(s_12009_jpg, chimney).
holds(s_12009_jpg, pipe).
holds(s_12009_jpg, car).
holds(s_12009_jpg, commercial).

sample(s_5071_jpg).
holds(s_5071_jpg, building).
holds(s_5071_jpg, feature).
holds(s_5071_jpg, watertreatment).
holds(s_5071_jpg, door).
holds(s_5071_jpg, billboard).
holds(s_5071_jpg, porch).
holds(s_5071_jpg, sign).
holds(s_5071_jpg, tiledroof).
holds(s_5071_jpg, wallsign).
holds(s_5071_jpg, pipe).
holds(s_5071_jpg, industrial).

sample(s_14499_jpg).
holds(s_14499_jpg, building).
holds(s_14499_jpg, feature).
holds(s_14499_jpg, hotel).
holds(s_14499_jpg, door).
holds(s_14499_jpg, billboard).
holds(s_14499_jpg, sign).
holds(s_14499_jpg, tiledroof).
holds(s_14499_jpg, tiledrooftop).
holds(s_14499_jpg, wallsign).
holds(s_14499_jpg, chimney).
holds(s_14499_jpg, pipe).
holds(s_14499_jpg, car).
holds(s_14499_jpg, commercial).

sample(s_11431_jpg).
holds(s_11431_jpg, building).
holds(s_11431_jpg, feature).
holds(s_11431_jpg, watertreatment).
holds(s_11431_jpg, door).
holds(s_11431_jpg, billboard).
holds(s_11431_jpg, porch).
holds(s_11431_jpg, sign).
holds(s_11431_jpg, tiledroof).
holds(s_11431_jpg, tiledrooftop).
holds(s_11431_jpg, wallsign).
holds(s_11431_jpg, pipe).
holds(s_11431_jpg, industrial).

sample(s_6667_jpg).
holds(s_6667_jpg, building).
holds(s_6667_jpg, feature).
holds(s_6667_jpg, watertreatment).
holds(s_6667_jpg, door).
holds(s_6667_jpg, billboard).
holds(s_6667_jpg, porch).
holds(s_6667_jpg, sign).
holds(s_6667_jpg, tiledroof).
holds(s_6667_jpg, wallsign).
holds(s_6667_jpg, industrial).

sample(s_10326_jpg).
holds(s_10326_jpg, building).
holds(s_10326_jpg, feature).
holds(s_10326_jpg, hotel).
holds(s_10326_jpg, door).
holds(s_10326_jpg, billboard).
holds(s_10326_jpg, porch).
holds(s_10326_jpg, sign).
holds(s_10326_jpg, tiledroof).
holds(s_10326_jpg, tiledrooftop).
holds(s_10326_jpg, vendingmachine).
holds(s_10326_jpg, wallsign).
holds(s_10326_jpg, chimney).
holds(s_10326_jpg, pipe).
holds(s_10326_jpg, machine).
holds(s_10326_jpg, car).
holds(s_10326_jpg, commercial).

sample(s_10731_jpg).
holds(s_10731_jpg, building).
holds(s_10731_jpg, feature).
holds(s_10731_jpg, hotel).
holds(s_10731_jpg, billboard).
holds(s_10731_jpg, porch).
holds(s_10731_jpg, sign).
holds(s_10731_jpg, table).
holds(s_10731_jpg, tiledroof).
holds(s_10731_jpg, tiledrooftop).
holds(s_10731_jpg, vendingmachine).
holds(s_10731_jpg, statue).
holds(s_10731_jpg, chimney).
holds(s_10731_jpg, pipe).
holds(s_10731_jpg, machine).
holds(s_10731_jpg, car).
holds(s_10731_jpg, commercial).

sample(s_8794_jpg).
holds(s_8794_jpg, building).
holds(s_8794_jpg, feature).
holds(s_8794_jpg, watertreatment).
holds(s_8794_jpg, door).
holds(s_8794_jpg, billboard).
holds(s_8794_jpg, porch).
holds(s_8794_jpg, sign).
holds(s_8794_jpg, tiledroof).
holds(s_8794_jpg, wallsign).
holds(s_8794_jpg, industrial).

sample(s_9972_jpg).
holds(s_9972_jpg, building).
holds(s_9972_jpg, feature).
holds(s_9972_jpg, hotel).
holds(s_9972_jpg, door).
holds(s_9972_jpg, billboard).
holds(s_9972_jpg, porch).
holds(s_9972_jpg, sign).
holds(s_9972_jpg, tiledroof).
holds(s_9972_jpg, tiledrooftop).
holds(s_9972_jpg, vendingmachine).
holds(s_9972_jpg, wallsign).
holds(s_9972_jpg, chimney).
holds(s_9972_jpg, pipe).
holds(s_9972_jpg, machine).
holds(s_9972_jpg, car).
holds(s_9972_jpg, commercial).

sample(s_9420_jpg).
holds(s_9420_jpg, building).
holds(s_9420_jpg, feature).
holds(s_9420_jpg, hotel).
holds(s_9420_jpg, door).
holds(s_9420_jpg, billboard).
holds(s_9420_jpg, porch).
holds(s_9420_jpg, sign).
holds(s_9420_jpg, tiledroof).
holds(s_9420_jpg, tiledrooftop).
holds(s_9420_jpg, vendingmachine).
holds(s_9420_jpg, wallsign).
holds(s_9420_jpg, chimney).
holds(s_9420_jpg, pipe).
holds(s_9420_jpg, car).
holds(s_9420_jpg, commercial).

sample(s_5719_jpg).
holds(s_5719_jpg, building).
holds(s_5719_jpg, feature).
holds(s_5719_jpg, watertreatment).
holds(s_5719_jpg, door).
holds(s_5719_jpg, billboard).
holds(s_5719_jpg, porch).
holds(s_5719_jpg, sign).
holds(s_5719_jpg, tiledroof).
holds(s_5719_jpg, wallsign).
holds(s_5719_jpg, industrial).

sample(s_11125_jpg).
holds(s_11125_jpg, building).
holds(s_11125_jpg, feature).
holds(s_11125_jpg, watertreatment).
holds(s_11125_jpg, door).
holds(s_11125_jpg, billboard).
holds(s_11125_jpg, porch).
holds(s_11125_jpg, sign).
holds(s_11125_jpg, tiledroof).
holds(s_11125_jpg, tiledrooftop).
holds(s_11125_jpg, wallsign).
holds(s_11125_jpg, chimney).
holds(s_11125_jpg, pipe).
holds(s_11125_jpg, industrial).

sample(s_12236_jpg).
holds(s_12236_jpg, building).
holds(s_12236_jpg, feature).
holds(s_12236_jpg, sign).
holds(s_12236_jpg, table).
holds(s_12236_jpg, tiledrooftop).
holds(s_12236_jpg, vendingmachine).
holds(s_12236_jpg, statue).
holds(s_12236_jpg, pipe).
holds(s_12236_jpg, machine).

sample(s_2931_jpg).
holds(s_2931_jpg, building).
holds(s_2931_jpg, feature).
holds(s_2931_jpg, hotel).
holds(s_2931_jpg, billboard).
holds(s_2931_jpg, porch).
holds(s_2931_jpg, sign).
holds(s_2931_jpg, table).
holds(s_2931_jpg, tiledroof).
holds(s_2931_jpg, tiledrooftop).
holds(s_2931_jpg, vendingmachine).
holds(s_2931_jpg, statue).
holds(s_2931_jpg, chimney).
holds(s_2931_jpg, pipe).
holds(s_2931_jpg, machine).
holds(s_2931_jpg, car).
holds(s_2931_jpg, commercial).

sample(s_1461_jpg).
holds(s_1461_jpg, building).
holds(s_1461_jpg, feature).
holds(s_1461_jpg, hotel).
holds(s_1461_jpg, door).
holds(s_1461_jpg, billboard).
holds(s_1461_jpg, porch).
holds(s_1461_jpg, sign).
holds(s_1461_jpg, tiledroof).
holds(s_1461_jpg, tiledrooftop).
holds(s_1461_jpg, vendingmachine).
holds(s_1461_jpg, wallsign).
holds(s_1461_jpg, chimney).
holds(s_1461_jpg, pipe).
holds(s_1461_jpg, car).
holds(s_1461_jpg, commercial).

sample(s_10524_jpg).
holds(s_10524_jpg, building).
holds(s_10524_jpg, feature).
holds(s_10524_jpg, hotel).
holds(s_10524_jpg, billboard).
holds(s_10524_jpg, sign).
holds(s_10524_jpg, tiledroof).
holds(s_10524_jpg, tiledrooftop).
holds(s_10524_jpg, chimney).
holds(s_10524_jpg, pipe).
holds(s_10524_jpg, car).
holds(s_10524_jpg, commercial).

sample(s_5121_jpg).
holds(s_5121_jpg, building).
holds(s_5121_jpg, feature).
holds(s_5121_jpg, billboard).
holds(s_5121_jpg, porch).
holds(s_5121_jpg, sign).
holds(s_5121_jpg, table).
holds(s_5121_jpg, tiledrooftop).
holds(s_5121_jpg, vendingmachine).
holds(s_5121_jpg, statue).
holds(s_5121_jpg, pipe).

sample(s_7043_jpg).
holds(s_7043_jpg, building).
holds(s_7043_jpg, feature).
holds(s_7043_jpg, porch).
holds(s_7043_jpg, sign).
holds(s_7043_jpg, table).
holds(s_7043_jpg, tiledrooftop).
holds(s_7043_jpg, vendingmachine).
holds(s_7043_jpg, statue).
holds(s_7043_jpg, pipe).

sample(s_2310_jpg).
holds(s_2310_jpg, building).
holds(s_2310_jpg, feature).
holds(s_2310_jpg, hotel).
holds(s_2310_jpg, door).
holds(s_2310_jpg, billboard).
holds(s_2310_jpg, porch).
holds(s_2310_jpg, sign).
holds(s_2310_jpg, tiledroof).
holds(s_2310_jpg, tiledrooftop).
holds(s_2310_jpg, vendingmachine).
holds(s_2310_jpg, wallsign).
holds(s_2310_jpg, chimney).
holds(s_2310_jpg, pipe).
holds(s_2310_jpg, car).
holds(s_2310_jpg, commercial).

sample(s_5417_jpg).
holds(s_5417_jpg, building).
holds(s_5417_jpg, feature).
holds(s_5417_jpg, sign).
holds(s_5417_jpg, table).
holds(s_5417_jpg, tiledrooftop).
holds(s_5417_jpg, vendingmachine).
holds(s_5417_jpg, statue).
holds(s_5417_jpg, pipe).

sample(s_14099_jpg).
holds(s_14099_jpg, building).
holds(s_14099_jpg, feature).
holds(s_14099_jpg, sign).
holds(s_14099_jpg, table).
holds(s_14099_jpg, tiledrooftop).
holds(s_14099_jpg, vendingmachine).
holds(s_14099_jpg, statue).
holds(s_14099_jpg, pipe).

sample(s_1004_jpg).
holds(s_1004_jpg, building).
holds(s_1004_jpg, feature).
holds(s_1004_jpg, sign).
holds(s_1004_jpg, table).
holds(s_1004_jpg, tiledrooftop).
holds(s_1004_jpg, vendingmachine).
holds(s_1004_jpg, statue).
holds(s_1004_jpg, pipe).
holds(s_1004_jpg, machine).

sample(s_671_jpg).
holds(s_671_jpg, building).
holds(s_671_jpg, feature).
holds(s_671_jpg, sign).
holds(s_671_jpg, table).
holds(s_671_jpg, tiledrooftop).
holds(s_671_jpg, vendingmachine).
holds(s_671_jpg, statue).
holds(s_671_jpg, pipe).

sample(s_6661_jpg).
holds(s_6661_jpg, building).
holds(s_6661_jpg, feature).
holds(s_6661_jpg, watertreatment).
holds(s_6661_jpg, door).
holds(s_6661_jpg, billboard).
holds(s_6661_jpg, porch).
holds(s_6661_jpg, sign).
holds(s_6661_jpg, tiledroof).
holds(s_6661_jpg, wallsign).
holds(s_6661_jpg, pipe).
holds(s_6661_jpg, industrial).

sample(s_2979_jpg).
holds(s_2979_jpg, building).
holds(s_2979_jpg, feature).
holds(s_2979_jpg, hotel).
holds(s_2979_jpg, door).
holds(s_2979_jpg, billboard).
holds(s_2979_jpg, porch).
holds(s_2979_jpg, sign).
holds(s_2979_jpg, tiledroof).
holds(s_2979_jpg, tiledrooftop).
holds(s_2979_jpg, wallsign).
holds(s_2979_jpg, chimney).
holds(s_2979_jpg, pipe).
holds(s_2979_jpg, car).
holds(s_2979_jpg, commercial).

sample(s_15053_jpg).
holds(s_15053_jpg, building).
holds(s_15053_jpg, feature).
holds(s_15053_jpg, porch).
holds(s_15053_jpg, sign).
holds(s_15053_jpg, table).
holds(s_15053_jpg, tiledrooftop).
holds(s_15053_jpg, vendingmachine).
holds(s_15053_jpg, statue).
holds(s_15053_jpg, pipe).

sample(s_766_jpg).
holds(s_766_jpg, building).
holds(s_766_jpg, feature).
holds(s_766_jpg, watertreatment).
holds(s_766_jpg, door).
holds(s_766_jpg, billboard).
holds(s_766_jpg, porch).
holds(s_766_jpg, sign).
holds(s_766_jpg, tiledroof).
holds(s_766_jpg, tiledrooftop).
holds(s_766_jpg, wallsign).
holds(s_766_jpg, pipe).
holds(s_766_jpg, industrial).

sample(s_13044_jpg).
holds(s_13044_jpg, building).
holds(s_13044_jpg, feature).
holds(s_13044_jpg, hotel).
holds(s_13044_jpg, billboard).
holds(s_13044_jpg, sign).
holds(s_13044_jpg, tiledroof).
holds(s_13044_jpg, tiledrooftop).
holds(s_13044_jpg, vendingmachine).
holds(s_13044_jpg, wallsign).
holds(s_13044_jpg, chimney).
holds(s_13044_jpg, pipe).
holds(s_13044_jpg, machine).
holds(s_13044_jpg, car).
holds(s_13044_jpg, commercial).

sample(s_10119_jpg).
holds(s_10119_jpg, building).
holds(s_10119_jpg, feature).
holds(s_10119_jpg, hotel).
holds(s_10119_jpg, porch).
holds(s_10119_jpg, sign).
holds(s_10119_jpg, table).
holds(s_10119_jpg, tiledrooftop).
holds(s_10119_jpg, vendingmachine).
holds(s_10119_jpg, statue).
holds(s_10119_jpg, pipe).
holds(s_10119_jpg, machine).
holds(s_10119_jpg, commercial).

sample(s_3695_jpg).
holds(s_3695_jpg, building).
holds(s_3695_jpg, feature).
holds(s_3695_jpg, sign).
holds(s_3695_jpg, table).
holds(s_3695_jpg, tiledrooftop).
holds(s_3695_jpg, vendingmachine).
holds(s_3695_jpg, statue).
holds(s_3695_jpg, pipe).

sample(s_1865_jpg).
holds(s_1865_jpg, building).
holds(s_1865_jpg, feature).
holds(s_1865_jpg, sign).
holds(s_1865_jpg, table).
holds(s_1865_jpg, tiledrooftop).
holds(s_1865_jpg, vendingmachine).
holds(s_1865_jpg, statue).
holds(s_1865_jpg, pipe).

sample(s_5112_jpg).
holds(s_5112_jpg, building).
holds(s_5112_jpg, feature).
holds(s_5112_jpg, hotel).
holds(s_5112_jpg, porch).
holds(s_5112_jpg, sign).
holds(s_5112_jpg, table).
holds(s_5112_jpg, tiledroof).
holds(s_5112_jpg, vendingmachine).
holds(s_5112_jpg, statue).
holds(s_5112_jpg, pipe).
holds(s_5112_jpg, commercial).

sample(s_13726_jpg).
holds(s_13726_jpg, building).
holds(s_13726_jpg, feature).
holds(s_13726_jpg, watertreatment).
holds(s_13726_jpg, door).
holds(s_13726_jpg, billboard).
holds(s_13726_jpg, porch).
holds(s_13726_jpg, sign).
holds(s_13726_jpg, tiledroof).
holds(s_13726_jpg, tiledrooftop).
holds(s_13726_jpg, wallsign).
holds(s_13726_jpg, industrial).

sample(s_1130_jpg).
holds(s_1130_jpg, building).
holds(s_1130_jpg, feature).
holds(s_1130_jpg, sign).
holds(s_1130_jpg, table).
holds(s_1130_jpg, tiledrooftop).
holds(s_1130_jpg, vendingmachine).
holds(s_1130_jpg, statue).
holds(s_1130_jpg, pipe).

sample(s_14421_jpg).
holds(s_14421_jpg, building).
holds(s_14421_jpg, feature).
holds(s_14421_jpg, hotel).
holds(s_14421_jpg, billboard).
holds(s_14421_jpg, sign).
holds(s_14421_jpg, tiledroof).
holds(s_14421_jpg, tiledrooftop).
holds(s_14421_jpg, chimney).
holds(s_14421_jpg, pipe).
holds(s_14421_jpg, commercial).

sample(s_3271_jpg).
holds(s_3271_jpg, building).
holds(s_3271_jpg, feature).
holds(s_3271_jpg, watertreatment).
holds(s_3271_jpg, door).
holds(s_3271_jpg, billboard).
holds(s_3271_jpg, porch).
holds(s_3271_jpg, sign).
holds(s_3271_jpg, tiledroof).
holds(s_3271_jpg, tiledrooftop).
holds(s_3271_jpg, wallsign).
holds(s_3271_jpg, industrial).

sample(s_7676_jpg).
holds(s_7676_jpg, building).
holds(s_7676_jpg, feature).
holds(s_7676_jpg, window).
holds(s_7676_jpg, porch).
holds(s_7676_jpg, sign).
holds(s_7676_jpg, table).
holds(s_7676_jpg, tiledrooftop).
holds(s_7676_jpg, vendingmachine).
holds(s_7676_jpg, statue).
holds(s_7676_jpg, pipe).

sample(s_13144_jpg).
holds(s_13144_jpg, building).
holds(s_13144_jpg, feature).
holds(s_13144_jpg, watertreatment).
holds(s_13144_jpg, door).
holds(s_13144_jpg, billboard).
holds(s_13144_jpg, porch).
holds(s_13144_jpg, sign).
holds(s_13144_jpg, tiledroof).
holds(s_13144_jpg, tiledrooftop).
holds(s_13144_jpg, wallsign).
holds(s_13144_jpg, pipe).
holds(s_13144_jpg, industrial).

sample(s_13994_jpg).
holds(s_13994_jpg, building).
holds(s_13994_jpg, feature).
holds(s_13994_jpg, billboard).
holds(s_13994_jpg, sign).
holds(s_13994_jpg, table).
holds(s_13994_jpg, tiledrooftop).
holds(s_13994_jpg, vendingmachine).
holds(s_13994_jpg, statue).
holds(s_13994_jpg, pipe).
holds(s_13994_jpg, machine).

sample(s_5836_jpg).
holds(s_5836_jpg, building).
holds(s_5836_jpg, feature).
holds(s_5836_jpg, watertreatment).
holds(s_5836_jpg, door).
holds(s_5836_jpg, billboard).
holds(s_5836_jpg, porch).
holds(s_5836_jpg, sign).
holds(s_5836_jpg, tiledroof).
holds(s_5836_jpg, tiledrooftop).
holds(s_5836_jpg, wallsign).
holds(s_5836_jpg, pipe).
holds(s_5836_jpg, industrial).

sample(s_2665_jpg).
holds(s_2665_jpg, building).
holds(s_2665_jpg, feature).
holds(s_2665_jpg, watertreatment).
holds(s_2665_jpg, door).
holds(s_2665_jpg, billboard).
holds(s_2665_jpg, porch).
holds(s_2665_jpg, sign).
holds(s_2665_jpg, tiledroof).
holds(s_2665_jpg, wallsign).
holds(s_2665_jpg, pipe).
holds(s_2665_jpg, industrial).

sample(s_14842_jpg).
holds(s_14842_jpg, building).
holds(s_14842_jpg, feature).
holds(s_14842_jpg, watertreatment).
holds(s_14842_jpg, door).
holds(s_14842_jpg, billboard).
holds(s_14842_jpg, porch).
holds(s_14842_jpg, sign).
holds(s_14842_jpg, tiledroof).
holds(s_14842_jpg, tiledrooftop).
holds(s_14842_jpg, wallsign).
holds(s_14842_jpg, industrial).

sample(s_11728_jpg).
holds(s_11728_jpg, building).
holds(s_11728_jpg, feature).
holds(s_11728_jpg, watertreatment).
holds(s_11728_jpg, door).
holds(s_11728_jpg, billboard).
holds(s_11728_jpg, porch).
holds(s_11728_jpg, sign).
holds(s_11728_jpg, tiledroof).
holds(s_11728_jpg, wallsign).
holds(s_11728_jpg, industrial).

sample(s_7488_jpg).
holds(s_7488_jpg, building).
holds(s_7488_jpg, feature).
holds(s_7488_jpg, hotel).
holds(s_7488_jpg, door).
holds(s_7488_jpg, billboard).
holds(s_7488_jpg, porch).
holds(s_7488_jpg, sign).
holds(s_7488_jpg, tiledroof).
holds(s_7488_jpg, tiledrooftop).
holds(s_7488_jpg, vendingmachine).
holds(s_7488_jpg, wallsign).
holds(s_7488_jpg, chimney).
holds(s_7488_jpg, pipe).
holds(s_7488_jpg, machine).
holds(s_7488_jpg, car).
holds(s_7488_jpg, commercial).

sample(s_5073_jpg).
holds(s_5073_jpg, building).
holds(s_5073_jpg, feature).
holds(s_5073_jpg, hotel).
holds(s_5073_jpg, door).
holds(s_5073_jpg, billboard).
holds(s_5073_jpg, porch).
holds(s_5073_jpg, sign).
holds(s_5073_jpg, table).
holds(s_5073_jpg, tiledroof).
holds(s_5073_jpg, tiledrooftop).
holds(s_5073_jpg, vendingmachine).
holds(s_5073_jpg, wallsign).
holds(s_5073_jpg, chimney).
holds(s_5073_jpg, pipe).
holds(s_5073_jpg, car).
holds(s_5073_jpg, commercial).

sample(s_5580_jpg).
holds(s_5580_jpg, building).
holds(s_5580_jpg, feature).
holds(s_5580_jpg, hotel).
holds(s_5580_jpg, door).
holds(s_5580_jpg, billboard).
holds(s_5580_jpg, porch).
holds(s_5580_jpg, sign).
holds(s_5580_jpg, tiledroof).
holds(s_5580_jpg, tiledrooftop).
holds(s_5580_jpg, wallsign).
holds(s_5580_jpg, chimney).
holds(s_5580_jpg, pipe).
holds(s_5580_jpg, car).
holds(s_5580_jpg, commercial).

sample(s_3473_jpg).
holds(s_3473_jpg, building).
holds(s_3473_jpg, feature).
holds(s_3473_jpg, sign).
holds(s_3473_jpg, table).
holds(s_3473_jpg, tiledrooftop).
holds(s_3473_jpg, vendingmachine).
holds(s_3473_jpg, statue).
holds(s_3473_jpg, pipe).

sample(s_14943_jpg).
holds(s_14943_jpg, building).
holds(s_14943_jpg, feature).
holds(s_14943_jpg, hotel).
holds(s_14943_jpg, billboard).
holds(s_14943_jpg, porch).
holds(s_14943_jpg, sign).
holds(s_14943_jpg, table).
holds(s_14943_jpg, tiledroof).
holds(s_14943_jpg, tiledrooftop).
holds(s_14943_jpg, vendingmachine).
holds(s_14943_jpg, wallsign).
holds(s_14943_jpg, chimney).
holds(s_14943_jpg, pipe).
holds(s_14943_jpg, car).
holds(s_14943_jpg, commercial).

sample(s_1752_jpg).
holds(s_1752_jpg, building).
holds(s_1752_jpg, feature).
holds(s_1752_jpg, hotel).
holds(s_1752_jpg, billboard).
holds(s_1752_jpg, sign).
holds(s_1752_jpg, tiledroof).
holds(s_1752_jpg, tiledrooftop).
holds(s_1752_jpg, wallsign).
holds(s_1752_jpg, chimney).
holds(s_1752_jpg, pipe).
holds(s_1752_jpg, machine).
holds(s_1752_jpg, car).
holds(s_1752_jpg, commercial).

sample(s_4735_jpg).
holds(s_4735_jpg, building).
holds(s_4735_jpg, feature).
holds(s_4735_jpg, watertreatment).
holds(s_4735_jpg, door).
holds(s_4735_jpg, billboard).
holds(s_4735_jpg, porch).
holds(s_4735_jpg, sign).
holds(s_4735_jpg, tiledroof).
holds(s_4735_jpg, tiledrooftop).
holds(s_4735_jpg, wallsign).
holds(s_4735_jpg, pipe).
holds(s_4735_jpg, industrial).

sample(s_14192_jpg).
holds(s_14192_jpg, building).
holds(s_14192_jpg, feature).
holds(s_14192_jpg, sign).
holds(s_14192_jpg, table).
holds(s_14192_jpg, tiledrooftop).
holds(s_14192_jpg, vendingmachine).
holds(s_14192_jpg, statue).
holds(s_14192_jpg, pipe).

sample(s_14933_jpg).
holds(s_14933_jpg, building).
holds(s_14933_jpg, feature).
holds(s_14933_jpg, sign).
holds(s_14933_jpg, table).
holds(s_14933_jpg, tiledrooftop).
holds(s_14933_jpg, vendingmachine).
holds(s_14933_jpg, statue).
holds(s_14933_jpg, pipe).
holds(s_14933_jpg, machine).

sample(s_2579_jpg).
holds(s_2579_jpg, building).
holds(s_2579_jpg, feature).
holds(s_2579_jpg, sign).
holds(s_2579_jpg, table).
holds(s_2579_jpg, tiledrooftop).
holds(s_2579_jpg, vendingmachine).
holds(s_2579_jpg, statue).
holds(s_2579_jpg, pipe).
holds(s_2579_jpg, machine).

sample(s_9385_jpg).
holds(s_9385_jpg, building).
holds(s_9385_jpg, feature).
holds(s_9385_jpg, watertreatment).
holds(s_9385_jpg, door).
holds(s_9385_jpg, billboard).
holds(s_9385_jpg, porch).
holds(s_9385_jpg, sign).
holds(s_9385_jpg, tiledroof).
holds(s_9385_jpg, wallsign).
holds(s_9385_jpg, pipe).
holds(s_9385_jpg, industrial).

sample(s_2468_jpg).
holds(s_2468_jpg, building).
holds(s_2468_jpg, feature).
holds(s_2468_jpg, porch).
holds(s_2468_jpg, sign).
holds(s_2468_jpg, table).
holds(s_2468_jpg, tiledrooftop).
holds(s_2468_jpg, vendingmachine).
holds(s_2468_jpg, statue).
holds(s_2468_jpg, pipe).

sample(s_10740_jpg).
holds(s_10740_jpg, building).
holds(s_10740_jpg, feature).
holds(s_10740_jpg, hotel).
holds(s_10740_jpg, door).
holds(s_10740_jpg, billboard).
holds(s_10740_jpg, porch).
holds(s_10740_jpg, sign).
holds(s_10740_jpg, tiledroof).
holds(s_10740_jpg, tiledrooftop).
holds(s_10740_jpg, vendingmachine).
holds(s_10740_jpg, wallsign).
holds(s_10740_jpg, chimney).
holds(s_10740_jpg, pipe).
holds(s_10740_jpg, car).
holds(s_10740_jpg, commercial).

sample(s_7019_jpg).
holds(s_7019_jpg, building).
holds(s_7019_jpg, feature).
holds(s_7019_jpg, sign).
holds(s_7019_jpg, table).
holds(s_7019_jpg, tiledrooftop).
holds(s_7019_jpg, vendingmachine).
holds(s_7019_jpg, statue).
holds(s_7019_jpg, pipe).
holds(s_7019_jpg, machine).

sample(s_9256_jpg).
holds(s_9256_jpg, building).
holds(s_9256_jpg, feature).
holds(s_9256_jpg, watertreatment).
holds(s_9256_jpg, door).
holds(s_9256_jpg, billboard).
holds(s_9256_jpg, porch).
holds(s_9256_jpg, sign).
holds(s_9256_jpg, tiledroof).
holds(s_9256_jpg, wallsign).
holds(s_9256_jpg, chimney).
holds(s_9256_jpg, pipe).
holds(s_9256_jpg, industrial).

sample(s_14052_jpg).
holds(s_14052_jpg, building).
holds(s_14052_jpg, feature).
holds(s_14052_jpg, hotel).
holds(s_14052_jpg, billboard).
holds(s_14052_jpg, porch).
holds(s_14052_jpg, sign).
holds(s_14052_jpg, table).
holds(s_14052_jpg, tiledroof).
holds(s_14052_jpg, tiledrooftop).
holds(s_14052_jpg, vendingmachine).
holds(s_14052_jpg, statue).
holds(s_14052_jpg, chimney).
holds(s_14052_jpg, pipe).
holds(s_14052_jpg, machine).
holds(s_14052_jpg, car).
holds(s_14052_jpg, commercial).

sample(s_4577_jpg).
holds(s_4577_jpg, building).
holds(s_4577_jpg, feature).
holds(s_4577_jpg, window).
holds(s_4577_jpg, porch).
holds(s_4577_jpg, table).
holds(s_4577_jpg, tiledrooftop).
holds(s_4577_jpg, vendingmachine).
holds(s_4577_jpg, statue).
holds(s_4577_jpg, pipe).

sample(s_15214_jpg).
holds(s_15214_jpg, building).
holds(s_15214_jpg, feature).
holds(s_15214_jpg, watertreatment).
holds(s_15214_jpg, door).
holds(s_15214_jpg, billboard).
holds(s_15214_jpg, porch).
holds(s_15214_jpg, sign).
holds(s_15214_jpg, tiledroof).
holds(s_15214_jpg, wallsign).
holds(s_15214_jpg, industrial).

sample(s_7755_jpg).
holds(s_7755_jpg, building).
holds(s_7755_jpg, feature).
holds(s_7755_jpg, hotel).
holds(s_7755_jpg, door).
holds(s_7755_jpg, billboard).
holds(s_7755_jpg, porch).
holds(s_7755_jpg, sign).
holds(s_7755_jpg, tiledroof).
holds(s_7755_jpg, tiledrooftop).
holds(s_7755_jpg, wallsign).
holds(s_7755_jpg, chimney).
holds(s_7755_jpg, pipe).
holds(s_7755_jpg, car).
holds(s_7755_jpg, commercial).

sample(s_10936_jpg).
holds(s_10936_jpg, building).
holds(s_10936_jpg, feature).
holds(s_10936_jpg, watertreatment).
holds(s_10936_jpg, door).
holds(s_10936_jpg, billboard).
holds(s_10936_jpg, porch).
holds(s_10936_jpg, sign).
holds(s_10936_jpg, tiledroof).
holds(s_10936_jpg, tiledrooftop).
holds(s_10936_jpg, wallsign).
holds(s_10936_jpg, industrial).

sample(s_12464_jpg).
holds(s_12464_jpg, building).
holds(s_12464_jpg, feature).
holds(s_12464_jpg, sign).
holds(s_12464_jpg, table).
holds(s_12464_jpg, tiledrooftop).
holds(s_12464_jpg, vendingmachine).
holds(s_12464_jpg, statue).
holds(s_12464_jpg, pipe).
holds(s_12464_jpg, machine).

sample(s_12031_jpg).
holds(s_12031_jpg, building).
holds(s_12031_jpg, feature).
holds(s_12031_jpg, watertreatment).
holds(s_12031_jpg, door).
holds(s_12031_jpg, billboard).
holds(s_12031_jpg, porch).
holds(s_12031_jpg, sign).
holds(s_12031_jpg, tiledroof).
holds(s_12031_jpg, wallsign).
holds(s_12031_jpg, industrial).

sample(s_10391_jpg).
holds(s_10391_jpg, building).
holds(s_10391_jpg, feature).
holds(s_10391_jpg, sign).
holds(s_10391_jpg, table).
holds(s_10391_jpg, tiledrooftop).
holds(s_10391_jpg, vendingmachine).
holds(s_10391_jpg, statue).
holds(s_10391_jpg, pipe).

sample(s_1387_jpg).
holds(s_1387_jpg, building).
holds(s_1387_jpg, feature).
holds(s_1387_jpg, watertreatment).
holds(s_1387_jpg, door).
holds(s_1387_jpg, billboard).
holds(s_1387_jpg, porch).
holds(s_1387_jpg, sign).
holds(s_1387_jpg, tiledroof).
holds(s_1387_jpg, tiledrooftop).
holds(s_1387_jpg, wallsign).
holds(s_1387_jpg, industrial).

sample(s_2487_jpg).
holds(s_2487_jpg, building).
holds(s_2487_jpg, feature).
holds(s_2487_jpg, hotel).
holds(s_2487_jpg, billboard).
holds(s_2487_jpg, sign).
holds(s_2487_jpg, table).
holds(s_2487_jpg, tiledroof).
holds(s_2487_jpg, tiledrooftop).
holds(s_2487_jpg, vendingmachine).
holds(s_2487_jpg, statue).
holds(s_2487_jpg, pipe).
holds(s_2487_jpg, commercial).

sample(s_4748_jpg).
holds(s_4748_jpg, building).
holds(s_4748_jpg, feature).
holds(s_4748_jpg, porch).
holds(s_4748_jpg, sign).
holds(s_4748_jpg, table).
holds(s_4748_jpg, tiledrooftop).
holds(s_4748_jpg, vendingmachine).
holds(s_4748_jpg, statue).
holds(s_4748_jpg, pipe).
holds(s_4748_jpg, machine).

sample(s_11230_jpg).
holds(s_11230_jpg, building).
holds(s_11230_jpg, feature).
holds(s_11230_jpg, watertreatment).
holds(s_11230_jpg, door).
holds(s_11230_jpg, billboard).
holds(s_11230_jpg, porch).
holds(s_11230_jpg, sign).
holds(s_11230_jpg, tiledroof).
holds(s_11230_jpg, tiledrooftop).
holds(s_11230_jpg, wallsign).
holds(s_11230_jpg, pipe).
holds(s_11230_jpg, industrial).

sample(s_13765_jpg).
holds(s_13765_jpg, building).
holds(s_13765_jpg, feature).
holds(s_13765_jpg, watertreatment).
holds(s_13765_jpg, door).
holds(s_13765_jpg, billboard).
holds(s_13765_jpg, porch).
holds(s_13765_jpg, sign).
holds(s_13765_jpg, tiledroof).
holds(s_13765_jpg, wallsign).
holds(s_13765_jpg, industrial).

sample(s_10409_jpg).
holds(s_10409_jpg, building).
holds(s_10409_jpg, feature).
holds(s_10409_jpg, sign).
holds(s_10409_jpg, table).
holds(s_10409_jpg, tiledrooftop).
holds(s_10409_jpg, vendingmachine).
holds(s_10409_jpg, statue).
holds(s_10409_jpg, pipe).

sample(s_2279_jpg).
holds(s_2279_jpg, building).
holds(s_2279_jpg, feature).
holds(s_2279_jpg, porch).
holds(s_2279_jpg, sign).
holds(s_2279_jpg, table).
holds(s_2279_jpg, tiledrooftop).
holds(s_2279_jpg, vendingmachine).
holds(s_2279_jpg, statue).
holds(s_2279_jpg, pipe).

sample(s_9505_jpg).
holds(s_9505_jpg, building).
holds(s_9505_jpg, feature).
holds(s_9505_jpg, watertreatment).
holds(s_9505_jpg, door).
holds(s_9505_jpg, billboard).
holds(s_9505_jpg, sign).
holds(s_9505_jpg, tiledroof).
holds(s_9505_jpg, tiledrooftop).
holds(s_9505_jpg, wallsign).
holds(s_9505_jpg, pipe).
holds(s_9505_jpg, industrial).

sample(s_5691_jpg).
holds(s_5691_jpg, building).
holds(s_5691_jpg, feature).
holds(s_5691_jpg, hotel).
holds(s_5691_jpg, door).
holds(s_5691_jpg, billboard).
holds(s_5691_jpg, porch).
holds(s_5691_jpg, sign).
holds(s_5691_jpg, tiledroof).
holds(s_5691_jpg, tiledrooftop).
holds(s_5691_jpg, wallsign).
holds(s_5691_jpg, chimney).
holds(s_5691_jpg, pipe).
holds(s_5691_jpg, car).
holds(s_5691_jpg, commercial).

sample(s_8023_jpg).
holds(s_8023_jpg, building).
holds(s_8023_jpg, feature).
holds(s_8023_jpg, watertreatment).
holds(s_8023_jpg, door).
holds(s_8023_jpg, billboard).
holds(s_8023_jpg, porch).
holds(s_8023_jpg, sign).
holds(s_8023_jpg, tiledroof).
holds(s_8023_jpg, tiledrooftop).
holds(s_8023_jpg, wallsign).
holds(s_8023_jpg, pipe).
holds(s_8023_jpg, industrial).

sample(s_15160_jpg).
holds(s_15160_jpg, building).
holds(s_15160_jpg, feature).
holds(s_15160_jpg, watertreatment).
holds(s_15160_jpg, door).
holds(s_15160_jpg, billboard).
holds(s_15160_jpg, porch).
holds(s_15160_jpg, sign).
holds(s_15160_jpg, tiledroof).
holds(s_15160_jpg, wallsign).
holds(s_15160_jpg, industrial).

sample(s_717_jpg).
holds(s_717_jpg, building).
holds(s_717_jpg, feature).
holds(s_717_jpg, hotel).
holds(s_717_jpg, door).
holds(s_717_jpg, billboard).
holds(s_717_jpg, porch).
holds(s_717_jpg, sign).
holds(s_717_jpg, tiledroof).
holds(s_717_jpg, tiledrooftop).
holds(s_717_jpg, vendingmachine).
holds(s_717_jpg, wallsign).
holds(s_717_jpg, chimney).
holds(s_717_jpg, pipe).
holds(s_717_jpg, machine).
holds(s_717_jpg, car).
holds(s_717_jpg, commercial).

sample(s_14729_jpg).
holds(s_14729_jpg, building).
holds(s_14729_jpg, feature).
holds(s_14729_jpg, sign).
holds(s_14729_jpg, table).
holds(s_14729_jpg, tiledrooftop).
holds(s_14729_jpg, vendingmachine).
holds(s_14729_jpg, statue).
holds(s_14729_jpg, pipe).

sample(s_3858_jpg).
holds(s_3858_jpg, building).
holds(s_3858_jpg, feature).
holds(s_3858_jpg, hotel).
holds(s_3858_jpg, billboard).
holds(s_3858_jpg, porch).
holds(s_3858_jpg, sign).
holds(s_3858_jpg, table).
holds(s_3858_jpg, tiledroof).
holds(s_3858_jpg, tiledrooftop).
holds(s_3858_jpg, vendingmachine).
holds(s_3858_jpg, wallsign).
holds(s_3858_jpg, statue).
holds(s_3858_jpg, chimney).
holds(s_3858_jpg, pipe).
holds(s_3858_jpg, machine).
holds(s_3858_jpg, car).
holds(s_3858_jpg, commercial).

sample(s_14614_jpg).
holds(s_14614_jpg, building).
holds(s_14614_jpg, feature).
holds(s_14614_jpg, watertreatment).
holds(s_14614_jpg, door).
holds(s_14614_jpg, billboard).
holds(s_14614_jpg, porch).
holds(s_14614_jpg, sign).
holds(s_14614_jpg, tiledroof).
holds(s_14614_jpg, wallsign).
holds(s_14614_jpg, chimney).
holds(s_14614_jpg, pipe).
holds(s_14614_jpg, industrial).

sample(s_7502_jpg).
holds(s_7502_jpg, building).
holds(s_7502_jpg, feature).
holds(s_7502_jpg, window).
holds(s_7502_jpg, porch).
holds(s_7502_jpg, sign).
holds(s_7502_jpg, table).
holds(s_7502_jpg, tiledrooftop).
holds(s_7502_jpg, vendingmachine).
holds(s_7502_jpg, statue).
holds(s_7502_jpg, pipe).

sample(s_9598_jpg).
holds(s_9598_jpg, building).
holds(s_9598_jpg, feature).
holds(s_9598_jpg, watertreatment).
holds(s_9598_jpg, door).
holds(s_9598_jpg, billboard).
holds(s_9598_jpg, porch).
holds(s_9598_jpg, sign).
holds(s_9598_jpg, tiledroof).
holds(s_9598_jpg, tiledrooftop).
holds(s_9598_jpg, wallsign).
holds(s_9598_jpg, pipe).
holds(s_9598_jpg, industrial).

sample(s_3836_jpg).
holds(s_3836_jpg, building).
holds(s_3836_jpg, feature).
holds(s_3836_jpg, sign).
holds(s_3836_jpg, table).
holds(s_3836_jpg, tiledrooftop).
holds(s_3836_jpg, vendingmachine).
holds(s_3836_jpg, statue).
holds(s_3836_jpg, pipe).

sample(s_11074_jpg).
holds(s_11074_jpg, building).
holds(s_11074_jpg, feature).
holds(s_11074_jpg, watertreatment).
holds(s_11074_jpg, porch).
holds(s_11074_jpg, sign).
holds(s_11074_jpg, table).
holds(s_11074_jpg, tiledroof).
holds(s_11074_jpg, vendingmachine).
holds(s_11074_jpg, wallsign).
holds(s_11074_jpg, statue).
holds(s_11074_jpg, pipe).
holds(s_11074_jpg, industrial).

sample(s_9080_jpg).
holds(s_9080_jpg, building).
holds(s_9080_jpg, feature).
holds(s_9080_jpg, sign).
holds(s_9080_jpg, table).
holds(s_9080_jpg, tiledrooftop).
holds(s_9080_jpg, vendingmachine).
holds(s_9080_jpg, statue).
holds(s_9080_jpg, pipe).

sample(s_4241_jpg).
holds(s_4241_jpg, building).
holds(s_4241_jpg, feature).
holds(s_4241_jpg, sign).
holds(s_4241_jpg, table).
holds(s_4241_jpg, tiledrooftop).
holds(s_4241_jpg, vendingmachine).
holds(s_4241_jpg, statue).
holds(s_4241_jpg, pipe).

sample(s_4858_jpg).
holds(s_4858_jpg, building).
holds(s_4858_jpg, feature).
holds(s_4858_jpg, watertreatment).
holds(s_4858_jpg, door).
holds(s_4858_jpg, billboard).
holds(s_4858_jpg, porch).
holds(s_4858_jpg, sign).
holds(s_4858_jpg, tiledroof).
holds(s_4858_jpg, wallsign).
holds(s_4858_jpg, industrial).

sample(s_1942_jpg).
holds(s_1942_jpg, building).
holds(s_1942_jpg, feature).
holds(s_1942_jpg, watertreatment).
holds(s_1942_jpg, door).
holds(s_1942_jpg, billboard).
holds(s_1942_jpg, porch).
holds(s_1942_jpg, sign).
holds(s_1942_jpg, tiledroof).
holds(s_1942_jpg, tiledrooftop).
holds(s_1942_jpg, wallsign).
holds(s_1942_jpg, chimney).
holds(s_1942_jpg, pipe).
holds(s_1942_jpg, industrial).

sample(s_4033_jpg).
holds(s_4033_jpg, building).
holds(s_4033_jpg, feature).
holds(s_4033_jpg, watertreatment).
holds(s_4033_jpg, door).
holds(s_4033_jpg, billboard).
holds(s_4033_jpg, porch).
holds(s_4033_jpg, sign).
holds(s_4033_jpg, tiledroof).
holds(s_4033_jpg, tiledrooftop).
holds(s_4033_jpg, wallsign).
holds(s_4033_jpg, pipe).
holds(s_4033_jpg, industrial).

sample(s_10649_jpg).
holds(s_10649_jpg, building).
holds(s_10649_jpg, feature).
holds(s_10649_jpg, window).
holds(s_10649_jpg, porch).
holds(s_10649_jpg, sign).
holds(s_10649_jpg, table).
holds(s_10649_jpg, tiledrooftop).
holds(s_10649_jpg, vendingmachine).
holds(s_10649_jpg, statue).
holds(s_10649_jpg, pipe).

sample(s_8415_jpg).
holds(s_8415_jpg, building).
holds(s_8415_jpg, feature).
holds(s_8415_jpg, hotel).
holds(s_8415_jpg, billboard).
holds(s_8415_jpg, sign).
holds(s_8415_jpg, tiledroof).
holds(s_8415_jpg, tiledrooftop).
holds(s_8415_jpg, vendingmachine).
holds(s_8415_jpg, wallsign).
holds(s_8415_jpg, chimney).
holds(s_8415_jpg, pipe).
holds(s_8415_jpg, machine).
holds(s_8415_jpg, car).
holds(s_8415_jpg, commercial).

sample(s_9209_jpg).
holds(s_9209_jpg, building).
holds(s_9209_jpg, feature).
holds(s_9209_jpg, sign).
holds(s_9209_jpg, table).
holds(s_9209_jpg, tiledrooftop).
holds(s_9209_jpg, vendingmachine).
holds(s_9209_jpg, statue).
holds(s_9209_jpg, pipe).
holds(s_9209_jpg, machine).

sample(s_10558_jpg).
holds(s_10558_jpg, building).
holds(s_10558_jpg, feature).
holds(s_10558_jpg, watertreatment).
holds(s_10558_jpg, door).
holds(s_10558_jpg, billboard).
holds(s_10558_jpg, porch).
holds(s_10558_jpg, sign).
holds(s_10558_jpg, tiledroof).
holds(s_10558_jpg, wallsign).
holds(s_10558_jpg, pipe).
holds(s_10558_jpg, industrial).

sample(s_10317_jpg).
holds(s_10317_jpg, building).
holds(s_10317_jpg, feature).
holds(s_10317_jpg, hotel).
holds(s_10317_jpg, door).
holds(s_10317_jpg, billboard).
holds(s_10317_jpg, porch).
holds(s_10317_jpg, sign).
holds(s_10317_jpg, tiledroof).
holds(s_10317_jpg, tiledrooftop).
holds(s_10317_jpg, wallsign).
holds(s_10317_jpg, chimney).
holds(s_10317_jpg, pipe).
holds(s_10317_jpg, car).
holds(s_10317_jpg, commercial).

sample(s_2545_jpg).
holds(s_2545_jpg, building).
holds(s_2545_jpg, feature).
holds(s_2545_jpg, watertreatment).
holds(s_2545_jpg, door).
holds(s_2545_jpg, billboard).
holds(s_2545_jpg, sign).
holds(s_2545_jpg, tiledroof).
holds(s_2545_jpg, tiledrooftop).
holds(s_2545_jpg, wallsign).
holds(s_2545_jpg, chimney).
holds(s_2545_jpg, pipe).
holds(s_2545_jpg, industrial).

sample(s_11897_jpg).
holds(s_11897_jpg, building).
holds(s_11897_jpg, feature).
holds(s_11897_jpg, window).
holds(s_11897_jpg, porch).
holds(s_11897_jpg, sign).
holds(s_11897_jpg, table).
holds(s_11897_jpg, tiledrooftop).
holds(s_11897_jpg, vendingmachine).
holds(s_11897_jpg, statue).
holds(s_11897_jpg, pipe).

sample(s_4817_jpg).
holds(s_4817_jpg, building).
holds(s_4817_jpg, feature).
holds(s_4817_jpg, porch).
holds(s_4817_jpg, sign).
holds(s_4817_jpg, table).
holds(s_4817_jpg, tiledrooftop).
holds(s_4817_jpg, vendingmachine).
holds(s_4817_jpg, statue).
holds(s_4817_jpg, pipe).
holds(s_4817_jpg, machine).

sample(s_869_jpg).
holds(s_869_jpg, building).
holds(s_869_jpg, feature).
holds(s_869_jpg, porch).
holds(s_869_jpg, sign).
holds(s_869_jpg, table).
holds(s_869_jpg, tiledrooftop).
holds(s_869_jpg, vendingmachine).
holds(s_869_jpg, statue).

sample(s_1489_jpg).
holds(s_1489_jpg, building).
holds(s_1489_jpg, feature).
holds(s_1489_jpg, watertreatment).
holds(s_1489_jpg, door).
holds(s_1489_jpg, billboard).
holds(s_1489_jpg, porch).
holds(s_1489_jpg, sign).
holds(s_1489_jpg, tiledroof).
holds(s_1489_jpg, wallsign).
holds(s_1489_jpg, pipe).
holds(s_1489_jpg, industrial).

sample(s_15526_jpg).
holds(s_15526_jpg, building).
holds(s_15526_jpg, feature).
holds(s_15526_jpg, watertreatment).
holds(s_15526_jpg, door).
holds(s_15526_jpg, billboard).
holds(s_15526_jpg, porch).
holds(s_15526_jpg, sign).
holds(s_15526_jpg, tiledroof).
holds(s_15526_jpg, tiledrooftop).
holds(s_15526_jpg, wallsign).
holds(s_15526_jpg, chimney).
holds(s_15526_jpg, pipe).
holds(s_15526_jpg, industrial).

sample(s_5578_jpg).
holds(s_5578_jpg, building).
holds(s_5578_jpg, feature).
holds(s_5578_jpg, watertreatment).
holds(s_5578_jpg, door).
holds(s_5578_jpg, billboard).
holds(s_5578_jpg, porch).
holds(s_5578_jpg, sign).
holds(s_5578_jpg, tiledroof).
holds(s_5578_jpg, wallsign).
holds(s_5578_jpg, industrial).

sample(s_12250_jpg).
holds(s_12250_jpg, building).
holds(s_12250_jpg, feature).
holds(s_12250_jpg, watertreatment).
holds(s_12250_jpg, door).
holds(s_12250_jpg, billboard).
holds(s_12250_jpg, porch).
holds(s_12250_jpg, sign).
holds(s_12250_jpg, tiledroof).
holds(s_12250_jpg, wallsign).
holds(s_12250_jpg, chimney).
holds(s_12250_jpg, pipe).
holds(s_12250_jpg, industrial).

sample(s_12338_jpg).
holds(s_12338_jpg, building).
holds(s_12338_jpg, feature).
holds(s_12338_jpg, sign).
holds(s_12338_jpg, table).
holds(s_12338_jpg, tiledrooftop).
holds(s_12338_jpg, vendingmachine).
holds(s_12338_jpg, statue).
holds(s_12338_jpg, pipe).
holds(s_12338_jpg, machine).

sample(s_1663_jpg).
holds(s_1663_jpg, building).
holds(s_1663_jpg, feature).
holds(s_1663_jpg, watertreatment).
holds(s_1663_jpg, door).
holds(s_1663_jpg, billboard).
holds(s_1663_jpg, porch).
holds(s_1663_jpg, sign).
holds(s_1663_jpg, tiledroof).
holds(s_1663_jpg, tiledrooftop).
holds(s_1663_jpg, wallsign).
holds(s_1663_jpg, industrial).

sample(s_1861_jpg).
holds(s_1861_jpg, building).
holds(s_1861_jpg, feature).
holds(s_1861_jpg, watertreatment).
holds(s_1861_jpg, door).
holds(s_1861_jpg, billboard).
holds(s_1861_jpg, porch).
holds(s_1861_jpg, sign).
holds(s_1861_jpg, tiledroof).
holds(s_1861_jpg, wallsign).
holds(s_1861_jpg, chimney).
holds(s_1861_jpg, pipe).
holds(s_1861_jpg, industrial).

sample(s_3566_jpg).
holds(s_3566_jpg, building).
holds(s_3566_jpg, feature).
holds(s_3566_jpg, window).
holds(s_3566_jpg, porch).
holds(s_3566_jpg, sign).
holds(s_3566_jpg, table).
holds(s_3566_jpg, tiledrooftop).
holds(s_3566_jpg, vendingmachine).
holds(s_3566_jpg, statue).
holds(s_3566_jpg, pipe).

sample(s_9576_jpg).
holds(s_9576_jpg, building).
holds(s_9576_jpg, feature).
holds(s_9576_jpg, hotel).
holds(s_9576_jpg, billboard).
holds(s_9576_jpg, porch).
holds(s_9576_jpg, sign).
holds(s_9576_jpg, table).
holds(s_9576_jpg, tiledroof).
holds(s_9576_jpg, tiledrooftop).
holds(s_9576_jpg, vendingmachine).
holds(s_9576_jpg, wallsign).
holds(s_9576_jpg, statue).
holds(s_9576_jpg, chimney).
holds(s_9576_jpg, pipe).
holds(s_9576_jpg, machine).
holds(s_9576_jpg, car).
holds(s_9576_jpg, commercial).

sample(s_41_jpg).
holds(s_41_jpg, building).
holds(s_41_jpg, feature).
holds(s_41_jpg, billboard).
holds(s_41_jpg, sign).
holds(s_41_jpg, table).
holds(s_41_jpg, tiledrooftop).
holds(s_41_jpg, vendingmachine).
holds(s_41_jpg, statue).
holds(s_41_jpg, chimney).
holds(s_41_jpg, pipe).
holds(s_41_jpg, machine).

sample(s_3030_jpg).
holds(s_3030_jpg, building).
holds(s_3030_jpg, feature).
holds(s_3030_jpg, hotel).
holds(s_3030_jpg, door).
holds(s_3030_jpg, billboard).
holds(s_3030_jpg, porch).
holds(s_3030_jpg, sign).
holds(s_3030_jpg, tiledroof).
holds(s_3030_jpg, tiledrooftop).
holds(s_3030_jpg, wallsign).
holds(s_3030_jpg, chimney).
holds(s_3030_jpg, pipe).
holds(s_3030_jpg, car).
holds(s_3030_jpg, commercial).

sample(s_2122_jpg).
holds(s_2122_jpg, building).
holds(s_2122_jpg, feature).
holds(s_2122_jpg, watertreatment).
holds(s_2122_jpg, door).
holds(s_2122_jpg, billboard).
holds(s_2122_jpg, porch).
holds(s_2122_jpg, sign).
holds(s_2122_jpg, tiledroof).
holds(s_2122_jpg, tiledrooftop).
holds(s_2122_jpg, wallsign).
holds(s_2122_jpg, pipe).
holds(s_2122_jpg, industrial).

sample(s_15678_jpg).
holds(s_15678_jpg, building).
holds(s_15678_jpg, feature).
holds(s_15678_jpg, hotel).
holds(s_15678_jpg, billboard).
holds(s_15678_jpg, sign).
holds(s_15678_jpg, tiledroof).
holds(s_15678_jpg, tiledrooftop).
holds(s_15678_jpg, chimney).
holds(s_15678_jpg, pipe).
holds(s_15678_jpg, car).
holds(s_15678_jpg, commercial).

sample(s_4411_jpg).
holds(s_4411_jpg, building).
holds(s_4411_jpg, feature).
holds(s_4411_jpg, watertreatment).
holds(s_4411_jpg, door).
holds(s_4411_jpg, billboard).
holds(s_4411_jpg, porch).
holds(s_4411_jpg, sign).
holds(s_4411_jpg, tiledroof).
holds(s_4411_jpg, wallsign).
holds(s_4411_jpg, chimney).
holds(s_4411_jpg, pipe).
holds(s_4411_jpg, industrial).

sample(s_2145_jpg).
holds(s_2145_jpg, building).
holds(s_2145_jpg, feature).
holds(s_2145_jpg, hotel).
holds(s_2145_jpg, door).
holds(s_2145_jpg, billboard).
holds(s_2145_jpg, porch).
holds(s_2145_jpg, sign).
holds(s_2145_jpg, tiledroof).
holds(s_2145_jpg, tiledrooftop).
holds(s_2145_jpg, wallsign).
holds(s_2145_jpg, chimney).
holds(s_2145_jpg, pipe).
holds(s_2145_jpg, car).
holds(s_2145_jpg, commercial).

sample(s_6705_jpg).
holds(s_6705_jpg, building).
holds(s_6705_jpg, feature).
holds(s_6705_jpg, hotel).
holds(s_6705_jpg, door).
holds(s_6705_jpg, billboard).
holds(s_6705_jpg, porch).
holds(s_6705_jpg, sign).
holds(s_6705_jpg, tiledroof).
holds(s_6705_jpg, tiledrooftop).
holds(s_6705_jpg, wallsign).
holds(s_6705_jpg, chimney).
holds(s_6705_jpg, pipe).
holds(s_6705_jpg, car).
holds(s_6705_jpg, commercial).

sample(s_11365_jpg).
holds(s_11365_jpg, building).
holds(s_11365_jpg, feature).
holds(s_11365_jpg, watertreatment).
holds(s_11365_jpg, door).
holds(s_11365_jpg, billboard).
holds(s_11365_jpg, sign).
holds(s_11365_jpg, tiledroof).
holds(s_11365_jpg, tiledrooftop).
holds(s_11365_jpg, wallsign).
holds(s_11365_jpg, chimney).
holds(s_11365_jpg, pipe).
holds(s_11365_jpg, industrial).

sample(s_11898_jpg).
holds(s_11898_jpg, building).
holds(s_11898_jpg, feature).
holds(s_11898_jpg, hotel).
holds(s_11898_jpg, door).
holds(s_11898_jpg, billboard).
holds(s_11898_jpg, porch).
holds(s_11898_jpg, sign).
holds(s_11898_jpg, tiledroof).
holds(s_11898_jpg, tiledrooftop).
holds(s_11898_jpg, wallsign).
holds(s_11898_jpg, chimney).
holds(s_11898_jpg, pipe).
holds(s_11898_jpg, car).
holds(s_11898_jpg, commercial).

sample(s_15932_jpg).
holds(s_15932_jpg, building).
holds(s_15932_jpg, feature).
holds(s_15932_jpg, sign).
holds(s_15932_jpg, table).
holds(s_15932_jpg, tiledrooftop).
holds(s_15932_jpg, vendingmachine).
holds(s_15932_jpg, statue).
holds(s_15932_jpg, pipe).

sample(s_13163_jpg).
holds(s_13163_jpg, building).
holds(s_13163_jpg, feature).
holds(s_13163_jpg, sign).
holds(s_13163_jpg, table).
holds(s_13163_jpg, tiledrooftop).
holds(s_13163_jpg, vendingmachine).
holds(s_13163_jpg, statue).
holds(s_13163_jpg, pipe).

sample(s_2017_jpg).
holds(s_2017_jpg, building).
holds(s_2017_jpg, feature).
holds(s_2017_jpg, watertreatment).
holds(s_2017_jpg, door).
holds(s_2017_jpg, billboard).
holds(s_2017_jpg, porch).
holds(s_2017_jpg, sign).
holds(s_2017_jpg, tiledroof).
holds(s_2017_jpg, wallsign).
holds(s_2017_jpg, chimney).
holds(s_2017_jpg, pipe).
holds(s_2017_jpg, industrial).

sample(s_3812_jpg).
holds(s_3812_jpg, building).
holds(s_3812_jpg, feature).
holds(s_3812_jpg, sign).
holds(s_3812_jpg, table).
holds(s_3812_jpg, tiledrooftop).
holds(s_3812_jpg, vendingmachine).
holds(s_3812_jpg, statue).
holds(s_3812_jpg, pipe).

sample(s_12791_jpg).
holds(s_12791_jpg, building).
holds(s_12791_jpg, feature).
holds(s_12791_jpg, sign).
holds(s_12791_jpg, table).
holds(s_12791_jpg, tiledrooftop).
holds(s_12791_jpg, vendingmachine).
holds(s_12791_jpg, statue).
holds(s_12791_jpg, pipe).

sample(s_5731_jpg).
holds(s_5731_jpg, building).
holds(s_5731_jpg, feature).
holds(s_5731_jpg, watertreatment).
holds(s_5731_jpg, door).
holds(s_5731_jpg, billboard).
holds(s_5731_jpg, porch).
holds(s_5731_jpg, sign).
holds(s_5731_jpg, tiledroof).
holds(s_5731_jpg, wallsign).
holds(s_5731_jpg, industrial).

sample(s_757_jpg).
holds(s_757_jpg, building).
holds(s_757_jpg, feature).
holds(s_757_jpg, watertreatment).
holds(s_757_jpg, door).
holds(s_757_jpg, billboard).
holds(s_757_jpg, porch).
holds(s_757_jpg, sign).
holds(s_757_jpg, tiledroof).
holds(s_757_jpg, wallsign).
holds(s_757_jpg, pipe).
holds(s_757_jpg, industrial).

sample(s_6332_jpg).
holds(s_6332_jpg, building).
holds(s_6332_jpg, feature).
holds(s_6332_jpg, sign).
holds(s_6332_jpg, table).
holds(s_6332_jpg, tiledrooftop).
holds(s_6332_jpg, vendingmachine).
holds(s_6332_jpg, statue).
holds(s_6332_jpg, pipe).

sample(s_15970_jpg).
holds(s_15970_jpg, building).
holds(s_15970_jpg, feature).
holds(s_15970_jpg, watertreatment).
holds(s_15970_jpg, door).
holds(s_15970_jpg, billboard).
holds(s_15970_jpg, porch).
holds(s_15970_jpg, sign).
holds(s_15970_jpg, tiledroof).
holds(s_15970_jpg, tiledrooftop).
holds(s_15970_jpg, wallsign).
holds(s_15970_jpg, pipe).
holds(s_15970_jpg, industrial).

sample(s_3896_jpg).
holds(s_3896_jpg, building).
holds(s_3896_jpg, feature).
holds(s_3896_jpg, sign).
holds(s_3896_jpg, table).
holds(s_3896_jpg, tiledrooftop).
holds(s_3896_jpg, vendingmachine).
holds(s_3896_jpg, statue).
holds(s_3896_jpg, pipe).
holds(s_3896_jpg, machine).

sample(s_13647_jpg).
holds(s_13647_jpg, building).
holds(s_13647_jpg, feature).
holds(s_13647_jpg, hotel).
holds(s_13647_jpg, door).
holds(s_13647_jpg, billboard).
holds(s_13647_jpg, sign).
holds(s_13647_jpg, tiledroof).
holds(s_13647_jpg, tiledrooftop).
holds(s_13647_jpg, wallsign).
holds(s_13647_jpg, chimney).
holds(s_13647_jpg, pipe).
holds(s_13647_jpg, car).
holds(s_13647_jpg, commercial).

sample(s_14100_jpg).
holds(s_14100_jpg, building).
holds(s_14100_jpg, feature).
holds(s_14100_jpg, hotel).
holds(s_14100_jpg, billboard).
holds(s_14100_jpg, sign).
holds(s_14100_jpg, table).
holds(s_14100_jpg, tiledroof).
holds(s_14100_jpg, tiledrooftop).
holds(s_14100_jpg, vendingmachine).
holds(s_14100_jpg, statue).
holds(s_14100_jpg, chimney).
holds(s_14100_jpg, pipe).
holds(s_14100_jpg, machine).
holds(s_14100_jpg, car).
holds(s_14100_jpg, commercial).

sample(s_640_jpg).
holds(s_640_jpg, building).
holds(s_640_jpg, feature).
holds(s_640_jpg, watertreatment).
holds(s_640_jpg, door).
holds(s_640_jpg, billboard).
holds(s_640_jpg, porch).
holds(s_640_jpg, sign).
holds(s_640_jpg, tiledroof).
holds(s_640_jpg, wallsign).
holds(s_640_jpg, pipe).
holds(s_640_jpg, industrial).

sample(s_13451_jpg).
holds(s_13451_jpg, building).
holds(s_13451_jpg, feature).
holds(s_13451_jpg, sign).
holds(s_13451_jpg, table).
holds(s_13451_jpg, tiledrooftop).
holds(s_13451_jpg, vendingmachine).
holds(s_13451_jpg, statue).
holds(s_13451_jpg, pipe).

sample(s_8868_jpg).
holds(s_8868_jpg, building).
holds(s_8868_jpg, feature).
holds(s_8868_jpg, hotel).
holds(s_8868_jpg, door).
holds(s_8868_jpg, billboard).
holds(s_8868_jpg, sign).
holds(s_8868_jpg, tiledroof).
holds(s_8868_jpg, tiledrooftop).
holds(s_8868_jpg, wallsign).
holds(s_8868_jpg, chimney).
holds(s_8868_jpg, pipe).
holds(s_8868_jpg, car).
holds(s_8868_jpg, commercial).

sample(s_10027_jpg).
holds(s_10027_jpg, building).
holds(s_10027_jpg, feature).
holds(s_10027_jpg, watertreatment).
holds(s_10027_jpg, door).
holds(s_10027_jpg, billboard).
holds(s_10027_jpg, porch).
holds(s_10027_jpg, sign).
holds(s_10027_jpg, tiledroof).
holds(s_10027_jpg, tiledrooftop).
holds(s_10027_jpg, wallsign).
holds(s_10027_jpg, chimney).
holds(s_10027_jpg, pipe).
holds(s_10027_jpg, industrial).

sample(s_8019_jpg).
holds(s_8019_jpg, building).
holds(s_8019_jpg, feature).
holds(s_8019_jpg, hotel).
holds(s_8019_jpg, door).
holds(s_8019_jpg, billboard).
holds(s_8019_jpg, porch).
holds(s_8019_jpg, sign).
holds(s_8019_jpg, tiledroof).
holds(s_8019_jpg, tiledrooftop).
holds(s_8019_jpg, wallsign).
holds(s_8019_jpg, chimney).
holds(s_8019_jpg, pipe).
holds(s_8019_jpg, car).
holds(s_8019_jpg, commercial).

sample(s_15834_jpg).
holds(s_15834_jpg, building).
holds(s_15834_jpg, feature).
holds(s_15834_jpg, hotel).
holds(s_15834_jpg, billboard).
holds(s_15834_jpg, porch).
holds(s_15834_jpg, sign).
holds(s_15834_jpg, table).
holds(s_15834_jpg, tiledroof).
holds(s_15834_jpg, tiledrooftop).
holds(s_15834_jpg, vendingmachine).
holds(s_15834_jpg, wallsign).
holds(s_15834_jpg, chimney).
holds(s_15834_jpg, pipe).
holds(s_15834_jpg, machine).
holds(s_15834_jpg, car).
holds(s_15834_jpg, commercial).

sample(s_8859_jpg).
holds(s_8859_jpg, building).
holds(s_8859_jpg, feature).
holds(s_8859_jpg, hotel).
holds(s_8859_jpg, billboard).
holds(s_8859_jpg, porch).
holds(s_8859_jpg, sign).
holds(s_8859_jpg, table).
holds(s_8859_jpg, tiledroof).
holds(s_8859_jpg, tiledrooftop).
holds(s_8859_jpg, vendingmachine).
holds(s_8859_jpg, wallsign).
holds(s_8859_jpg, chimney).
holds(s_8859_jpg, pipe).
holds(s_8859_jpg, machine).
holds(s_8859_jpg, car).
holds(s_8859_jpg, commercial).

sample(s_1072_jpg).
holds(s_1072_jpg, building).
holds(s_1072_jpg, feature).
holds(s_1072_jpg, watertreatment).
holds(s_1072_jpg, door).
holds(s_1072_jpg, billboard).
holds(s_1072_jpg, porch).
holds(s_1072_jpg, sign).
holds(s_1072_jpg, tiledroof).
holds(s_1072_jpg, wallsign).
holds(s_1072_jpg, pipe).
holds(s_1072_jpg, industrial).

sample(s_10930_jpg).
holds(s_10930_jpg, building).
holds(s_10930_jpg, feature).
holds(s_10930_jpg, watertreatment).
holds(s_10930_jpg, door).
holds(s_10930_jpg, billboard).
holds(s_10930_jpg, porch).
holds(s_10930_jpg, sign).
holds(s_10930_jpg, tiledroof).
holds(s_10930_jpg, tiledrooftop).
holds(s_10930_jpg, wallsign).
holds(s_10930_jpg, pipe).
holds(s_10930_jpg, industrial).

sample(s_540_jpg).
holds(s_540_jpg, building).
holds(s_540_jpg, feature).
holds(s_540_jpg, hotel).
holds(s_540_jpg, billboard).
holds(s_540_jpg, sign).
holds(s_540_jpg, tiledroof).
holds(s_540_jpg, tiledrooftop).
holds(s_540_jpg, chimney).
holds(s_540_jpg, pipe).
holds(s_540_jpg, machine).
holds(s_540_jpg, car).
holds(s_540_jpg, commercial).

sample(s_6912_jpg).
holds(s_6912_jpg, building).
holds(s_6912_jpg, feature).
holds(s_6912_jpg, hotel).
holds(s_6912_jpg, door).
holds(s_6912_jpg, billboard).
holds(s_6912_jpg, sign).
holds(s_6912_jpg, tiledroof).
holds(s_6912_jpg, tiledrooftop).
holds(s_6912_jpg, wallsign).
holds(s_6912_jpg, chimney).
holds(s_6912_jpg, pipe).
holds(s_6912_jpg, car).
holds(s_6912_jpg, commercial).

sample(s_15290_jpg).
holds(s_15290_jpg, building).
holds(s_15290_jpg, feature).
holds(s_15290_jpg, billboard).
holds(s_15290_jpg, sign).
holds(s_15290_jpg, table).
holds(s_15290_jpg, tiledrooftop).
holds(s_15290_jpg, vendingmachine).
holds(s_15290_jpg, statue).
holds(s_15290_jpg, pipe).
holds(s_15290_jpg, machine).

sample(s_14086_jpg).
holds(s_14086_jpg, building).
holds(s_14086_jpg, feature).
holds(s_14086_jpg, watertreatment).
holds(s_14086_jpg, door).
holds(s_14086_jpg, billboard).
holds(s_14086_jpg, porch).
holds(s_14086_jpg, sign).
holds(s_14086_jpg, tiledroof).
holds(s_14086_jpg, wallsign).
holds(s_14086_jpg, industrial).

sample(s_7623_jpg).
holds(s_7623_jpg, building).
holds(s_7623_jpg, feature).
holds(s_7623_jpg, hotel).
holds(s_7623_jpg, door).
holds(s_7623_jpg, billboard).
holds(s_7623_jpg, porch).
holds(s_7623_jpg, sign).
holds(s_7623_jpg, tiledroof).
holds(s_7623_jpg, tiledrooftop).
holds(s_7623_jpg, wallsign).
holds(s_7623_jpg, chimney).
holds(s_7623_jpg, pipe).
holds(s_7623_jpg, car).
holds(s_7623_jpg, commercial).

sample(s_15430_jpg).
holds(s_15430_jpg, building).
holds(s_15430_jpg, feature).
holds(s_15430_jpg, watertreatment).
holds(s_15430_jpg, door).
holds(s_15430_jpg, billboard).
holds(s_15430_jpg, porch).
holds(s_15430_jpg, sign).
holds(s_15430_jpg, tiledroof).
holds(s_15430_jpg, wallsign).
holds(s_15430_jpg, pipe).
holds(s_15430_jpg, industrial).

sample(s_8529_jpg).
holds(s_8529_jpg, building).
holds(s_8529_jpg, feature).
holds(s_8529_jpg, billboard).
holds(s_8529_jpg, porch).
holds(s_8529_jpg, sign).
holds(s_8529_jpg, table).
holds(s_8529_jpg, tiledroof).
holds(s_8529_jpg, tiledrooftop).
holds(s_8529_jpg, vendingmachine).
holds(s_8529_jpg, statue).
holds(s_8529_jpg, pipe).

sample(s_10668_jpg).
holds(s_10668_jpg, building).
holds(s_10668_jpg, feature).
holds(s_10668_jpg, hotel).
holds(s_10668_jpg, door).
holds(s_10668_jpg, billboard).
holds(s_10668_jpg, porch).
holds(s_10668_jpg, sign).
holds(s_10668_jpg, tiledroof).
holds(s_10668_jpg, tiledrooftop).
holds(s_10668_jpg, vendingmachine).
holds(s_10668_jpg, wallsign).
holds(s_10668_jpg, chimney).
holds(s_10668_jpg, pipe).
holds(s_10668_jpg, car).
holds(s_10668_jpg, commercial).

sample(s_3348_jpg).
holds(s_3348_jpg, building).
holds(s_3348_jpg, feature).
holds(s_3348_jpg, hotel).
holds(s_3348_jpg, billboard).
holds(s_3348_jpg, sign).
holds(s_3348_jpg, table).
holds(s_3348_jpg, tiledroof).
holds(s_3348_jpg, tiledrooftop).
holds(s_3348_jpg, vendingmachine).
holds(s_3348_jpg, statue).
holds(s_3348_jpg, chimney).
holds(s_3348_jpg, pipe).
holds(s_3348_jpg, machine).
holds(s_3348_jpg, car).
holds(s_3348_jpg, commercial).

sample(s_2916_jpg).
holds(s_2916_jpg, building).
holds(s_2916_jpg, feature).
holds(s_2916_jpg, hotel).
holds(s_2916_jpg, door).
holds(s_2916_jpg, billboard).
holds(s_2916_jpg, porch).
holds(s_2916_jpg, sign).
holds(s_2916_jpg, table).
holds(s_2916_jpg, tiledroof).
holds(s_2916_jpg, tiledrooftop).
holds(s_2916_jpg, vendingmachine).
holds(s_2916_jpg, wallsign).
holds(s_2916_jpg, chimney).
holds(s_2916_jpg, pipe).
holds(s_2916_jpg, machine).
holds(s_2916_jpg, car).
holds(s_2916_jpg, commercial).

sample(s_10093_jpg).
holds(s_10093_jpg, building).
holds(s_10093_jpg, feature).
holds(s_10093_jpg, watertreatment).
holds(s_10093_jpg, door).
holds(s_10093_jpg, billboard).
holds(s_10093_jpg, porch).
holds(s_10093_jpg, sign).
holds(s_10093_jpg, tiledroof).
holds(s_10093_jpg, tiledrooftop).
holds(s_10093_jpg, wallsign).
holds(s_10093_jpg, industrial).

sample(s_6157_jpg).
holds(s_6157_jpg, building).
holds(s_6157_jpg, feature).
holds(s_6157_jpg, watertreatment).
holds(s_6157_jpg, door).
holds(s_6157_jpg, billboard).
holds(s_6157_jpg, porch).
holds(s_6157_jpg, sign).
holds(s_6157_jpg, tiledroof).
holds(s_6157_jpg, wallsign).
holds(s_6157_jpg, industrial).

sample(s_5961_jpg).
holds(s_5961_jpg, building).
holds(s_5961_jpg, feature).
holds(s_5961_jpg, hotel).
holds(s_5961_jpg, door).
holds(s_5961_jpg, billboard).
holds(s_5961_jpg, porch).
holds(s_5961_jpg, sign).
holds(s_5961_jpg, tiledroof).
holds(s_5961_jpg, tiledrooftop).
holds(s_5961_jpg, wallsign).
holds(s_5961_jpg, chimney).
holds(s_5961_jpg, pipe).
holds(s_5961_jpg, car).
holds(s_5961_jpg, commercial).

sample(s_15799_jpg).
holds(s_15799_jpg, building).
holds(s_15799_jpg, feature).
holds(s_15799_jpg, watertreatment).
holds(s_15799_jpg, door).
holds(s_15799_jpg, billboard).
holds(s_15799_jpg, porch).
holds(s_15799_jpg, sign).
holds(s_15799_jpg, tiledroof).
holds(s_15799_jpg, tiledrooftop).
holds(s_15799_jpg, wallsign).
holds(s_15799_jpg, industrial).

sample(s_1784_jpg).
holds(s_1784_jpg, building).
holds(s_1784_jpg, feature).
holds(s_1784_jpg, sign).
holds(s_1784_jpg, table).
holds(s_1784_jpg, tiledrooftop).
holds(s_1784_jpg, vendingmachine).
holds(s_1784_jpg, statue).
holds(s_1784_jpg, pipe).
holds(s_1784_jpg, machine).

sample(s_13967_jpg).
holds(s_13967_jpg, building).
holds(s_13967_jpg, feature).
holds(s_13967_jpg, sign).
holds(s_13967_jpg, table).
holds(s_13967_jpg, tiledrooftop).
holds(s_13967_jpg, vendingmachine).
holds(s_13967_jpg, statue).
holds(s_13967_jpg, pipe).
holds(s_13967_jpg, machine).

sample(s_14664_jpg).
holds(s_14664_jpg, building).
holds(s_14664_jpg, feature).
holds(s_14664_jpg, door).
holds(s_14664_jpg, billboard).
holds(s_14664_jpg, porch).
holds(s_14664_jpg, sign).
holds(s_14664_jpg, table).
holds(s_14664_jpg, tiledroof).
holds(s_14664_jpg, tiledrooftop).
holds(s_14664_jpg, vendingmachine).
holds(s_14664_jpg, wallsign).
holds(s_14664_jpg, pipe).

sample(s_3461_jpg).
holds(s_3461_jpg, building).
holds(s_3461_jpg, feature).
holds(s_3461_jpg, porch).
holds(s_3461_jpg, sign).
holds(s_3461_jpg, table).
holds(s_3461_jpg, tiledrooftop).
holds(s_3461_jpg, vendingmachine).
holds(s_3461_jpg, statue).

sample(s_12158_jpg).
holds(s_12158_jpg, building).
holds(s_12158_jpg, feature).
holds(s_12158_jpg, sign).
holds(s_12158_jpg, table).
holds(s_12158_jpg, tiledrooftop).
holds(s_12158_jpg, vendingmachine).
holds(s_12158_jpg, statue).
holds(s_12158_jpg, pipe).

sample(s_5050_jpg).
holds(s_5050_jpg, building).
holds(s_5050_jpg, feature).
holds(s_5050_jpg, watertreatment).
holds(s_5050_jpg, door).
holds(s_5050_jpg, billboard).
holds(s_5050_jpg, porch).
holds(s_5050_jpg, sign).
holds(s_5050_jpg, tiledroof).
holds(s_5050_jpg, wallsign).
holds(s_5050_jpg, pipe).
holds(s_5050_jpg, industrial).

sample(s_2640_jpg).
holds(s_2640_jpg, building).
holds(s_2640_jpg, feature).
holds(s_2640_jpg, hotel).
holds(s_2640_jpg, door).
holds(s_2640_jpg, billboard).
holds(s_2640_jpg, porch).
holds(s_2640_jpg, sign).
holds(s_2640_jpg, tiledroof).
holds(s_2640_jpg, tiledrooftop).
holds(s_2640_jpg, vendingmachine).
holds(s_2640_jpg, wallsign).
holds(s_2640_jpg, chimney).
holds(s_2640_jpg, pipe).
holds(s_2640_jpg, machine).
holds(s_2640_jpg, car).
holds(s_2640_jpg, commercial).

sample(s_6493_jpg).
holds(s_6493_jpg, building).
holds(s_6493_jpg, feature).
holds(s_6493_jpg, watertreatment).
holds(s_6493_jpg, door).
holds(s_6493_jpg, billboard).
holds(s_6493_jpg, porch).
holds(s_6493_jpg, sign).
holds(s_6493_jpg, tiledroof).
holds(s_6493_jpg, tiledrooftop).
holds(s_6493_jpg, wallsign).
holds(s_6493_jpg, pipe).
holds(s_6493_jpg, industrial).

sample(s_4297_jpg).
holds(s_4297_jpg, building).
holds(s_4297_jpg, feature).
holds(s_4297_jpg, watertreatment).
holds(s_4297_jpg, door).
holds(s_4297_jpg, billboard).
holds(s_4297_jpg, porch).
holds(s_4297_jpg, sign).
holds(s_4297_jpg, tiledroof).
holds(s_4297_jpg, tiledrooftop).
holds(s_4297_jpg, wallsign).
holds(s_4297_jpg, industrial).

sample(s_10031_jpg).
holds(s_10031_jpg, building).
holds(s_10031_jpg, feature).
holds(s_10031_jpg, sign).
holds(s_10031_jpg, table).
holds(s_10031_jpg, tiledrooftop).
holds(s_10031_jpg, vendingmachine).
holds(s_10031_jpg, statue).
holds(s_10031_jpg, pipe).
holds(s_10031_jpg, machine).

sample(s_9866_jpg).
holds(s_9866_jpg, building).
holds(s_9866_jpg, feature).
holds(s_9866_jpg, porch).
holds(s_9866_jpg, sign).
holds(s_9866_jpg, table).
holds(s_9866_jpg, tiledrooftop).
holds(s_9866_jpg, vendingmachine).
holds(s_9866_jpg, statue).
holds(s_9866_jpg, pipe).
holds(s_9866_jpg, machine).

sample(s_12345_jpg).
holds(s_12345_jpg, building).
holds(s_12345_jpg, feature).
holds(s_12345_jpg, hotel).
holds(s_12345_jpg, door).
holds(s_12345_jpg, billboard).
holds(s_12345_jpg, porch).
holds(s_12345_jpg, sign).
holds(s_12345_jpg, tiledroof).
holds(s_12345_jpg, tiledrooftop).
holds(s_12345_jpg, vendingmachine).
holds(s_12345_jpg, wallsign).
holds(s_12345_jpg, chimney).
holds(s_12345_jpg, pipe).
holds(s_12345_jpg, car).
holds(s_12345_jpg, commercial).

sample(s_6128_jpg).
holds(s_6128_jpg, building).
holds(s_6128_jpg, feature).
holds(s_6128_jpg, porch).
holds(s_6128_jpg, sign).
holds(s_6128_jpg, table).
holds(s_6128_jpg, tiledrooftop).
holds(s_6128_jpg, vendingmachine).
holds(s_6128_jpg, statue).
holds(s_6128_jpg, pipe).

sample(s_7275_jpg).
holds(s_7275_jpg, building).
holds(s_7275_jpg, feature).
holds(s_7275_jpg, hotel).
holds(s_7275_jpg, door).
holds(s_7275_jpg, billboard).
holds(s_7275_jpg, porch).
holds(s_7275_jpg, sign).
holds(s_7275_jpg, tiledroof).
holds(s_7275_jpg, tiledrooftop).
holds(s_7275_jpg, vendingmachine).
holds(s_7275_jpg, wallsign).
holds(s_7275_jpg, chimney).
holds(s_7275_jpg, pipe).
holds(s_7275_jpg, car).
holds(s_7275_jpg, commercial).

sample(s_1966_jpg).
holds(s_1966_jpg, building).
holds(s_1966_jpg, feature).
holds(s_1966_jpg, watertreatment).
holds(s_1966_jpg, door).
holds(s_1966_jpg, billboard).
holds(s_1966_jpg, porch).
holds(s_1966_jpg, sign).
holds(s_1966_jpg, tiledroof).
holds(s_1966_jpg, tiledrooftop).
holds(s_1966_jpg, wallsign).
holds(s_1966_jpg, pipe).
holds(s_1966_jpg, industrial).

sample(s_9287_jpg).
holds(s_9287_jpg, building).
holds(s_9287_jpg, feature).
holds(s_9287_jpg, sign).
holds(s_9287_jpg, table).
holds(s_9287_jpg, tiledrooftop).
holds(s_9287_jpg, vendingmachine).
holds(s_9287_jpg, statue).
holds(s_9287_jpg, pipe).

sample(s_12217_jpg).
holds(s_12217_jpg, building).
holds(s_12217_jpg, feature).
holds(s_12217_jpg, watertreatment).
holds(s_12217_jpg, door).
holds(s_12217_jpg, billboard).
holds(s_12217_jpg, porch).
holds(s_12217_jpg, sign).
holds(s_12217_jpg, tiledroof).
holds(s_12217_jpg, wallsign).
holds(s_12217_jpg, industrial).

sample(s_13779_jpg).
holds(s_13779_jpg, building).
holds(s_13779_jpg, feature).
holds(s_13779_jpg, hotel).
holds(s_13779_jpg, door).
holds(s_13779_jpg, billboard).
holds(s_13779_jpg, porch).
holds(s_13779_jpg, sign).
holds(s_13779_jpg, tiledroof).
holds(s_13779_jpg, tiledrooftop).
holds(s_13779_jpg, wallsign).
holds(s_13779_jpg, chimney).
holds(s_13779_jpg, pipe).
holds(s_13779_jpg, car).
holds(s_13779_jpg, commercial).

sample(s_1436_jpg).
holds(s_1436_jpg, building).
holds(s_1436_jpg, feature).
holds(s_1436_jpg, billboard).
holds(s_1436_jpg, sign).
holds(s_1436_jpg, table).
holds(s_1436_jpg, tiledrooftop).
holds(s_1436_jpg, vendingmachine).
holds(s_1436_jpg, statue).
holds(s_1436_jpg, pipe).
holds(s_1436_jpg, machine).

sample(s_8038_jpg).
holds(s_8038_jpg, building).
holds(s_8038_jpg, feature).
holds(s_8038_jpg, watertreatment).
holds(s_8038_jpg, door).
holds(s_8038_jpg, billboard).
holds(s_8038_jpg, porch).
holds(s_8038_jpg, sign).
holds(s_8038_jpg, tiledroof).
holds(s_8038_jpg, tiledrooftop).
holds(s_8038_jpg, wallsign).
holds(s_8038_jpg, industrial).

sample(s_10763_jpg).
holds(s_10763_jpg, building).
holds(s_10763_jpg, feature).
holds(s_10763_jpg, sign).
holds(s_10763_jpg, table).
holds(s_10763_jpg, tiledrooftop).
holds(s_10763_jpg, vendingmachine).
holds(s_10763_jpg, statue).
holds(s_10763_jpg, pipe).
holds(s_10763_jpg, machine).

sample(s_6390_jpg).
holds(s_6390_jpg, building).
holds(s_6390_jpg, feature).
holds(s_6390_jpg, hotel).
holds(s_6390_jpg, billboard).
holds(s_6390_jpg, porch).
holds(s_6390_jpg, sign).
holds(s_6390_jpg, table).
holds(s_6390_jpg, tiledroof).
holds(s_6390_jpg, tiledrooftop).
holds(s_6390_jpg, vendingmachine).
holds(s_6390_jpg, statue).
holds(s_6390_jpg, chimney).
holds(s_6390_jpg, pipe).
holds(s_6390_jpg, machine).
holds(s_6390_jpg, car).
holds(s_6390_jpg, commercial).

sample(s_4551_jpg).
holds(s_4551_jpg, building).
holds(s_4551_jpg, feature).
holds(s_4551_jpg, hotel).
holds(s_4551_jpg, door).
holds(s_4551_jpg, billboard).
holds(s_4551_jpg, porch).
holds(s_4551_jpg, sign).
holds(s_4551_jpg, tiledroof).
holds(s_4551_jpg, tiledrooftop).
holds(s_4551_jpg, wallsign).
holds(s_4551_jpg, chimney).
holds(s_4551_jpg, pipe).
holds(s_4551_jpg, car).
holds(s_4551_jpg, commercial).

sample(s_3244_jpg).
holds(s_3244_jpg, building).
holds(s_3244_jpg, feature).
holds(s_3244_jpg, watertreatment).
holds(s_3244_jpg, door).
holds(s_3244_jpg, billboard).
holds(s_3244_jpg, porch).
holds(s_3244_jpg, sign).
holds(s_3244_jpg, tiledroof).
holds(s_3244_jpg, wallsign).
holds(s_3244_jpg, industrial).

sample(s_5336_jpg).
holds(s_5336_jpg, building).
holds(s_5336_jpg, feature).
holds(s_5336_jpg, sign).
holds(s_5336_jpg, table).
holds(s_5336_jpg, tiledrooftop).
holds(s_5336_jpg, vendingmachine).
holds(s_5336_jpg, statue).
holds(s_5336_jpg, pipe).
holds(s_5336_jpg, machine).

sample(s_7653_jpg).
holds(s_7653_jpg, building).
holds(s_7653_jpg, feature).
holds(s_7653_jpg, hotel).
holds(s_7653_jpg, billboard).
holds(s_7653_jpg, sign).
holds(s_7653_jpg, tiledroof).
holds(s_7653_jpg, tiledrooftop).
holds(s_7653_jpg, chimney).
holds(s_7653_jpg, pipe).
holds(s_7653_jpg, machine).
holds(s_7653_jpg, car).
holds(s_7653_jpg, commercial).

sample(s_5162_jpg).
holds(s_5162_jpg, building).
holds(s_5162_jpg, feature).
holds(s_5162_jpg, window).
holds(s_5162_jpg, porch).
holds(s_5162_jpg, table).
holds(s_5162_jpg, tiledrooftop).
holds(s_5162_jpg, vendingmachine).
holds(s_5162_jpg, statue).

sample(s_14257_jpg).
holds(s_14257_jpg, building).
holds(s_14257_jpg, feature).
holds(s_14257_jpg, watertreatment).
holds(s_14257_jpg, door).
holds(s_14257_jpg, billboard).
holds(s_14257_jpg, sign).
holds(s_14257_jpg, tiledroof).
holds(s_14257_jpg, tiledrooftop).
holds(s_14257_jpg, wallsign).
holds(s_14257_jpg, pipe).
holds(s_14257_jpg, industrial).

sample(s_10527_jpg).
holds(s_10527_jpg, building).
holds(s_10527_jpg, feature).
holds(s_10527_jpg, hotel).
holds(s_10527_jpg, door).
holds(s_10527_jpg, billboard).
holds(s_10527_jpg, sign).
holds(s_10527_jpg, tiledroof).
holds(s_10527_jpg, tiledrooftop).
holds(s_10527_jpg, wallsign).
holds(s_10527_jpg, chimney).
holds(s_10527_jpg, pipe).
holds(s_10527_jpg, car).
holds(s_10527_jpg, commercial).

sample(s_11949_jpg).
holds(s_11949_jpg, building).
holds(s_11949_jpg, feature).
holds(s_11949_jpg, hotel).
holds(s_11949_jpg, door).
holds(s_11949_jpg, billboard).
holds(s_11949_jpg, porch).
holds(s_11949_jpg, sign).
holds(s_11949_jpg, tiledroof).
holds(s_11949_jpg, tiledrooftop).
holds(s_11949_jpg, vendingmachine).
holds(s_11949_jpg, wallsign).
holds(s_11949_jpg, chimney).
holds(s_11949_jpg, pipe).
holds(s_11949_jpg, car).
holds(s_11949_jpg, commercial).

sample(s_4479_jpg).
holds(s_4479_jpg, building).
holds(s_4479_jpg, feature).
holds(s_4479_jpg, porch).
holds(s_4479_jpg, sign).
holds(s_4479_jpg, table).
holds(s_4479_jpg, tiledrooftop).
holds(s_4479_jpg, vendingmachine).
holds(s_4479_jpg, statue).
holds(s_4479_jpg, pipe).
holds(s_4479_jpg, machine).

sample(s_879_jpg).
holds(s_879_jpg, building).
holds(s_879_jpg, feature).
holds(s_879_jpg, hotel).
holds(s_879_jpg, door).
holds(s_879_jpg, billboard).
holds(s_879_jpg, porch).
holds(s_879_jpg, sign).
holds(s_879_jpg, tiledroof).
holds(s_879_jpg, tiledrooftop).
holds(s_879_jpg, vendingmachine).
holds(s_879_jpg, wallsign).
holds(s_879_jpg, chimney).
holds(s_879_jpg, pipe).
holds(s_879_jpg, machine).
holds(s_879_jpg, car).
holds(s_879_jpg, commercial).

sample(s_3483_jpg).
holds(s_3483_jpg, building).
holds(s_3483_jpg, feature).
holds(s_3483_jpg, hotel).
holds(s_3483_jpg, door).
holds(s_3483_jpg, billboard).
holds(s_3483_jpg, porch).
holds(s_3483_jpg, sign).
holds(s_3483_jpg, tiledroof).
holds(s_3483_jpg, tiledrooftop).
holds(s_3483_jpg, vendingmachine).
holds(s_3483_jpg, wallsign).
holds(s_3483_jpg, chimney).
holds(s_3483_jpg, pipe).
holds(s_3483_jpg, machine).
holds(s_3483_jpg, car).
holds(s_3483_jpg, commercial).

sample(s_2833_jpg).
holds(s_2833_jpg, building).
holds(s_2833_jpg, feature).
holds(s_2833_jpg, watertreatment).
holds(s_2833_jpg, door).
holds(s_2833_jpg, billboard).
holds(s_2833_jpg, porch).
holds(s_2833_jpg, sign).
holds(s_2833_jpg, tiledroof).
holds(s_2833_jpg, tiledrooftop).
holds(s_2833_jpg, wallsign).
holds(s_2833_jpg, pipe).
holds(s_2833_jpg, industrial).

sample(s_3011_jpg).
holds(s_3011_jpg, building).
holds(s_3011_jpg, feature).
holds(s_3011_jpg, sign).
holds(s_3011_jpg, table).
holds(s_3011_jpg, tiledrooftop).
holds(s_3011_jpg, vendingmachine).
holds(s_3011_jpg, statue).
holds(s_3011_jpg, pipe).
holds(s_3011_jpg, machine).

sample(s_3294_jpg).
holds(s_3294_jpg, building).
holds(s_3294_jpg, feature).
holds(s_3294_jpg, hotel).
holds(s_3294_jpg, door).
holds(s_3294_jpg, billboard).
holds(s_3294_jpg, sign).
holds(s_3294_jpg, tiledroof).
holds(s_3294_jpg, tiledrooftop).
holds(s_3294_jpg, wallsign).
holds(s_3294_jpg, chimney).
holds(s_3294_jpg, pipe).
holds(s_3294_jpg, car).
holds(s_3294_jpg, commercial).

sample(s_5062_jpg).
holds(s_5062_jpg, building).
holds(s_5062_jpg, feature).
holds(s_5062_jpg, watertreatment).
holds(s_5062_jpg, door).
holds(s_5062_jpg, billboard).
holds(s_5062_jpg, porch).
holds(s_5062_jpg, sign).
holds(s_5062_jpg, tiledroof).
holds(s_5062_jpg, tiledrooftop).
holds(s_5062_jpg, wallsign).
holds(s_5062_jpg, pipe).
holds(s_5062_jpg, industrial).

sample(s_5036_jpg).
holds(s_5036_jpg, building).
holds(s_5036_jpg, feature).
holds(s_5036_jpg, porch).
holds(s_5036_jpg, sign).
holds(s_5036_jpg, table).
holds(s_5036_jpg, tiledrooftop).
holds(s_5036_jpg, vendingmachine).
holds(s_5036_jpg, statue).
holds(s_5036_jpg, pipe).
holds(s_5036_jpg, machine).

sample(s_10147_jpg).
holds(s_10147_jpg, building).
holds(s_10147_jpg, feature).
holds(s_10147_jpg, watertreatment).
holds(s_10147_jpg, door).
holds(s_10147_jpg, billboard).
holds(s_10147_jpg, porch).
holds(s_10147_jpg, sign).
holds(s_10147_jpg, tiledroof).
holds(s_10147_jpg, wallsign).
holds(s_10147_jpg, industrial).

sample(s_4504_jpg).
holds(s_4504_jpg, building).
holds(s_4504_jpg, feature).
holds(s_4504_jpg, watertreatment).
holds(s_4504_jpg, door).
holds(s_4504_jpg, billboard).
holds(s_4504_jpg, sign).
holds(s_4504_jpg, tiledroof).
holds(s_4504_jpg, tiledrooftop).
holds(s_4504_jpg, wallsign).
holds(s_4504_jpg, pipe).
holds(s_4504_jpg, industrial).

sample(s_13381_jpg).
holds(s_13381_jpg, building).
holds(s_13381_jpg, feature).
holds(s_13381_jpg, watertreatment).
holds(s_13381_jpg, door).
holds(s_13381_jpg, billboard).
holds(s_13381_jpg, porch).
holds(s_13381_jpg, sign).
holds(s_13381_jpg, tiledroof).
holds(s_13381_jpg, tiledrooftop).
holds(s_13381_jpg, wallsign).
holds(s_13381_jpg, pipe).
holds(s_13381_jpg, industrial).

sample(s_12078_jpg).
holds(s_12078_jpg, building).
holds(s_12078_jpg, feature).
holds(s_12078_jpg, hotel).
holds(s_12078_jpg, door).
holds(s_12078_jpg, billboard).
holds(s_12078_jpg, porch).
holds(s_12078_jpg, sign).
holds(s_12078_jpg, tiledroof).
holds(s_12078_jpg, tiledrooftop).
holds(s_12078_jpg, vendingmachine).
holds(s_12078_jpg, wallsign).
holds(s_12078_jpg, chimney).
holds(s_12078_jpg, pipe).
holds(s_12078_jpg, car).
holds(s_12078_jpg, commercial).

sample(s_7627_jpg).
holds(s_7627_jpg, building).
holds(s_7627_jpg, feature).
holds(s_7627_jpg, watertreatment).
holds(s_7627_jpg, door).
holds(s_7627_jpg, billboard).
holds(s_7627_jpg, porch).
holds(s_7627_jpg, sign).
holds(s_7627_jpg, tiledroof).
holds(s_7627_jpg, wallsign).
holds(s_7627_jpg, chimney).
holds(s_7627_jpg, pipe).
holds(s_7627_jpg, car).
holds(s_7627_jpg, industrial).

sample(s_2714_jpg).
holds(s_2714_jpg, building).
holds(s_2714_jpg, feature).
holds(s_2714_jpg, sign).
holds(s_2714_jpg, table).
holds(s_2714_jpg, tiledrooftop).
holds(s_2714_jpg, vendingmachine).
holds(s_2714_jpg, statue).
holds(s_2714_jpg, pipe).

sample(s_12358_jpg).
holds(s_12358_jpg, building).
holds(s_12358_jpg, feature).
holds(s_12358_jpg, watertreatment).
holds(s_12358_jpg, door).
holds(s_12358_jpg, billboard).
holds(s_12358_jpg, porch).
holds(s_12358_jpg, sign).
holds(s_12358_jpg, tiledroof).
holds(s_12358_jpg, tiledrooftop).
holds(s_12358_jpg, wallsign).
holds(s_12358_jpg, pipe).
holds(s_12358_jpg, industrial).

sample(s_10055_jpg).
holds(s_10055_jpg, building).
holds(s_10055_jpg, feature).
holds(s_10055_jpg, sign).
holds(s_10055_jpg, table).
holds(s_10055_jpg, tiledrooftop).
holds(s_10055_jpg, vendingmachine).
holds(s_10055_jpg, statue).
holds(s_10055_jpg, pipe).
holds(s_10055_jpg, machine).

sample(s_2212_jpg).
holds(s_2212_jpg, building).
holds(s_2212_jpg, feature).
holds(s_2212_jpg, watertreatment).
holds(s_2212_jpg, door).
holds(s_2212_jpg, billboard).
holds(s_2212_jpg, porch).
holds(s_2212_jpg, sign).
holds(s_2212_jpg, tiledroof).
holds(s_2212_jpg, wallsign).
holds(s_2212_jpg, pipe).
holds(s_2212_jpg, industrial).

sample(s_13407_jpg).
holds(s_13407_jpg, building).
holds(s_13407_jpg, feature).
holds(s_13407_jpg, hotel).
holds(s_13407_jpg, billboard).
holds(s_13407_jpg, sign).
holds(s_13407_jpg, table).
holds(s_13407_jpg, tiledroof).
holds(s_13407_jpg, tiledrooftop).
holds(s_13407_jpg, vendingmachine).
holds(s_13407_jpg, statue).
holds(s_13407_jpg, chimney).
holds(s_13407_jpg, pipe).
holds(s_13407_jpg, machine).
holds(s_13407_jpg, car).
holds(s_13407_jpg, commercial).

sample(s_8411_jpg).
holds(s_8411_jpg, building).
holds(s_8411_jpg, feature).
holds(s_8411_jpg, sign).
holds(s_8411_jpg, table).
holds(s_8411_jpg, tiledrooftop).
holds(s_8411_jpg, vendingmachine).
holds(s_8411_jpg, statue).
holds(s_8411_jpg, pipe).
holds(s_8411_jpg, machine).

sample(s_12388_jpg).
holds(s_12388_jpg, building).
holds(s_12388_jpg, feature).
holds(s_12388_jpg, watertreatment).
holds(s_12388_jpg, door).
holds(s_12388_jpg, billboard).
holds(s_12388_jpg, porch).
holds(s_12388_jpg, sign).
holds(s_12388_jpg, tiledroof).
holds(s_12388_jpg, wallsign).
holds(s_12388_jpg, pipe).
holds(s_12388_jpg, industrial).

sample(s_4871_jpg).
holds(s_4871_jpg, building).
holds(s_4871_jpg, feature).
holds(s_4871_jpg, billboard).
holds(s_4871_jpg, sign).
holds(s_4871_jpg, table).
holds(s_4871_jpg, tiledrooftop).
holds(s_4871_jpg, vendingmachine).
holds(s_4871_jpg, statue).
holds(s_4871_jpg, pipe).
holds(s_4871_jpg, machine).

sample(s_2090_jpg).
holds(s_2090_jpg, building).
holds(s_2090_jpg, feature).
holds(s_2090_jpg, sign).
holds(s_2090_jpg, table).
holds(s_2090_jpg, tiledrooftop).
holds(s_2090_jpg, vendingmachine).
holds(s_2090_jpg, statue).
holds(s_2090_jpg, pipe).

sample(s_8648_jpg).
holds(s_8648_jpg, building).
holds(s_8648_jpg, feature).
holds(s_8648_jpg, sign).
holds(s_8648_jpg, table).
holds(s_8648_jpg, tiledrooftop).
holds(s_8648_jpg, vendingmachine).
holds(s_8648_jpg, statue).
holds(s_8648_jpg, pipe).

sample(s_7436_jpg).
holds(s_7436_jpg, building).
holds(s_7436_jpg, feature).
holds(s_7436_jpg, sign).
holds(s_7436_jpg, table).
holds(s_7436_jpg, tiledrooftop).
holds(s_7436_jpg, vendingmachine).
holds(s_7436_jpg, statue).
holds(s_7436_jpg, pipe).
holds(s_7436_jpg, machine).

sample(s_2329_jpg).
holds(s_2329_jpg, building).
holds(s_2329_jpg, feature).
holds(s_2329_jpg, watertreatment).
holds(s_2329_jpg, door).
holds(s_2329_jpg, billboard).
holds(s_2329_jpg, sign).
holds(s_2329_jpg, tiledroof).
holds(s_2329_jpg, tiledrooftop).
holds(s_2329_jpg, wallsign).
holds(s_2329_jpg, chimney).
holds(s_2329_jpg, pipe).
holds(s_2329_jpg, industrial).

sample(s_7477_jpg).
holds(s_7477_jpg, building).
holds(s_7477_jpg, feature).
holds(s_7477_jpg, watertreatment).
holds(s_7477_jpg, door).
holds(s_7477_jpg, billboard).
holds(s_7477_jpg, porch).
holds(s_7477_jpg, sign).
holds(s_7477_jpg, tiledroof).
holds(s_7477_jpg, tiledrooftop).
holds(s_7477_jpg, wallsign).
holds(s_7477_jpg, chimney).
holds(s_7477_jpg, pipe).
holds(s_7477_jpg, industrial).

sample(s_4649_jpg).
holds(s_4649_jpg, building).
holds(s_4649_jpg, feature).
holds(s_4649_jpg, porch).
holds(s_4649_jpg, sign).
holds(s_4649_jpg, table).
holds(s_4649_jpg, tiledrooftop).
holds(s_4649_jpg, vendingmachine).
holds(s_4649_jpg, statue).
holds(s_4649_jpg, pipe).
holds(s_4649_jpg, machine).

sample(s_11329_jpg).
holds(s_11329_jpg, building).
holds(s_11329_jpg, feature).
holds(s_11329_jpg, watertreatment).
holds(s_11329_jpg, door).
holds(s_11329_jpg, billboard).
holds(s_11329_jpg, porch).
holds(s_11329_jpg, sign).
holds(s_11329_jpg, tiledroof).
holds(s_11329_jpg, wallsign).
holds(s_11329_jpg, industrial).

sample(s_11631_jpg).
holds(s_11631_jpg, building).
holds(s_11631_jpg, feature).
holds(s_11631_jpg, hotel).
holds(s_11631_jpg, billboard).
holds(s_11631_jpg, porch).
holds(s_11631_jpg, sign).
holds(s_11631_jpg, table).
holds(s_11631_jpg, tiledroof).
holds(s_11631_jpg, tiledrooftop).
holds(s_11631_jpg, vendingmachine).
holds(s_11631_jpg, statue).
holds(s_11631_jpg, chimney).
holds(s_11631_jpg, pipe).
holds(s_11631_jpg, machine).
holds(s_11631_jpg, car).
holds(s_11631_jpg, commercial).

sample(s_597_jpg).
holds(s_597_jpg, building).
holds(s_597_jpg, feature).
holds(s_597_jpg, hotel).
holds(s_597_jpg, door).
holds(s_597_jpg, billboard).
holds(s_597_jpg, porch).
holds(s_597_jpg, sign).
holds(s_597_jpg, tiledroof).
holds(s_597_jpg, tiledrooftop).
holds(s_597_jpg, vendingmachine).
holds(s_597_jpg, wallsign).
holds(s_597_jpg, chimney).
holds(s_597_jpg, pipe).
holds(s_597_jpg, machine).
holds(s_597_jpg, car).
holds(s_597_jpg, commercial).

sample(s_5045_jpg).
holds(s_5045_jpg, building).
holds(s_5045_jpg, feature).
holds(s_5045_jpg, sign).
holds(s_5045_jpg, table).
holds(s_5045_jpg, tiledrooftop).
holds(s_5045_jpg, vendingmachine).
holds(s_5045_jpg, statue).
holds(s_5045_jpg, pipe).

sample(s_3917_jpg).
holds(s_3917_jpg, building).
holds(s_3917_jpg, feature).
holds(s_3917_jpg, sign).
holds(s_3917_jpg, table).
holds(s_3917_jpg, tiledrooftop).
holds(s_3917_jpg, vendingmachine).
holds(s_3917_jpg, statue).
holds(s_3917_jpg, pipe).
holds(s_3917_jpg, machine).

sample(s_13430_jpg).
holds(s_13430_jpg, building).
holds(s_13430_jpg, feature).
holds(s_13430_jpg, porch).
holds(s_13430_jpg, sign).
holds(s_13430_jpg, table).
holds(s_13430_jpg, tiledrooftop).
holds(s_13430_jpg, vendingmachine).
holds(s_13430_jpg, statue).
holds(s_13430_jpg, pipe).

sample(s_14396_jpg).
holds(s_14396_jpg, building).
holds(s_14396_jpg, feature).
holds(s_14396_jpg, sign).
holds(s_14396_jpg, table).
holds(s_14396_jpg, tiledrooftop).
holds(s_14396_jpg, vendingmachine).
holds(s_14396_jpg, statue).
holds(s_14396_jpg, pipe).
holds(s_14396_jpg, machine).

sample(s_5645_jpg).
holds(s_5645_jpg, building).
holds(s_5645_jpg, feature).
holds(s_5645_jpg, sign).
holds(s_5645_jpg, table).
holds(s_5645_jpg, tiledrooftop).
holds(s_5645_jpg, vendingmachine).
holds(s_5645_jpg, statue).
holds(s_5645_jpg, pipe).
holds(s_5645_jpg, machine).

sample(s_13487_jpg).
holds(s_13487_jpg, building).
holds(s_13487_jpg, feature).
holds(s_13487_jpg, sign).
holds(s_13487_jpg, table).
holds(s_13487_jpg, tiledrooftop).
holds(s_13487_jpg, vendingmachine).
holds(s_13487_jpg, statue).
holds(s_13487_jpg, pipe).

sample(s_6308_jpg).
holds(s_6308_jpg, building).
holds(s_6308_jpg, feature).
holds(s_6308_jpg, sign).
holds(s_6308_jpg, table).
holds(s_6308_jpg, tiledrooftop).
holds(s_6308_jpg, vendingmachine).
holds(s_6308_jpg, statue).
holds(s_6308_jpg, pipe).
holds(s_6308_jpg, machine).

sample(s_12939_jpg).
holds(s_12939_jpg, building).
holds(s_12939_jpg, feature).
holds(s_12939_jpg, hotel).
holds(s_12939_jpg, door).
holds(s_12939_jpg, billboard).
holds(s_12939_jpg, porch).
holds(s_12939_jpg, sign).
holds(s_12939_jpg, table).
holds(s_12939_jpg, tiledroof).
holds(s_12939_jpg, tiledrooftop).
holds(s_12939_jpg, vendingmachine).
holds(s_12939_jpg, wallsign).
holds(s_12939_jpg, chimney).
holds(s_12939_jpg, pipe).
holds(s_12939_jpg, machine).
holds(s_12939_jpg, car).
holds(s_12939_jpg, commercial).

sample(s_11421_jpg).
holds(s_11421_jpg, building).
holds(s_11421_jpg, feature).
holds(s_11421_jpg, hotel).
holds(s_11421_jpg, billboard).
holds(s_11421_jpg, porch).
holds(s_11421_jpg, sign).
holds(s_11421_jpg, table).
holds(s_11421_jpg, tiledroof).
holds(s_11421_jpg, tiledrooftop).
holds(s_11421_jpg, vendingmachine).
holds(s_11421_jpg, statue).
holds(s_11421_jpg, pipe).
holds(s_11421_jpg, machine).
holds(s_11421_jpg, commercial).

sample(s_13602_jpg).
holds(s_13602_jpg, building).
holds(s_13602_jpg, feature).
holds(s_13602_jpg, hotel).
holds(s_13602_jpg, door).
holds(s_13602_jpg, billboard).
holds(s_13602_jpg, porch).
holds(s_13602_jpg, sign).
holds(s_13602_jpg, table).
holds(s_13602_jpg, tiledroof).
holds(s_13602_jpg, tiledrooftop).
holds(s_13602_jpg, vendingmachine).
holds(s_13602_jpg, wallsign).
holds(s_13602_jpg, chimney).
holds(s_13602_jpg, pipe).
holds(s_13602_jpg, machine).
holds(s_13602_jpg, car).
holds(s_13602_jpg, commercial).

sample(s_1158_jpg).
holds(s_1158_jpg, building).
holds(s_1158_jpg, feature).
holds(s_1158_jpg, hotel).
holds(s_1158_jpg, door).
holds(s_1158_jpg, billboard).
holds(s_1158_jpg, porch).
holds(s_1158_jpg, sign).
holds(s_1158_jpg, tiledroof).
holds(s_1158_jpg, tiledrooftop).
holds(s_1158_jpg, wallsign).
holds(s_1158_jpg, chimney).
holds(s_1158_jpg, pipe).
holds(s_1158_jpg, car).
holds(s_1158_jpg, commercial).

sample(s_11603_jpg).
holds(s_11603_jpg, building).
holds(s_11603_jpg, feature).
holds(s_11603_jpg, sign).
holds(s_11603_jpg, table).
holds(s_11603_jpg, tiledrooftop).
holds(s_11603_jpg, vendingmachine).
holds(s_11603_jpg, statue).
holds(s_11603_jpg, pipe).
holds(s_11603_jpg, machine).

sample(s_6025_jpg).
holds(s_6025_jpg, building).
holds(s_6025_jpg, feature).
holds(s_6025_jpg, watertreatment).
holds(s_6025_jpg, door).
holds(s_6025_jpg, billboard).
holds(s_6025_jpg, porch).
holds(s_6025_jpg, sign).
holds(s_6025_jpg, tiledroof).
holds(s_6025_jpg, tiledrooftop).
holds(s_6025_jpg, wallsign).
holds(s_6025_jpg, pipe).
holds(s_6025_jpg, industrial).

sample(s_11246_jpg).
holds(s_11246_jpg, building).
holds(s_11246_jpg, feature).
holds(s_11246_jpg, sign).
holds(s_11246_jpg, table).
holds(s_11246_jpg, tiledrooftop).
holds(s_11246_jpg, vendingmachine).
holds(s_11246_jpg, statue).
holds(s_11246_jpg, pipe).
holds(s_11246_jpg, machine).

sample(s_15640_jpg).
holds(s_15640_jpg, building).
holds(s_15640_jpg, feature).
holds(s_15640_jpg, watertreatment).
holds(s_15640_jpg, door).
holds(s_15640_jpg, billboard).
holds(s_15640_jpg, porch).
holds(s_15640_jpg, sign).
holds(s_15640_jpg, tiledroof).
holds(s_15640_jpg, wallsign).
holds(s_15640_jpg, industrial).

sample(s_12761_jpg).
holds(s_12761_jpg, building).
holds(s_12761_jpg, feature).
holds(s_12761_jpg, sign).
holds(s_12761_jpg, table).
holds(s_12761_jpg, tiledrooftop).
holds(s_12761_jpg, vendingmachine).
holds(s_12761_jpg, statue).
holds(s_12761_jpg, pipe).
holds(s_12761_jpg, machine).

sample(s_362_jpg).
holds(s_362_jpg, building).
holds(s_362_jpg, feature).
holds(s_362_jpg, sign).
holds(s_362_jpg, table).
holds(s_362_jpg, tiledrooftop).
holds(s_362_jpg, vendingmachine).
holds(s_362_jpg, statue).
holds(s_362_jpg, pipe).
holds(s_362_jpg, machine).

sample(s_5080_jpg).
holds(s_5080_jpg, building).
holds(s_5080_jpg, feature).
holds(s_5080_jpg, watertreatment).
holds(s_5080_jpg, door).
holds(s_5080_jpg, billboard).
holds(s_5080_jpg, porch).
holds(s_5080_jpg, sign).
holds(s_5080_jpg, tiledroof).
holds(s_5080_jpg, wallsign).
holds(s_5080_jpg, industrial).

sample(s_10444_jpg).
holds(s_10444_jpg, building).
holds(s_10444_jpg, feature).
holds(s_10444_jpg, watertreatment).
holds(s_10444_jpg, door).
holds(s_10444_jpg, billboard).
holds(s_10444_jpg, porch).
holds(s_10444_jpg, sign).
holds(s_10444_jpg, tiledroof).
holds(s_10444_jpg, tiledrooftop).
holds(s_10444_jpg, wallsign).
holds(s_10444_jpg, pipe).
holds(s_10444_jpg, industrial).

sample(s_15567_jpg).
holds(s_15567_jpg, building).
holds(s_15567_jpg, feature).
holds(s_15567_jpg, hotel).
holds(s_15567_jpg, billboard).
holds(s_15567_jpg, sign).
holds(s_15567_jpg, tiledroof).
holds(s_15567_jpg, tiledrooftop).
holds(s_15567_jpg, vendingmachine).
holds(s_15567_jpg, wallsign).
holds(s_15567_jpg, chimney).
holds(s_15567_jpg, pipe).
holds(s_15567_jpg, machine).
holds(s_15567_jpg, car).
holds(s_15567_jpg, commercial).

sample(s_7047_jpg).
holds(s_7047_jpg, building).
holds(s_7047_jpg, feature).
holds(s_7047_jpg, hotel).
holds(s_7047_jpg, billboard).
holds(s_7047_jpg, porch).
holds(s_7047_jpg, sign).
holds(s_7047_jpg, table).
holds(s_7047_jpg, tiledroof).
holds(s_7047_jpg, tiledrooftop).
holds(s_7047_jpg, vendingmachine).
holds(s_7047_jpg, wallsign).
holds(s_7047_jpg, chimney).
holds(s_7047_jpg, pipe).
holds(s_7047_jpg, machine).
holds(s_7047_jpg, car).
holds(s_7047_jpg, commercial).

sample(s_2183_jpg).
holds(s_2183_jpg, building).
holds(s_2183_jpg, feature).
holds(s_2183_jpg, sign).
holds(s_2183_jpg, table).
holds(s_2183_jpg, tiledrooftop).
holds(s_2183_jpg, vendingmachine).
holds(s_2183_jpg, statue).
holds(s_2183_jpg, pipe).

sample(s_1661_jpg).
holds(s_1661_jpg, building).
holds(s_1661_jpg, feature).
holds(s_1661_jpg, sign).
holds(s_1661_jpg, table).
holds(s_1661_jpg, tiledrooftop).
holds(s_1661_jpg, vendingmachine).
holds(s_1661_jpg, statue).
holds(s_1661_jpg, pipe).

sample(s_110_jpg).
holds(s_110_jpg, building).
holds(s_110_jpg, feature).
holds(s_110_jpg, porch).
holds(s_110_jpg, sign).
holds(s_110_jpg, table).
holds(s_110_jpg, tiledrooftop).
holds(s_110_jpg, vendingmachine).
holds(s_110_jpg, statue).
holds(s_110_jpg, pipe).

sample(s_12582_jpg).
holds(s_12582_jpg, building).
holds(s_12582_jpg, feature).
holds(s_12582_jpg, hotel).
holds(s_12582_jpg, billboard).
holds(s_12582_jpg, sign).
holds(s_12582_jpg, table).
holds(s_12582_jpg, tiledroof).
holds(s_12582_jpg, tiledrooftop).
holds(s_12582_jpg, vendingmachine).
holds(s_12582_jpg, statue).
holds(s_12582_jpg, chimney).
holds(s_12582_jpg, pipe).
holds(s_12582_jpg, machine).
holds(s_12582_jpg, car).
holds(s_12582_jpg, commercial).

sample(s_8045_jpg).
holds(s_8045_jpg, building).
holds(s_8045_jpg, feature).
holds(s_8045_jpg, window).
holds(s_8045_jpg, porch).
holds(s_8045_jpg, sign).
holds(s_8045_jpg, table).
holds(s_8045_jpg, tiledrooftop).
holds(s_8045_jpg, vendingmachine).
holds(s_8045_jpg, statue).
holds(s_8045_jpg, pipe).

sample(s_11362_jpg).
holds(s_11362_jpg, building).
holds(s_11362_jpg, feature).
holds(s_11362_jpg, watertreatment).
holds(s_11362_jpg, door).
holds(s_11362_jpg, billboard).
holds(s_11362_jpg, porch).
holds(s_11362_jpg, sign).
holds(s_11362_jpg, tiledroof).
holds(s_11362_jpg, wallsign).
holds(s_11362_jpg, industrial).

sample(s_9146_jpg).
holds(s_9146_jpg, building).
holds(s_9146_jpg, feature).
holds(s_9146_jpg, sign).
holds(s_9146_jpg, table).
holds(s_9146_jpg, tiledrooftop).
holds(s_9146_jpg, vendingmachine).
holds(s_9146_jpg, statue).
holds(s_9146_jpg, pipe).
holds(s_9146_jpg, machine).

sample(s_2320_jpg).
holds(s_2320_jpg, building).
holds(s_2320_jpg, feature).
holds(s_2320_jpg, watertreatment).
holds(s_2320_jpg, door).
holds(s_2320_jpg, billboard).
holds(s_2320_jpg, porch).
holds(s_2320_jpg, sign).
holds(s_2320_jpg, tiledroof).
holds(s_2320_jpg, wallsign).
holds(s_2320_jpg, pipe).
holds(s_2320_jpg, industrial).

sample(s_293_jpg).
holds(s_293_jpg, building).
holds(s_293_jpg, feature).
holds(s_293_jpg, porch).
holds(s_293_jpg, sign).
holds(s_293_jpg, table).
holds(s_293_jpg, tiledrooftop).
holds(s_293_jpg, vendingmachine).
holds(s_293_jpg, statue).
holds(s_293_jpg, pipe).

sample(s_866_jpg).
holds(s_866_jpg, building).
holds(s_866_jpg, feature).
holds(s_866_jpg, sign).
holds(s_866_jpg, table).
holds(s_866_jpg, tiledrooftop).
holds(s_866_jpg, vendingmachine).
holds(s_866_jpg, statue).
holds(s_866_jpg, pipe).
holds(s_866_jpg, machine).

sample(s_11599_jpg).
holds(s_11599_jpg, building).
holds(s_11599_jpg, feature).
holds(s_11599_jpg, watertreatment).
holds(s_11599_jpg, door).
holds(s_11599_jpg, billboard).
holds(s_11599_jpg, porch).
holds(s_11599_jpg, sign).
holds(s_11599_jpg, tiledroof).
holds(s_11599_jpg, wallsign).
holds(s_11599_jpg, pipe).
holds(s_11599_jpg, industrial).

sample(s_2624_jpg).
holds(s_2624_jpg, building).
holds(s_2624_jpg, feature).
holds(s_2624_jpg, sign).
holds(s_2624_jpg, table).
holds(s_2624_jpg, tiledrooftop).
holds(s_2624_jpg, vendingmachine).
holds(s_2624_jpg, statue).
holds(s_2624_jpg, pipe).

sample(s_1739_jpg).
holds(s_1739_jpg, building).
holds(s_1739_jpg, feature).
holds(s_1739_jpg, porch).
holds(s_1739_jpg, sign).
holds(s_1739_jpg, table).
holds(s_1739_jpg, tiledrooftop).
holds(s_1739_jpg, vendingmachine).
holds(s_1739_jpg, statue).

sample(s_2649_jpg).
holds(s_2649_jpg, building).
holds(s_2649_jpg, feature).
holds(s_2649_jpg, hotel).
holds(s_2649_jpg, door).
holds(s_2649_jpg, billboard).
holds(s_2649_jpg, porch).
holds(s_2649_jpg, sign).
holds(s_2649_jpg, tiledroof).
holds(s_2649_jpg, tiledrooftop).
holds(s_2649_jpg, wallsign).
holds(s_2649_jpg, chimney).
holds(s_2649_jpg, pipe).
holds(s_2649_jpg, car).
holds(s_2649_jpg, commercial).

sample(s_8640_jpg).
holds(s_8640_jpg, building).
holds(s_8640_jpg, feature).
holds(s_8640_jpg, hotel).
holds(s_8640_jpg, door).
holds(s_8640_jpg, billboard).
holds(s_8640_jpg, porch).
holds(s_8640_jpg, sign).
holds(s_8640_jpg, tiledroof).
holds(s_8640_jpg, tiledrooftop).
holds(s_8640_jpg, vendingmachine).
holds(s_8640_jpg, wallsign).
holds(s_8640_jpg, chimney).
holds(s_8640_jpg, pipe).
holds(s_8640_jpg, machine).
holds(s_8640_jpg, car).
holds(s_8640_jpg, commercial).

sample(s_8645_jpg).
holds(s_8645_jpg, building).
holds(s_8645_jpg, feature).
holds(s_8645_jpg, sign).
holds(s_8645_jpg, table).
holds(s_8645_jpg, tiledrooftop).
holds(s_8645_jpg, vendingmachine).
holds(s_8645_jpg, statue).
holds(s_8645_jpg, pipe).
holds(s_8645_jpg, machine).

sample(s_15760_jpg).
holds(s_15760_jpg, building).
holds(s_15760_jpg, feature).
holds(s_15760_jpg, watertreatment).
holds(s_15760_jpg, door).
holds(s_15760_jpg, billboard).
holds(s_15760_jpg, sign).
holds(s_15760_jpg, tiledroof).
holds(s_15760_jpg, tiledrooftop).
holds(s_15760_jpg, wallsign).
holds(s_15760_jpg, chimney).
holds(s_15760_jpg, pipe).
holds(s_15760_jpg, industrial).

sample(s_12268_jpg).
holds(s_12268_jpg, building).
holds(s_12268_jpg, feature).
holds(s_12268_jpg, watertreatment).
holds(s_12268_jpg, door).
holds(s_12268_jpg, billboard).
holds(s_12268_jpg, porch).
holds(s_12268_jpg, sign).
holds(s_12268_jpg, tiledroof).
holds(s_12268_jpg, tiledrooftop).
holds(s_12268_jpg, wallsign).
holds(s_12268_jpg, pipe).
holds(s_12268_jpg, industrial).

sample(s_1572_jpg).
holds(s_1572_jpg, building).
holds(s_1572_jpg, feature).
holds(s_1572_jpg, hotel).
holds(s_1572_jpg, billboard).
holds(s_1572_jpg, porch).
holds(s_1572_jpg, sign).
holds(s_1572_jpg, tiledroof).
holds(s_1572_jpg, tiledrooftop).
holds(s_1572_jpg, wallsign).
holds(s_1572_jpg, chimney).
holds(s_1572_jpg, pipe).
holds(s_1572_jpg, machine).
holds(s_1572_jpg, car).
holds(s_1572_jpg, commercial).

sample(s_10099_jpg).
holds(s_10099_jpg, building).
holds(s_10099_jpg, feature).
holds(s_10099_jpg, watertreatment).
holds(s_10099_jpg, door).
holds(s_10099_jpg, billboard).
holds(s_10099_jpg, porch).
holds(s_10099_jpg, sign).
holds(s_10099_jpg, tiledroof).
holds(s_10099_jpg, wallsign).
holds(s_10099_jpg, industrial).

sample(s_7658_jpg).
holds(s_7658_jpg, building).
holds(s_7658_jpg, feature).
holds(s_7658_jpg, window).
holds(s_7658_jpg, porch).
holds(s_7658_jpg, table).
holds(s_7658_jpg, tiledrooftop).
holds(s_7658_jpg, vendingmachine).
holds(s_7658_jpg, statue).
holds(s_7658_jpg, pipe).

sample(s_5523_jpg).
holds(s_5523_jpg, building).
holds(s_5523_jpg, feature).
holds(s_5523_jpg, hotel).
holds(s_5523_jpg, door).
holds(s_5523_jpg, billboard).
holds(s_5523_jpg, porch).
holds(s_5523_jpg, sign).
holds(s_5523_jpg, tiledroof).
holds(s_5523_jpg, tiledrooftop).
holds(s_5523_jpg, wallsign).
holds(s_5523_jpg, chimney).
holds(s_5523_jpg, pipe).
holds(s_5523_jpg, car).
holds(s_5523_jpg, commercial).

sample(s_13091_jpg).
holds(s_13091_jpg, building).
holds(s_13091_jpg, feature).
holds(s_13091_jpg, window).
holds(s_13091_jpg, porch).
holds(s_13091_jpg, sign).
holds(s_13091_jpg, table).
holds(s_13091_jpg, tiledrooftop).
holds(s_13091_jpg, vendingmachine).
holds(s_13091_jpg, statue).
holds(s_13091_jpg, pipe).

sample(s_772_jpg).
holds(s_772_jpg, building).
holds(s_772_jpg, feature).
holds(s_772_jpg, watertreatment).
holds(s_772_jpg, door).
holds(s_772_jpg, billboard).
holds(s_772_jpg, porch).
holds(s_772_jpg, sign).
holds(s_772_jpg, tiledroof).
holds(s_772_jpg, wallsign).
holds(s_772_jpg, pipe).
holds(s_772_jpg, industrial).

sample(s_3898_jpg).
holds(s_3898_jpg, building).
holds(s_3898_jpg, feature).
holds(s_3898_jpg, watertreatment).
holds(s_3898_jpg, door).
holds(s_3898_jpg, billboard).
holds(s_3898_jpg, porch).
holds(s_3898_jpg, sign).
holds(s_3898_jpg, tiledroof).
holds(s_3898_jpg, wallsign).
holds(s_3898_jpg, pipe).
holds(s_3898_jpg, industrial).

sample(s_7466_jpg).
holds(s_7466_jpg, building).
holds(s_7466_jpg, feature).
holds(s_7466_jpg, sign).
holds(s_7466_jpg, table).
holds(s_7466_jpg, tiledrooftop).
holds(s_7466_jpg, vendingmachine).
holds(s_7466_jpg, statue).
holds(s_7466_jpg, pipe).

sample(s_5329_jpg).
holds(s_5329_jpg, building).
holds(s_5329_jpg, feature).
holds(s_5329_jpg, watertreatment).
holds(s_5329_jpg, door).
holds(s_5329_jpg, billboard).
holds(s_5329_jpg, porch).
holds(s_5329_jpg, sign).
holds(s_5329_jpg, tiledroof).
holds(s_5329_jpg, wallsign).
holds(s_5329_jpg, industrial).

sample(s_1697_jpg).
holds(s_1697_jpg, building).
holds(s_1697_jpg, feature).
holds(s_1697_jpg, sign).
holds(s_1697_jpg, table).
holds(s_1697_jpg, tiledrooftop).
holds(s_1697_jpg, vendingmachine).
holds(s_1697_jpg, statue).
holds(s_1697_jpg, pipe).
holds(s_1697_jpg, machine).

sample(s_9939_jpg).
holds(s_9939_jpg, building).
holds(s_9939_jpg, feature).
holds(s_9939_jpg, hotel).
holds(s_9939_jpg, billboard).
holds(s_9939_jpg, porch).
holds(s_9939_jpg, sign).
holds(s_9939_jpg, table).
holds(s_9939_jpg, tiledroof).
holds(s_9939_jpg, tiledrooftop).
holds(s_9939_jpg, vendingmachine).
holds(s_9939_jpg, statue).
holds(s_9939_jpg, chimney).
holds(s_9939_jpg, pipe).
holds(s_9939_jpg, machine).
holds(s_9939_jpg, car).
holds(s_9939_jpg, commercial).

sample(s_1243_jpg).
holds(s_1243_jpg, building).
holds(s_1243_jpg, feature).
holds(s_1243_jpg, watertreatment).
holds(s_1243_jpg, door).
holds(s_1243_jpg, billboard).
holds(s_1243_jpg, porch).
holds(s_1243_jpg, sign).
holds(s_1243_jpg, tiledroof).
holds(s_1243_jpg, tiledrooftop).
holds(s_1243_jpg, wallsign).
holds(s_1243_jpg, pipe).
holds(s_1243_jpg, industrial).

sample(s_2433_jpg).
holds(s_2433_jpg, building).
holds(s_2433_jpg, feature).
holds(s_2433_jpg, hotel).
holds(s_2433_jpg, billboard).
holds(s_2433_jpg, sign).
holds(s_2433_jpg, table).
holds(s_2433_jpg, tiledroof).
holds(s_2433_jpg, tiledrooftop).
holds(s_2433_jpg, vendingmachine).
holds(s_2433_jpg, wallsign).
holds(s_2433_jpg, chimney).
holds(s_2433_jpg, pipe).
holds(s_2433_jpg, machine).
holds(s_2433_jpg, car).
holds(s_2433_jpg, commercial).

sample(s_2166_jpg).
holds(s_2166_jpg, building).
holds(s_2166_jpg, feature).
holds(s_2166_jpg, hotel).
holds(s_2166_jpg, billboard).
holds(s_2166_jpg, porch).
holds(s_2166_jpg, sign).
holds(s_2166_jpg, table).
holds(s_2166_jpg, tiledroof).
holds(s_2166_jpg, tiledrooftop).
holds(s_2166_jpg, vendingmachine).
holds(s_2166_jpg, statue).
holds(s_2166_jpg, chimney).
holds(s_2166_jpg, pipe).
holds(s_2166_jpg, machine).
holds(s_2166_jpg, car).
holds(s_2166_jpg, commercial).

sample(s_8013_jpg).
holds(s_8013_jpg, building).
holds(s_8013_jpg, feature).
holds(s_8013_jpg, hotel).
holds(s_8013_jpg, door).
holds(s_8013_jpg, billboard).
holds(s_8013_jpg, sign).
holds(s_8013_jpg, tiledroof).
holds(s_8013_jpg, tiledrooftop).
holds(s_8013_jpg, wallsign).
holds(s_8013_jpg, chimney).
holds(s_8013_jpg, pipe).
holds(s_8013_jpg, car).
holds(s_8013_jpg, commercial).

sample(s_11901_jpg).
holds(s_11901_jpg, building).
holds(s_11901_jpg, feature).
holds(s_11901_jpg, hotel).
holds(s_11901_jpg, door).
holds(s_11901_jpg, billboard).
holds(s_11901_jpg, sign).
holds(s_11901_jpg, tiledroof).
holds(s_11901_jpg, tiledrooftop).
holds(s_11901_jpg, wallsign).
holds(s_11901_jpg, chimney).
holds(s_11901_jpg, pipe).
holds(s_11901_jpg, car).
holds(s_11901_jpg, commercial).

sample(s_11486_jpg).
holds(s_11486_jpg, building).
holds(s_11486_jpg, feature).
holds(s_11486_jpg, porch).
holds(s_11486_jpg, sign).
holds(s_11486_jpg, table).
holds(s_11486_jpg, tiledrooftop).
holds(s_11486_jpg, vendingmachine).
holds(s_11486_jpg, statue).
holds(s_11486_jpg, pipe).
holds(s_11486_jpg, machine).

sample(s_5477_jpg).
holds(s_5477_jpg, building).
holds(s_5477_jpg, feature).
holds(s_5477_jpg, sign).
holds(s_5477_jpg, table).
holds(s_5477_jpg, tiledrooftop).
holds(s_5477_jpg, vendingmachine).
holds(s_5477_jpg, statue).
holds(s_5477_jpg, pipe).

sample(s_14391_jpg).
holds(s_14391_jpg, building).
holds(s_14391_jpg, feature).
holds(s_14391_jpg, hotel).
holds(s_14391_jpg, billboard).
holds(s_14391_jpg, sign).
holds(s_14391_jpg, table).
holds(s_14391_jpg, tiledroof).
holds(s_14391_jpg, tiledrooftop).
holds(s_14391_jpg, vendingmachine).
holds(s_14391_jpg, statue).
holds(s_14391_jpg, chimney).
holds(s_14391_jpg, pipe).
holds(s_14391_jpg, machine).
holds(s_14391_jpg, car).
holds(s_14391_jpg, commercial).

sample(s_8438_jpg).
holds(s_8438_jpg, building).
holds(s_8438_jpg, feature).
holds(s_8438_jpg, sign).
holds(s_8438_jpg, table).
holds(s_8438_jpg, tiledrooftop).
holds(s_8438_jpg, vendingmachine).
holds(s_8438_jpg, statue).
holds(s_8438_jpg, pipe).

sample(s_14534_jpg).
holds(s_14534_jpg, building).
holds(s_14534_jpg, feature).
holds(s_14534_jpg, porch).
holds(s_14534_jpg, sign).
holds(s_14534_jpg, table).
holds(s_14534_jpg, tiledrooftop).
holds(s_14534_jpg, vendingmachine).
holds(s_14534_jpg, statue).
holds(s_14534_jpg, pipe).
holds(s_14534_jpg, machine).

sample(s_5825_jpg).
holds(s_5825_jpg, building).
holds(s_5825_jpg, feature).
holds(s_5825_jpg, sign).
holds(s_5825_jpg, table).
holds(s_5825_jpg, tiledrooftop).
holds(s_5825_jpg, vendingmachine).
holds(s_5825_jpg, statue).
holds(s_5825_jpg, pipe).
holds(s_5825_jpg, machine).

sample(s_2968_jpg).
holds(s_2968_jpg, building).
holds(s_2968_jpg, feature).
holds(s_2968_jpg, watertreatment).
holds(s_2968_jpg, door).
holds(s_2968_jpg, billboard).
holds(s_2968_jpg, porch).
holds(s_2968_jpg, sign).
holds(s_2968_jpg, tiledroof).
holds(s_2968_jpg, wallsign).
holds(s_2968_jpg, industrial).

sample(s_12382_jpg).
holds(s_12382_jpg, building).
holds(s_12382_jpg, feature).
holds(s_12382_jpg, watertreatment).
holds(s_12382_jpg, door).
holds(s_12382_jpg, billboard).
holds(s_12382_jpg, porch).
holds(s_12382_jpg, sign).
holds(s_12382_jpg, tiledroof).
holds(s_12382_jpg, wallsign).
holds(s_12382_jpg, industrial).

sample(s_2397_jpg).
holds(s_2397_jpg, building).
holds(s_2397_jpg, feature).
holds(s_2397_jpg, hotel).
holds(s_2397_jpg, door).
holds(s_2397_jpg, billboard).
holds(s_2397_jpg, porch).
holds(s_2397_jpg, sign).
holds(s_2397_jpg, tiledroof).
holds(s_2397_jpg, tiledrooftop).
holds(s_2397_jpg, wallsign).
holds(s_2397_jpg, chimney).
holds(s_2397_jpg, pipe).
holds(s_2397_jpg, car).
holds(s_2397_jpg, commercial).

sample(s_13288_jpg).
holds(s_13288_jpg, building).
holds(s_13288_jpg, feature).
holds(s_13288_jpg, watertreatment).
holds(s_13288_jpg, porch).
holds(s_13288_jpg, sign).
holds(s_13288_jpg, table).
holds(s_13288_jpg, tiledroof).
holds(s_13288_jpg, vendingmachine).
holds(s_13288_jpg, statue).
holds(s_13288_jpg, pipe).
holds(s_13288_jpg, industrial).

sample(s_15859_jpg).
holds(s_15859_jpg, building).
holds(s_15859_jpg, feature).
holds(s_15859_jpg, watertreatment).
holds(s_15859_jpg, door).
holds(s_15859_jpg, billboard).
holds(s_15859_jpg, porch).
holds(s_15859_jpg, sign).
holds(s_15859_jpg, tiledroof).
holds(s_15859_jpg, wallsign).
holds(s_15859_jpg, chimney).
holds(s_15859_jpg, pipe).
holds(s_15859_jpg, industrial).

sample(s_4233_jpg).
holds(s_4233_jpg, building).
holds(s_4233_jpg, feature).
holds(s_4233_jpg, hotel).
holds(s_4233_jpg, door).
holds(s_4233_jpg, billboard).
holds(s_4233_jpg, porch).
holds(s_4233_jpg, sign).
holds(s_4233_jpg, tiledroof).
holds(s_4233_jpg, tiledrooftop).
holds(s_4233_jpg, wallsign).
holds(s_4233_jpg, chimney).
holds(s_4233_jpg, pipe).
holds(s_4233_jpg, car).
holds(s_4233_jpg, commercial).

sample(s_3324_jpg).
holds(s_3324_jpg, building).
holds(s_3324_jpg, feature).
holds(s_3324_jpg, hotel).
holds(s_3324_jpg, door).
holds(s_3324_jpg, billboard).
holds(s_3324_jpg, porch).
holds(s_3324_jpg, sign).
holds(s_3324_jpg, tiledroof).
holds(s_3324_jpg, tiledrooftop).
holds(s_3324_jpg, wallsign).
holds(s_3324_jpg, chimney).
holds(s_3324_jpg, pipe).
holds(s_3324_jpg, car).
holds(s_3324_jpg, commercial).

sample(s_7283_jpg).
holds(s_7283_jpg, building).
holds(s_7283_jpg, feature).
holds(s_7283_jpg, sign).
holds(s_7283_jpg, table).
holds(s_7283_jpg, tiledrooftop).
holds(s_7283_jpg, vendingmachine).
holds(s_7283_jpg, statue).
holds(s_7283_jpg, pipe).
holds(s_7283_jpg, machine).

sample(s_13661_jpg).
holds(s_13661_jpg, building).
holds(s_13661_jpg, feature).
holds(s_13661_jpg, sign).
holds(s_13661_jpg, table).
holds(s_13661_jpg, tiledrooftop).
holds(s_13661_jpg, vendingmachine).
holds(s_13661_jpg, statue).
holds(s_13661_jpg, pipe).
holds(s_13661_jpg, machine).

sample(s_13014_jpg).
holds(s_13014_jpg, building).
holds(s_13014_jpg, feature).
holds(s_13014_jpg, hotel).
holds(s_13014_jpg, door).
holds(s_13014_jpg, billboard).
holds(s_13014_jpg, porch).
holds(s_13014_jpg, sign).
holds(s_13014_jpg, tiledroof).
holds(s_13014_jpg, tiledrooftop).
holds(s_13014_jpg, vendingmachine).
holds(s_13014_jpg, wallsign).
holds(s_13014_jpg, chimney).
holds(s_13014_jpg, pipe).
holds(s_13014_jpg, car).
holds(s_13014_jpg, commercial).

sample(s_134_jpg).
holds(s_134_jpg, building).
holds(s_134_jpg, feature).
holds(s_134_jpg, sign).
holds(s_134_jpg, table).
holds(s_134_jpg, tiledrooftop).
holds(s_134_jpg, vendingmachine).
holds(s_134_jpg, statue).
holds(s_134_jpg, pipe).

sample(s_11690_jpg).
holds(s_11690_jpg, building).
holds(s_11690_jpg, feature).
holds(s_11690_jpg, sign).
holds(s_11690_jpg, table).
holds(s_11690_jpg, tiledrooftop).
holds(s_11690_jpg, vendingmachine).
holds(s_11690_jpg, statue).
holds(s_11690_jpg, pipe).
holds(s_11690_jpg, machine).

sample(s_15751_jpg).
holds(s_15751_jpg, building).
holds(s_15751_jpg, feature).
holds(s_15751_jpg, watertreatment).
holds(s_15751_jpg, door).
holds(s_15751_jpg, billboard).
holds(s_15751_jpg, porch).
holds(s_15751_jpg, sign).
holds(s_15751_jpg, tiledroof).
holds(s_15751_jpg, wallsign).
holds(s_15751_jpg, industrial).

sample(s_831_jpg).
holds(s_831_jpg, building).
holds(s_831_jpg, feature).
holds(s_831_jpg, hotel).
holds(s_831_jpg, door).
holds(s_831_jpg, billboard).
holds(s_831_jpg, porch).
holds(s_831_jpg, sign).
holds(s_831_jpg, tiledroof).
holds(s_831_jpg, tiledrooftop).
holds(s_831_jpg, vendingmachine).
holds(s_831_jpg, wallsign).
holds(s_831_jpg, chimney).
holds(s_831_jpg, pipe).
holds(s_831_jpg, machine).
holds(s_831_jpg, car).
holds(s_831_jpg, commercial).

sample(s_13129_jpg).
holds(s_13129_jpg, building).
holds(s_13129_jpg, feature).
holds(s_13129_jpg, watertreatment).
holds(s_13129_jpg, door).
holds(s_13129_jpg, billboard).
holds(s_13129_jpg, porch).
holds(s_13129_jpg, sign).
holds(s_13129_jpg, tiledroof).
holds(s_13129_jpg, tiledrooftop).
holds(s_13129_jpg, wallsign).
holds(s_13129_jpg, industrial).

sample(s_865_jpg).
holds(s_865_jpg, building).
holds(s_865_jpg, feature).
holds(s_865_jpg, watertreatment).
holds(s_865_jpg, door).
holds(s_865_jpg, billboard).
holds(s_865_jpg, porch).
holds(s_865_jpg, sign).
holds(s_865_jpg, tiledroof).
holds(s_865_jpg, tiledrooftop).
holds(s_865_jpg, wallsign).
holds(s_865_jpg, industrial).

sample(s_3750_jpg).
holds(s_3750_jpg, building).
holds(s_3750_jpg, feature).
holds(s_3750_jpg, hotel).
holds(s_3750_jpg, door).
holds(s_3750_jpg, billboard).
holds(s_3750_jpg, porch).
holds(s_3750_jpg, sign).
holds(s_3750_jpg, tiledroof).
holds(s_3750_jpg, tiledrooftop).
holds(s_3750_jpg, wallsign).
holds(s_3750_jpg, chimney).
holds(s_3750_jpg, pipe).
holds(s_3750_jpg, car).
holds(s_3750_jpg, commercial).

sample(s_6917_jpg).
holds(s_6917_jpg, building).
holds(s_6917_jpg, feature).
holds(s_6917_jpg, window).
holds(s_6917_jpg, porch).
holds(s_6917_jpg, sign).
holds(s_6917_jpg, table).
holds(s_6917_jpg, tiledrooftop).
holds(s_6917_jpg, vendingmachine).
holds(s_6917_jpg, statue).
holds(s_6917_jpg, pipe).

sample(s_4171_jpg).
holds(s_4171_jpg, building).
holds(s_4171_jpg, feature).
holds(s_4171_jpg, watertreatment).
holds(s_4171_jpg, door).
holds(s_4171_jpg, billboard).
holds(s_4171_jpg, porch).
holds(s_4171_jpg, sign).
holds(s_4171_jpg, tiledroof).
holds(s_4171_jpg, wallsign).
holds(s_4171_jpg, industrial).

sample(s_5172_jpg).
holds(s_5172_jpg, building).
holds(s_5172_jpg, feature).
holds(s_5172_jpg, hotel).
holds(s_5172_jpg, billboard).
holds(s_5172_jpg, sign).
holds(s_5172_jpg, table).
holds(s_5172_jpg, tiledroof).
holds(s_5172_jpg, tiledrooftop).
holds(s_5172_jpg, vendingmachine).
holds(s_5172_jpg, statue).
holds(s_5172_jpg, chimney).
holds(s_5172_jpg, pipe).
holds(s_5172_jpg, machine).
holds(s_5172_jpg, car).
holds(s_5172_jpg, commercial).

sample(s_10274_jpg).
holds(s_10274_jpg, building).
holds(s_10274_jpg, feature).
holds(s_10274_jpg, porch).
holds(s_10274_jpg, sign).
holds(s_10274_jpg, table).
holds(s_10274_jpg, tiledrooftop).
holds(s_10274_jpg, vendingmachine).
holds(s_10274_jpg, statue).
holds(s_10274_jpg, machine).

sample(s_4641_jpg).
holds(s_4641_jpg, building).
holds(s_4641_jpg, feature).
holds(s_4641_jpg, hotel).
holds(s_4641_jpg, billboard).
holds(s_4641_jpg, sign).
holds(s_4641_jpg, tiledroof).
holds(s_4641_jpg, tiledrooftop).
holds(s_4641_jpg, wallsign).
holds(s_4641_jpg, chimney).
holds(s_4641_jpg, pipe).
holds(s_4641_jpg, machine).
holds(s_4641_jpg, car).
holds(s_4641_jpg, commercial).

sample(s_3920_jpg).
holds(s_3920_jpg, building).
holds(s_3920_jpg, feature).
holds(s_3920_jpg, porch).
holds(s_3920_jpg, sign).
holds(s_3920_jpg, table).
holds(s_3920_jpg, tiledrooftop).
holds(s_3920_jpg, vendingmachine).
holds(s_3920_jpg, statue).
holds(s_3920_jpg, pipe).
holds(s_3920_jpg, machine).

sample(s_10646_jpg).
holds(s_10646_jpg, building).
holds(s_10646_jpg, feature).
holds(s_10646_jpg, window).
holds(s_10646_jpg, porch).
holds(s_10646_jpg, sign).
holds(s_10646_jpg, table).
holds(s_10646_jpg, tiledrooftop).
holds(s_10646_jpg, vendingmachine).
holds(s_10646_jpg, statue).
holds(s_10646_jpg, pipe).

sample(s_3970_jpg).
holds(s_3970_jpg, building).
holds(s_3970_jpg, feature).
holds(s_3970_jpg, watertreatment).
holds(s_3970_jpg, door).
holds(s_3970_jpg, billboard).
holds(s_3970_jpg, sign).
holds(s_3970_jpg, tiledroof).
holds(s_3970_jpg, tiledrooftop).
holds(s_3970_jpg, wallsign).
holds(s_3970_jpg, chimney).
holds(s_3970_jpg, pipe).
holds(s_3970_jpg, industrial).

sample(s_13403_jpg).
holds(s_13403_jpg, building).
holds(s_13403_jpg, feature).
holds(s_13403_jpg, sign).
holds(s_13403_jpg, table).
holds(s_13403_jpg, tiledrooftop).
holds(s_13403_jpg, vendingmachine).
holds(s_13403_jpg, statue).
holds(s_13403_jpg, pipe).

sample(s_331_jpg).
holds(s_331_jpg, building).
holds(s_331_jpg, feature).
holds(s_331_jpg, watertreatment).
holds(s_331_jpg, door).
holds(s_331_jpg, billboard).
holds(s_331_jpg, porch).
holds(s_331_jpg, sign).
holds(s_331_jpg, tiledroof).
holds(s_331_jpg, wallsign).
holds(s_331_jpg, industrial).

sample(s_11770_jpg).
holds(s_11770_jpg, building).
holds(s_11770_jpg, feature).
holds(s_11770_jpg, watertreatment).
holds(s_11770_jpg, door).
holds(s_11770_jpg, billboard).
holds(s_11770_jpg, porch).
holds(s_11770_jpg, sign).
holds(s_11770_jpg, tiledroof).
holds(s_11770_jpg, tiledrooftop).
holds(s_11770_jpg, wallsign).
holds(s_11770_jpg, pipe).
holds(s_11770_jpg, industrial).

sample(s_9695_jpg).
holds(s_9695_jpg, building).
holds(s_9695_jpg, feature).
holds(s_9695_jpg, porch).
holds(s_9695_jpg, sign).
holds(s_9695_jpg, table).
holds(s_9695_jpg, tiledrooftop).
holds(s_9695_jpg, vendingmachine).
holds(s_9695_jpg, statue).
holds(s_9695_jpg, pipe).
holds(s_9695_jpg, machine).

sample(s_2635_jpg).
holds(s_2635_jpg, building).
holds(s_2635_jpg, feature).
holds(s_2635_jpg, watertreatment).
holds(s_2635_jpg, door).
holds(s_2635_jpg, billboard).
holds(s_2635_jpg, porch).
holds(s_2635_jpg, sign).
holds(s_2635_jpg, tiledroof).
holds(s_2635_jpg, wallsign).
holds(s_2635_jpg, industrial).

sample(s_9408_jpg).
holds(s_9408_jpg, building).
holds(s_9408_jpg, feature).
holds(s_9408_jpg, hotel).
holds(s_9408_jpg, door).
holds(s_9408_jpg, billboard).
holds(s_9408_jpg, porch).
holds(s_9408_jpg, sign).
holds(s_9408_jpg, tiledroof).
holds(s_9408_jpg, tiledrooftop).
holds(s_9408_jpg, wallsign).
holds(s_9408_jpg, chimney).
holds(s_9408_jpg, pipe).
holds(s_9408_jpg, car).
holds(s_9408_jpg, commercial).

sample(s_11438_jpg).
holds(s_11438_jpg, building).
holds(s_11438_jpg, feature).
holds(s_11438_jpg, sign).
holds(s_11438_jpg, table).
holds(s_11438_jpg, tiledrooftop).
holds(s_11438_jpg, vendingmachine).
holds(s_11438_jpg, statue).
holds(s_11438_jpg, pipe).
holds(s_11438_jpg, machine).

sample(s_10754_jpg).
holds(s_10754_jpg, building).
holds(s_10754_jpg, feature).
holds(s_10754_jpg, billboard).
holds(s_10754_jpg, porch).
holds(s_10754_jpg, sign).
holds(s_10754_jpg, table).
holds(s_10754_jpg, tiledrooftop).
holds(s_10754_jpg, vendingmachine).
holds(s_10754_jpg, statue).
holds(s_10754_jpg, machine).

sample(s_3055_jpg).
holds(s_3055_jpg, building).
holds(s_3055_jpg, feature).
holds(s_3055_jpg, watertreatment).
holds(s_3055_jpg, door).
holds(s_3055_jpg, billboard).
holds(s_3055_jpg, porch).
holds(s_3055_jpg, sign).
holds(s_3055_jpg, tiledroof).
holds(s_3055_jpg, tiledrooftop).
holds(s_3055_jpg, wallsign).
holds(s_3055_jpg, chimney).
holds(s_3055_jpg, pipe).
holds(s_3055_jpg, industrial).

sample(s_6134_jpg).
holds(s_6134_jpg, building).
holds(s_6134_jpg, feature).
holds(s_6134_jpg, sign).
holds(s_6134_jpg, table).
holds(s_6134_jpg, tiledrooftop).
holds(s_6134_jpg, vendingmachine).
holds(s_6134_jpg, statue).
holds(s_6134_jpg, pipe).
holds(s_6134_jpg, machine).

sample(s_8409_jpg).
holds(s_8409_jpg, building).
holds(s_8409_jpg, feature).
holds(s_8409_jpg, hotel).
holds(s_8409_jpg, porch).
holds(s_8409_jpg, sign).
holds(s_8409_jpg, table).
holds(s_8409_jpg, tiledroof).
holds(s_8409_jpg, tiledrooftop).
holds(s_8409_jpg, vendingmachine).
holds(s_8409_jpg, statue).
holds(s_8409_jpg, pipe).
holds(s_8409_jpg, commercial).

sample(s_746_jpg).
holds(s_746_jpg, building).
holds(s_746_jpg, feature).
holds(s_746_jpg, window).
holds(s_746_jpg, porch).
holds(s_746_jpg, sign).
holds(s_746_jpg, table).
holds(s_746_jpg, tiledrooftop).
holds(s_746_jpg, vendingmachine).
holds(s_746_jpg, statue).
holds(s_746_jpg, pipe).

sample(s_15882_jpg).
holds(s_15882_jpg, building).
holds(s_15882_jpg, feature).
holds(s_15882_jpg, hotel).
holds(s_15882_jpg, door).
holds(s_15882_jpg, billboard).
holds(s_15882_jpg, porch).
holds(s_15882_jpg, sign).
holds(s_15882_jpg, tiledroof).
holds(s_15882_jpg, tiledrooftop).
holds(s_15882_jpg, vendingmachine).
holds(s_15882_jpg, wallsign).
holds(s_15882_jpg, chimney).
holds(s_15882_jpg, pipe).
holds(s_15882_jpg, machine).
holds(s_15882_jpg, car).
holds(s_15882_jpg, commercial).

sample(s_548_jpg).
holds(s_548_jpg, building).
holds(s_548_jpg, feature).
holds(s_548_jpg, billboard).
holds(s_548_jpg, porch).
holds(s_548_jpg, sign).
holds(s_548_jpg, table).
holds(s_548_jpg, tiledrooftop).
holds(s_548_jpg, vendingmachine).
holds(s_548_jpg, statue).
holds(s_548_jpg, pipe).
holds(s_548_jpg, machine).

sample(s_4913_jpg).
holds(s_4913_jpg, building).
holds(s_4913_jpg, feature).
holds(s_4913_jpg, billboard).
holds(s_4913_jpg, porch).
holds(s_4913_jpg, sign).
holds(s_4913_jpg, table).
holds(s_4913_jpg, tiledrooftop).
holds(s_4913_jpg, vendingmachine).
holds(s_4913_jpg, statue).
holds(s_4913_jpg, pipe).
holds(s_4913_jpg, machine).

sample(s_4409_jpg).
holds(s_4409_jpg, building).
holds(s_4409_jpg, feature).
holds(s_4409_jpg, sign).
holds(s_4409_jpg, table).
holds(s_4409_jpg, tiledrooftop).
holds(s_4409_jpg, vendingmachine).
holds(s_4409_jpg, statue).
holds(s_4409_jpg, pipe).

sample(s_219_jpg).
holds(s_219_jpg, building).
holds(s_219_jpg, feature).
holds(s_219_jpg, hotel).
holds(s_219_jpg, door).
holds(s_219_jpg, billboard).
holds(s_219_jpg, porch).
holds(s_219_jpg, sign).
holds(s_219_jpg, tiledroof).
holds(s_219_jpg, tiledrooftop).
holds(s_219_jpg, vendingmachine).
holds(s_219_jpg, wallsign).
holds(s_219_jpg, chimney).
holds(s_219_jpg, pipe).
holds(s_219_jpg, car).
holds(s_219_jpg, commercial).

sample(s_9476_jpg).
holds(s_9476_jpg, building).
holds(s_9476_jpg, feature).
holds(s_9476_jpg, sign).
holds(s_9476_jpg, table).
holds(s_9476_jpg, tiledrooftop).
holds(s_9476_jpg, vendingmachine).
holds(s_9476_jpg, statue).
holds(s_9476_jpg, pipe).
holds(s_9476_jpg, machine).

sample(s_4635_jpg).
holds(s_4635_jpg, building).
holds(s_4635_jpg, feature).
holds(s_4635_jpg, hotel).
holds(s_4635_jpg, door).
holds(s_4635_jpg, billboard).
holds(s_4635_jpg, porch).
holds(s_4635_jpg, sign).
holds(s_4635_jpg, tiledroof).
holds(s_4635_jpg, tiledrooftop).
holds(s_4635_jpg, wallsign).
holds(s_4635_jpg, chimney).
holds(s_4635_jpg, pipe).
holds(s_4635_jpg, car).
holds(s_4635_jpg, commercial).

sample(s_8657_jpg).
holds(s_8657_jpg, building).
holds(s_8657_jpg, feature).
holds(s_8657_jpg, porch).
holds(s_8657_jpg, sign).
holds(s_8657_jpg, table).
holds(s_8657_jpg, tiledrooftop).
holds(s_8657_jpg, vendingmachine).
holds(s_8657_jpg, statue).
holds(s_8657_jpg, pipe).
holds(s_8657_jpg, machine).

sample(s_13749_jpg).
holds(s_13749_jpg, building).
holds(s_13749_jpg, feature).
holds(s_13749_jpg, hotel).
holds(s_13749_jpg, door).
holds(s_13749_jpg, billboard).
holds(s_13749_jpg, porch).
holds(s_13749_jpg, sign).
holds(s_13749_jpg, tiledroof).
holds(s_13749_jpg, tiledrooftop).
holds(s_13749_jpg, vendingmachine).
holds(s_13749_jpg, wallsign).
holds(s_13749_jpg, chimney).
holds(s_13749_jpg, pipe).
holds(s_13749_jpg, car).
holds(s_13749_jpg, commercial).

sample(s_11606_jpg).
holds(s_11606_jpg, building).
holds(s_11606_jpg, feature).
holds(s_11606_jpg, sign).
holds(s_11606_jpg, table).
holds(s_11606_jpg, tiledrooftop).
holds(s_11606_jpg, vendingmachine).
holds(s_11606_jpg, statue).
holds(s_11606_jpg, pipe).
holds(s_11606_jpg, machine).

sample(s_10714_jpg).
holds(s_10714_jpg, building).
holds(s_10714_jpg, feature).
holds(s_10714_jpg, watertreatment).
holds(s_10714_jpg, door).
holds(s_10714_jpg, billboard).
holds(s_10714_jpg, porch).
holds(s_10714_jpg, sign).
holds(s_10714_jpg, tiledroof).
holds(s_10714_jpg, wallsign).
holds(s_10714_jpg, industrial).

sample(s_12417_jpg).
holds(s_12417_jpg, building).
holds(s_12417_jpg, feature).
holds(s_12417_jpg, hotel).
holds(s_12417_jpg, door).
holds(s_12417_jpg, billboard).
holds(s_12417_jpg, sign).
holds(s_12417_jpg, tiledroof).
holds(s_12417_jpg, tiledrooftop).
holds(s_12417_jpg, wallsign).
holds(s_12417_jpg, chimney).
holds(s_12417_jpg, pipe).
holds(s_12417_jpg, car).
holds(s_12417_jpg, commercial).

sample(s_13378_jpg).
holds(s_13378_jpg, building).
holds(s_13378_jpg, feature).
holds(s_13378_jpg, watertreatment).
holds(s_13378_jpg, door).
holds(s_13378_jpg, billboard).
holds(s_13378_jpg, porch).
holds(s_13378_jpg, sign).
holds(s_13378_jpg, tiledroof).
holds(s_13378_jpg, wallsign).
holds(s_13378_jpg, industrial).

sample(s_7622_jpg).
holds(s_7622_jpg, building).
holds(s_7622_jpg, feature).
holds(s_7622_jpg, billboard).
holds(s_7622_jpg, porch).
holds(s_7622_jpg, sign).
holds(s_7622_jpg, table).
holds(s_7622_jpg, tiledrooftop).
holds(s_7622_jpg, vendingmachine).
holds(s_7622_jpg, statue).

sample(s_9781_jpg).
holds(s_9781_jpg, building).
holds(s_9781_jpg, feature).
holds(s_9781_jpg, watertreatment).
holds(s_9781_jpg, door).
holds(s_9781_jpg, billboard).
holds(s_9781_jpg, sign).
holds(s_9781_jpg, tiledroof).
holds(s_9781_jpg, tiledrooftop).
holds(s_9781_jpg, wallsign).
holds(s_9781_jpg, chimney).
holds(s_9781_jpg, pipe).
holds(s_9781_jpg, industrial).

sample(s_6096_jpg).
holds(s_6096_jpg, building).
holds(s_6096_jpg, feature).
holds(s_6096_jpg, hotel).
holds(s_6096_jpg, billboard).
holds(s_6096_jpg, sign).
holds(s_6096_jpg, tiledroof).
holds(s_6096_jpg, tiledrooftop).
holds(s_6096_jpg, vendingmachine).
holds(s_6096_jpg, wallsign).
holds(s_6096_jpg, chimney).
holds(s_6096_jpg, pipe).
holds(s_6096_jpg, machine).
holds(s_6096_jpg, car).
holds(s_6096_jpg, commercial).

sample(s_10728_jpg).
holds(s_10728_jpg, building).
holds(s_10728_jpg, feature).
holds(s_10728_jpg, hotel).
holds(s_10728_jpg, door).
holds(s_10728_jpg, billboard).
holds(s_10728_jpg, porch).
holds(s_10728_jpg, sign).
holds(s_10728_jpg, tiledroof).
holds(s_10728_jpg, tiledrooftop).
holds(s_10728_jpg, wallsign).
holds(s_10728_jpg, chimney).
holds(s_10728_jpg, pipe).
holds(s_10728_jpg, car).
holds(s_10728_jpg, commercial).

sample(s_4523_jpg).
holds(s_4523_jpg, building).
holds(s_4523_jpg, feature).
holds(s_4523_jpg, sign).
holds(s_4523_jpg, table).
holds(s_4523_jpg, tiledrooftop).
holds(s_4523_jpg, vendingmachine).
holds(s_4523_jpg, statue).
holds(s_4523_jpg, pipe).
holds(s_4523_jpg, machine).

sample(s_12857_jpg).
holds(s_12857_jpg, building).
holds(s_12857_jpg, feature).
holds(s_12857_jpg, sign).
holds(s_12857_jpg, table).
holds(s_12857_jpg, tiledrooftop).
holds(s_12857_jpg, vendingmachine).
holds(s_12857_jpg, statue).
holds(s_12857_jpg, pipe).

sample(s_15598_jpg).
holds(s_15598_jpg, building).
holds(s_15598_jpg, feature).
holds(s_15598_jpg, watertreatment).
holds(s_15598_jpg, door).
holds(s_15598_jpg, billboard).
holds(s_15598_jpg, porch).
holds(s_15598_jpg, sign).
holds(s_15598_jpg, tiledroof).
holds(s_15598_jpg, wallsign).
holds(s_15598_jpg, chimney).
holds(s_15598_jpg, pipe).
holds(s_15598_jpg, industrial).

sample(s_10593_jpg).
holds(s_10593_jpg, building).
holds(s_10593_jpg, feature).
holds(s_10593_jpg, hotel).
holds(s_10593_jpg, door).
holds(s_10593_jpg, billboard).
holds(s_10593_jpg, porch).
holds(s_10593_jpg, sign).
holds(s_10593_jpg, tiledroof).
holds(s_10593_jpg, tiledrooftop).
holds(s_10593_jpg, wallsign).
holds(s_10593_jpg, chimney).
holds(s_10593_jpg, pipe).
holds(s_10593_jpg, car).
holds(s_10593_jpg, commercial).

sample(s_1876_jpg).
holds(s_1876_jpg, building).
holds(s_1876_jpg, feature).
holds(s_1876_jpg, watertreatment).
holds(s_1876_jpg, door).
holds(s_1876_jpg, billboard).
holds(s_1876_jpg, porch).
holds(s_1876_jpg, sign).
holds(s_1876_jpg, tiledroof).
holds(s_1876_jpg, tiledrooftop).
holds(s_1876_jpg, wallsign).
holds(s_1876_jpg, pipe).
holds(s_1876_jpg, industrial).

sample(s_11758_jpg).
holds(s_11758_jpg, building).
holds(s_11758_jpg, feature).
holds(s_11758_jpg, watertreatment).
holds(s_11758_jpg, door).
holds(s_11758_jpg, billboard).
holds(s_11758_jpg, sign).
holds(s_11758_jpg, tiledroof).
holds(s_11758_jpg, tiledrooftop).
holds(s_11758_jpg, wallsign).
holds(s_11758_jpg, pipe).
holds(s_11758_jpg, industrial).

sample(s_6694_jpg).
holds(s_6694_jpg, building).
holds(s_6694_jpg, feature).
holds(s_6694_jpg, watertreatment).
holds(s_6694_jpg, door).
holds(s_6694_jpg, billboard).
holds(s_6694_jpg, porch).
holds(s_6694_jpg, sign).
holds(s_6694_jpg, tiledroof).
holds(s_6694_jpg, tiledrooftop).
holds(s_6694_jpg, wallsign).
holds(s_6694_jpg, industrial).

sample(s_4066_jpg).
holds(s_4066_jpg, building).
holds(s_4066_jpg, feature).
holds(s_4066_jpg, watertreatment).
holds(s_4066_jpg, door).
holds(s_4066_jpg, billboard).
holds(s_4066_jpg, porch).
holds(s_4066_jpg, sign).
holds(s_4066_jpg, tiledroof).
holds(s_4066_jpg, wallsign).
holds(s_4066_jpg, industrial).

sample(s_4303_jpg).
holds(s_4303_jpg, building).
holds(s_4303_jpg, feature).
holds(s_4303_jpg, watertreatment).
holds(s_4303_jpg, door).
holds(s_4303_jpg, billboard).
holds(s_4303_jpg, porch).
holds(s_4303_jpg, sign).
holds(s_4303_jpg, tiledroof).
holds(s_4303_jpg, tiledrooftop).
holds(s_4303_jpg, wallsign).
holds(s_4303_jpg, pipe).
holds(s_4303_jpg, industrial).

sample(s_6874_jpg).
holds(s_6874_jpg, building).
holds(s_6874_jpg, feature).
holds(s_6874_jpg, watertreatment).
holds(s_6874_jpg, door).
holds(s_6874_jpg, billboard).
holds(s_6874_jpg, porch).
holds(s_6874_jpg, sign).
holds(s_6874_jpg, tiledroof).
holds(s_6874_jpg, tiledrooftop).
holds(s_6874_jpg, wallsign).
holds(s_6874_jpg, pipe).
holds(s_6874_jpg, industrial).

sample(s_13715_jpg).
holds(s_13715_jpg, building).
holds(s_13715_jpg, feature).
holds(s_13715_jpg, sign).
holds(s_13715_jpg, table).
holds(s_13715_jpg, tiledrooftop).
holds(s_13715_jpg, vendingmachine).
holds(s_13715_jpg, statue).
holds(s_13715_jpg, pipe).
holds(s_13715_jpg, machine).

sample(s_4557_jpg).
holds(s_4557_jpg, building).
holds(s_4557_jpg, feature).
holds(s_4557_jpg, hotel).
holds(s_4557_jpg, door).
holds(s_4557_jpg, billboard).
holds(s_4557_jpg, sign).
holds(s_4557_jpg, tiledroof).
holds(s_4557_jpg, tiledrooftop).
holds(s_4557_jpg, wallsign).
holds(s_4557_jpg, chimney).
holds(s_4557_jpg, pipe).
holds(s_4557_jpg, car).
holds(s_4557_jpg, commercial).

sample(s_14720_jpg).
holds(s_14720_jpg, building).
holds(s_14720_jpg, feature).
holds(s_14720_jpg, sign).
holds(s_14720_jpg, table).
holds(s_14720_jpg, tiledrooftop).
holds(s_14720_jpg, vendingmachine).
holds(s_14720_jpg, statue).
holds(s_14720_jpg, pipe).

sample(s_4214_jpg).
holds(s_4214_jpg, building).
holds(s_4214_jpg, feature).
holds(s_4214_jpg, sign).
holds(s_4214_jpg, table).
holds(s_4214_jpg, tiledrooftop).
holds(s_4214_jpg, vendingmachine).
holds(s_4214_jpg, statue).
holds(s_4214_jpg, pipe).
holds(s_4214_jpg, machine).

sample(s_11440_jpg).
holds(s_11440_jpg, building).
holds(s_11440_jpg, feature).
holds(s_11440_jpg, watertreatment).
holds(s_11440_jpg, door).
holds(s_11440_jpg, billboard).
holds(s_11440_jpg, porch).
holds(s_11440_jpg, sign).
holds(s_11440_jpg, tiledroof).
holds(s_11440_jpg, tiledrooftop).
holds(s_11440_jpg, wallsign).
holds(s_11440_jpg, pipe).
holds(s_11440_jpg, industrial).

sample(s_14791_jpg).
holds(s_14791_jpg, building).
holds(s_14791_jpg, feature).
holds(s_14791_jpg, watertreatment).
holds(s_14791_jpg, door).
holds(s_14791_jpg, billboard).
holds(s_14791_jpg, porch).
holds(s_14791_jpg, sign).
holds(s_14791_jpg, tiledroof).
holds(s_14791_jpg, wallsign).
holds(s_14791_jpg, chimney).
holds(s_14791_jpg, pipe).
holds(s_14791_jpg, industrial).

sample(s_4227_jpg).
holds(s_4227_jpg, building).
holds(s_4227_jpg, feature).
holds(s_4227_jpg, hotel).
holds(s_4227_jpg, door).
holds(s_4227_jpg, billboard).
holds(s_4227_jpg, porch).
holds(s_4227_jpg, sign).
holds(s_4227_jpg, tiledroof).
holds(s_4227_jpg, tiledrooftop).
holds(s_4227_jpg, wallsign).
holds(s_4227_jpg, chimney).
holds(s_4227_jpg, pipe).
holds(s_4227_jpg, car).
holds(s_4227_jpg, commercial).

sample(s_5273_jpg).
holds(s_5273_jpg, building).
holds(s_5273_jpg, feature).
holds(s_5273_jpg, sign).
holds(s_5273_jpg, table).
holds(s_5273_jpg, tiledrooftop).
holds(s_5273_jpg, vendingmachine).
holds(s_5273_jpg, statue).
holds(s_5273_jpg, pipe).

sample(s_2163_jpg).
holds(s_2163_jpg, building).
holds(s_2163_jpg, feature).
holds(s_2163_jpg, hotel).
holds(s_2163_jpg, door).
holds(s_2163_jpg, billboard).
holds(s_2163_jpg, porch).
holds(s_2163_jpg, sign).
holds(s_2163_jpg, table).
holds(s_2163_jpg, tiledroof).
holds(s_2163_jpg, tiledrooftop).
holds(s_2163_jpg, vendingmachine).
holds(s_2163_jpg, wallsign).
holds(s_2163_jpg, chimney).
holds(s_2163_jpg, pipe).
holds(s_2163_jpg, machine).
holds(s_2163_jpg, car).
holds(s_2163_jpg, commercial).

sample(s_11213_jpg).
holds(s_11213_jpg, building).
holds(s_11213_jpg, feature).
holds(s_11213_jpg, sign).
holds(s_11213_jpg, table).
holds(s_11213_jpg, tiledrooftop).
holds(s_11213_jpg, vendingmachine).
holds(s_11213_jpg, statue).
holds(s_11213_jpg, pipe).
holds(s_11213_jpg, machine).

sample(s_6060_jpg).
holds(s_6060_jpg, building).
holds(s_6060_jpg, feature).
holds(s_6060_jpg, hotel).
holds(s_6060_jpg, billboard).
holds(s_6060_jpg, sign).
holds(s_6060_jpg, tiledroof).
holds(s_6060_jpg, tiledrooftop).
holds(s_6060_jpg, vendingmachine).
holds(s_6060_jpg, wallsign).
holds(s_6060_jpg, chimney).
holds(s_6060_jpg, pipe).
holds(s_6060_jpg, machine).
holds(s_6060_jpg, car).
holds(s_6060_jpg, commercial).

sample(s_8151_jpg).
holds(s_8151_jpg, building).
holds(s_8151_jpg, feature).
holds(s_8151_jpg, billboard).
holds(s_8151_jpg, porch).
holds(s_8151_jpg, sign).
holds(s_8151_jpg, table).
holds(s_8151_jpg, tiledroof).
holds(s_8151_jpg, tiledrooftop).
holds(s_8151_jpg, vendingmachine).
holds(s_8151_jpg, pipe).

sample(s_7939_jpg).
holds(s_7939_jpg, building).
holds(s_7939_jpg, feature).
holds(s_7939_jpg, watertreatment).
holds(s_7939_jpg, door).
holds(s_7939_jpg, billboard).
holds(s_7939_jpg, porch).
holds(s_7939_jpg, sign).
holds(s_7939_jpg, tiledroof).
holds(s_7939_jpg, wallsign).
holds(s_7939_jpg, industrial).

sample(s_7681_jpg).
holds(s_7681_jpg, building).
holds(s_7681_jpg, feature).
holds(s_7681_jpg, watertreatment).
holds(s_7681_jpg, door).
holds(s_7681_jpg, billboard).
holds(s_7681_jpg, porch).
holds(s_7681_jpg, sign).
holds(s_7681_jpg, tiledroof).
holds(s_7681_jpg, wallsign).
holds(s_7681_jpg, chimney).
holds(s_7681_jpg, pipe).
holds(s_7681_jpg, industrial).

sample(s_4435_jpg).
holds(s_4435_jpg, building).
holds(s_4435_jpg, feature).
holds(s_4435_jpg, watertreatment).
holds(s_4435_jpg, door).
holds(s_4435_jpg, billboard).
holds(s_4435_jpg, porch).
holds(s_4435_jpg, sign).
holds(s_4435_jpg, tiledroof).
holds(s_4435_jpg, wallsign).
holds(s_4435_jpg, industrial).

sample(s_10302_jpg).
holds(s_10302_jpg, building).
holds(s_10302_jpg, feature).
holds(s_10302_jpg, hotel).
holds(s_10302_jpg, billboard).
holds(s_10302_jpg, porch).
holds(s_10302_jpg, sign).
holds(s_10302_jpg, table).
holds(s_10302_jpg, tiledroof).
holds(s_10302_jpg, tiledrooftop).
holds(s_10302_jpg, vendingmachine).
holds(s_10302_jpg, wallsign).
holds(s_10302_jpg, chimney).
holds(s_10302_jpg, pipe).
holds(s_10302_jpg, machine).
holds(s_10302_jpg, car).
holds(s_10302_jpg, commercial).

sample(s_8518_jpg).
holds(s_8518_jpg, building).
holds(s_8518_jpg, feature).
holds(s_8518_jpg, watertreatment).
holds(s_8518_jpg, door).
holds(s_8518_jpg, billboard).
holds(s_8518_jpg, porch).
holds(s_8518_jpg, sign).
holds(s_8518_jpg, tiledroof).
holds(s_8518_jpg, wallsign).
holds(s_8518_jpg, industrial).

sample(s_11311_jpg).
holds(s_11311_jpg, building).
holds(s_11311_jpg, feature).
holds(s_11311_jpg, watertreatment).
holds(s_11311_jpg, door).
holds(s_11311_jpg, billboard).
holds(s_11311_jpg, porch).
holds(s_11311_jpg, sign).
holds(s_11311_jpg, tiledroof).
holds(s_11311_jpg, tiledrooftop).
holds(s_11311_jpg, wallsign).
holds(s_11311_jpg, pipe).
holds(s_11311_jpg, industrial).

sample(s_3888_jpg).
holds(s_3888_jpg, building).
holds(s_3888_jpg, feature).
holds(s_3888_jpg, hotel).
holds(s_3888_jpg, billboard).
holds(s_3888_jpg, porch).
holds(s_3888_jpg, sign).
holds(s_3888_jpg, table).
holds(s_3888_jpg, tiledroof).
holds(s_3888_jpg, tiledrooftop).
holds(s_3888_jpg, vendingmachine).
holds(s_3888_jpg, wallsign).
holds(s_3888_jpg, chimney).
holds(s_3888_jpg, pipe).
holds(s_3888_jpg, machine).
holds(s_3888_jpg, car).
holds(s_3888_jpg, commercial).

sample(s_12801_jpg).
holds(s_12801_jpg, building).
holds(s_12801_jpg, feature).
holds(s_12801_jpg, hotel).
holds(s_12801_jpg, billboard).
holds(s_12801_jpg, porch).
holds(s_12801_jpg, sign).
holds(s_12801_jpg, table).
holds(s_12801_jpg, tiledroof).
holds(s_12801_jpg, tiledrooftop).
holds(s_12801_jpg, vendingmachine).
holds(s_12801_jpg, statue).
holds(s_12801_jpg, chimney).
holds(s_12801_jpg, pipe).
holds(s_12801_jpg, machine).
holds(s_12801_jpg, car).
holds(s_12801_jpg, commercial).

sample(s_10788_jpg).
holds(s_10788_jpg, building).
holds(s_10788_jpg, feature).
holds(s_10788_jpg, hotel).
holds(s_10788_jpg, door).
holds(s_10788_jpg, billboard).
holds(s_10788_jpg, porch).
holds(s_10788_jpg, sign).
holds(s_10788_jpg, tiledroof).
holds(s_10788_jpg, tiledrooftop).
holds(s_10788_jpg, wallsign).
holds(s_10788_jpg, chimney).
holds(s_10788_jpg, pipe).
holds(s_10788_jpg, car).
holds(s_10788_jpg, commercial).

sample(s_5274_jpg).
holds(s_5274_jpg, building).
holds(s_5274_jpg, feature).
holds(s_5274_jpg, hotel).
holds(s_5274_jpg, billboard).
holds(s_5274_jpg, porch).
holds(s_5274_jpg, sign).
holds(s_5274_jpg, table).
holds(s_5274_jpg, tiledroof).
holds(s_5274_jpg, tiledrooftop).
holds(s_5274_jpg, vendingmachine).
holds(s_5274_jpg, wallsign).
holds(s_5274_jpg, chimney).
holds(s_5274_jpg, pipe).
holds(s_5274_jpg, machine).
holds(s_5274_jpg, car).
holds(s_5274_jpg, commercial).

sample(s_447_jpg).
holds(s_447_jpg, building).
holds(s_447_jpg, feature).
holds(s_447_jpg, hotel).
holds(s_447_jpg, door).
holds(s_447_jpg, billboard).
holds(s_447_jpg, porch).
holds(s_447_jpg, sign).
holds(s_447_jpg, tiledroof).
holds(s_447_jpg, tiledrooftop).
holds(s_447_jpg, wallsign).
holds(s_447_jpg, chimney).
holds(s_447_jpg, pipe).
holds(s_447_jpg, car).
holds(s_447_jpg, commercial).

sample(s_14354_jpg).
holds(s_14354_jpg, building).
holds(s_14354_jpg, feature).
holds(s_14354_jpg, billboard).
holds(s_14354_jpg, sign).
holds(s_14354_jpg, table).
holds(s_14354_jpg, tiledrooftop).
holds(s_14354_jpg, vendingmachine).
holds(s_14354_jpg, statue).
holds(s_14354_jpg, pipe).
holds(s_14354_jpg, machine).

sample(s_7544_jpg).
holds(s_7544_jpg, building).
holds(s_7544_jpg, feature).
holds(s_7544_jpg, sign).
holds(s_7544_jpg, table).
holds(s_7544_jpg, tiledrooftop).
holds(s_7544_jpg, vendingmachine).
holds(s_7544_jpg, statue).
holds(s_7544_jpg, pipe).

sample(s_11547_jpg).
holds(s_11547_jpg, building).
holds(s_11547_jpg, feature).
holds(s_11547_jpg, hotel).
holds(s_11547_jpg, door).
holds(s_11547_jpg, billboard).
holds(s_11547_jpg, porch).
holds(s_11547_jpg, sign).
holds(s_11547_jpg, table).
holds(s_11547_jpg, tiledroof).
holds(s_11547_jpg, tiledrooftop).
holds(s_11547_jpg, vendingmachine).
holds(s_11547_jpg, wallsign).
holds(s_11547_jpg, statue).
holds(s_11547_jpg, chimney).
holds(s_11547_jpg, pipe).
holds(s_11547_jpg, car).
holds(s_11547_jpg, commercial).

sample(s_15623_jpg).
holds(s_15623_jpg, building).
holds(s_15623_jpg, feature).
holds(s_15623_jpg, sign).
holds(s_15623_jpg, table).
holds(s_15623_jpg, tiledrooftop).
holds(s_15623_jpg, vendingmachine).
holds(s_15623_jpg, statue).
holds(s_15623_jpg, pipe).

sample(s_3515_jpg).
holds(s_3515_jpg, building).
holds(s_3515_jpg, feature).
holds(s_3515_jpg, sign).
holds(s_3515_jpg, table).
holds(s_3515_jpg, tiledrooftop).
holds(s_3515_jpg, vendingmachine).
holds(s_3515_jpg, statue).
holds(s_3515_jpg, pipe).

sample(s_15375_jpg).
holds(s_15375_jpg, building).
holds(s_15375_jpg, feature).
holds(s_15375_jpg, hotel).
holds(s_15375_jpg, door).
holds(s_15375_jpg, billboard).
holds(s_15375_jpg, porch).
holds(s_15375_jpg, sign).
holds(s_15375_jpg, tiledroof).
holds(s_15375_jpg, tiledrooftop).
holds(s_15375_jpg, wallsign).
holds(s_15375_jpg, chimney).
holds(s_15375_jpg, pipe).
holds(s_15375_jpg, car).
holds(s_15375_jpg, commercial).

sample(s_5875_jpg).
holds(s_5875_jpg, building).
holds(s_5875_jpg, feature).
holds(s_5875_jpg, watertreatment).
holds(s_5875_jpg, door).
holds(s_5875_jpg, billboard).
holds(s_5875_jpg, porch).
holds(s_5875_jpg, sign).
holds(s_5875_jpg, tiledroof).
holds(s_5875_jpg, wallsign).
holds(s_5875_jpg, industrial).

sample(s_285_jpg).
holds(s_285_jpg, building).
holds(s_285_jpg, feature).
holds(s_285_jpg, hotel).
holds(s_285_jpg, door).
holds(s_285_jpg, billboard).
holds(s_285_jpg, porch).
holds(s_285_jpg, sign).
holds(s_285_jpg, tiledroof).
holds(s_285_jpg, tiledrooftop).
holds(s_285_jpg, vendingmachine).
holds(s_285_jpg, wallsign).
holds(s_285_jpg, chimney).
holds(s_285_jpg, pipe).
holds(s_285_jpg, car).
holds(s_285_jpg, commercial).

sample(s_2141_jpg).
holds(s_2141_jpg, building).
holds(s_2141_jpg, feature).
holds(s_2141_jpg, sign).
holds(s_2141_jpg, table).
holds(s_2141_jpg, tiledrooftop).
holds(s_2141_jpg, vendingmachine).
holds(s_2141_jpg, statue).
holds(s_2141_jpg, pipe).
holds(s_2141_jpg, machine).

sample(s_3615_jpg).
holds(s_3615_jpg, building).
holds(s_3615_jpg, feature).
holds(s_3615_jpg, hotel).
holds(s_3615_jpg, door).
holds(s_3615_jpg, billboard).
holds(s_3615_jpg, porch).
holds(s_3615_jpg, sign).
holds(s_3615_jpg, tiledroof).
holds(s_3615_jpg, tiledrooftop).
holds(s_3615_jpg, wallsign).
holds(s_3615_jpg, chimney).
holds(s_3615_jpg, pipe).
holds(s_3615_jpg, car).
holds(s_3615_jpg, commercial).

sample(s_6341_jpg).
holds(s_6341_jpg, building).
holds(s_6341_jpg, feature).
holds(s_6341_jpg, porch).
holds(s_6341_jpg, sign).
holds(s_6341_jpg, table).
holds(s_6341_jpg, tiledrooftop).
holds(s_6341_jpg, vendingmachine).
holds(s_6341_jpg, statue).
holds(s_6341_jpg, pipe).
holds(s_6341_jpg, machine).

sample(s_9320_jpg).
holds(s_9320_jpg, building).
holds(s_9320_jpg, feature).
holds(s_9320_jpg, sign).
holds(s_9320_jpg, table).
holds(s_9320_jpg, tiledrooftop).
holds(s_9320_jpg, vendingmachine).
holds(s_9320_jpg, statue).
holds(s_9320_jpg, pipe).
holds(s_9320_jpg, machine).

sample(s_9062_jpg).
holds(s_9062_jpg, building).
holds(s_9062_jpg, feature).
holds(s_9062_jpg, sign).
holds(s_9062_jpg, table).
holds(s_9062_jpg, tiledrooftop).
holds(s_9062_jpg, vendingmachine).
holds(s_9062_jpg, statue).
holds(s_9062_jpg, pipe).
holds(s_9062_jpg, machine).

sample(s_5652_jpg).
holds(s_5652_jpg, building).
holds(s_5652_jpg, feature).
holds(s_5652_jpg, hotel).
holds(s_5652_jpg, porch).
holds(s_5652_jpg, sign).
holds(s_5652_jpg, table).
holds(s_5652_jpg, tiledroof).
holds(s_5652_jpg, tiledrooftop).
holds(s_5652_jpg, vendingmachine).
holds(s_5652_jpg, statue).
holds(s_5652_jpg, chimney).
holds(s_5652_jpg, pipe).
holds(s_5652_jpg, machine).
holds(s_5652_jpg, car).
holds(s_5652_jpg, commercial).

sample(s_7527_jpg).
holds(s_7527_jpg, building).
holds(s_7527_jpg, feature).
holds(s_7527_jpg, hotel).
holds(s_7527_jpg, door).
holds(s_7527_jpg, billboard).
holds(s_7527_jpg, porch).
holds(s_7527_jpg, sign).
holds(s_7527_jpg, tiledroof).
holds(s_7527_jpg, tiledrooftop).
holds(s_7527_jpg, wallsign).
holds(s_7527_jpg, chimney).
holds(s_7527_jpg, pipe).
holds(s_7527_jpg, car).
holds(s_7527_jpg, commercial).

sample(s_15490_jpg).
holds(s_15490_jpg, building).
holds(s_15490_jpg, feature).
holds(s_15490_jpg, watertreatment).
holds(s_15490_jpg, door).
holds(s_15490_jpg, billboard).
holds(s_15490_jpg, porch).
holds(s_15490_jpg, sign).
holds(s_15490_jpg, tiledroof).
holds(s_15490_jpg, wallsign).
holds(s_15490_jpg, chimney).
holds(s_15490_jpg, pipe).
holds(s_15490_jpg, industrial).

sample(s_5067_jpg).
holds(s_5067_jpg, building).
holds(s_5067_jpg, feature).
holds(s_5067_jpg, hotel).
holds(s_5067_jpg, door).
holds(s_5067_jpg, billboard).
holds(s_5067_jpg, sign).
holds(s_5067_jpg, tiledroof).
holds(s_5067_jpg, tiledrooftop).
holds(s_5067_jpg, wallsign).
holds(s_5067_jpg, chimney).
holds(s_5067_jpg, pipe).
holds(s_5067_jpg, car).
holds(s_5067_jpg, commercial).

sample(s_5378_jpg).
holds(s_5378_jpg, building).
holds(s_5378_jpg, feature).
holds(s_5378_jpg, window).
holds(s_5378_jpg, porch).
holds(s_5378_jpg, sign).
holds(s_5378_jpg, table).
holds(s_5378_jpg, tiledrooftop).
holds(s_5378_jpg, vendingmachine).
holds(s_5378_jpg, statue).
holds(s_5378_jpg, pipe).

sample(s_7195_jpg).
holds(s_7195_jpg, building).
holds(s_7195_jpg, feature).
holds(s_7195_jpg, watertreatment).
holds(s_7195_jpg, door).
holds(s_7195_jpg, billboard).
holds(s_7195_jpg, porch).
holds(s_7195_jpg, sign).
holds(s_7195_jpg, tiledroof).
holds(s_7195_jpg, wallsign).
holds(s_7195_jpg, industrial).

sample(s_15783_jpg).
holds(s_15783_jpg, building).
holds(s_15783_jpg, feature).
holds(s_15783_jpg, hotel).
holds(s_15783_jpg, billboard).
holds(s_15783_jpg, sign).
holds(s_15783_jpg, tiledroof).
holds(s_15783_jpg, tiledrooftop).
holds(s_15783_jpg, chimney).
holds(s_15783_jpg, pipe).
holds(s_15783_jpg, machine).
holds(s_15783_jpg, car).
holds(s_15783_jpg, commercial).

sample(s_14362_jpg).
holds(s_14362_jpg, building).
holds(s_14362_jpg, feature).
holds(s_14362_jpg, watertreatment).
holds(s_14362_jpg, door).
holds(s_14362_jpg, billboard).
holds(s_14362_jpg, porch).
holds(s_14362_jpg, sign).
holds(s_14362_jpg, tiledroof).
holds(s_14362_jpg, wallsign).
holds(s_14362_jpg, industrial).

sample(s_7335_jpg).
holds(s_7335_jpg, building).
holds(s_7335_jpg, feature).
holds(s_7335_jpg, hotel).
holds(s_7335_jpg, billboard).
holds(s_7335_jpg, porch).
holds(s_7335_jpg, sign).
holds(s_7335_jpg, table).
holds(s_7335_jpg, tiledroof).
holds(s_7335_jpg, tiledrooftop).
holds(s_7335_jpg, vendingmachine).
holds(s_7335_jpg, statue).
holds(s_7335_jpg, chimney).
holds(s_7335_jpg, pipe).
holds(s_7335_jpg, machine).
holds(s_7335_jpg, car).
holds(s_7335_jpg, commercial).

sample(s_5532_jpg).
holds(s_5532_jpg, building).
holds(s_5532_jpg, feature).
holds(s_5532_jpg, hotel).
holds(s_5532_jpg, door).
holds(s_5532_jpg, billboard).
holds(s_5532_jpg, sign).
holds(s_5532_jpg, tiledroof).
holds(s_5532_jpg, tiledrooftop).
holds(s_5532_jpg, wallsign).
holds(s_5532_jpg, chimney).
holds(s_5532_jpg, pipe).
holds(s_5532_jpg, car).
holds(s_5532_jpg, commercial).

sample(s_8201_jpg).
holds(s_8201_jpg, building).
holds(s_8201_jpg, feature).
holds(s_8201_jpg, porch).
holds(s_8201_jpg, sign).
holds(s_8201_jpg, table).
holds(s_8201_jpg, tiledrooftop).
holds(s_8201_jpg, vendingmachine).
holds(s_8201_jpg, statue).

sample(s_14997_jpg).
holds(s_14997_jpg, building).
holds(s_14997_jpg, feature).
holds(s_14997_jpg, hotel).
holds(s_14997_jpg, door).
holds(s_14997_jpg, billboard).
holds(s_14997_jpg, porch).
holds(s_14997_jpg, sign).
holds(s_14997_jpg, tiledroof).
holds(s_14997_jpg, tiledrooftop).
holds(s_14997_jpg, wallsign).
holds(s_14997_jpg, chimney).
holds(s_14997_jpg, pipe).
holds(s_14997_jpg, car).
holds(s_14997_jpg, commercial).

sample(s_8745_jpg).
holds(s_8745_jpg, building).
holds(s_8745_jpg, feature).
holds(s_8745_jpg, hotel).
holds(s_8745_jpg, billboard).
holds(s_8745_jpg, porch).
holds(s_8745_jpg, sign).
holds(s_8745_jpg, table).
holds(s_8745_jpg, tiledroof).
holds(s_8745_jpg, tiledrooftop).
holds(s_8745_jpg, vendingmachine).
holds(s_8745_jpg, wallsign).
holds(s_8745_jpg, chimney).
holds(s_8745_jpg, pipe).
holds(s_8745_jpg, machine).
holds(s_8745_jpg, car).
holds(s_8745_jpg, commercial).

sample(s_4229_jpg).
holds(s_4229_jpg, building).
holds(s_4229_jpg, feature).
holds(s_4229_jpg, sign).
holds(s_4229_jpg, table).
holds(s_4229_jpg, tiledrooftop).
holds(s_4229_jpg, vendingmachine).
holds(s_4229_jpg, statue).
holds(s_4229_jpg, pipe).

sample(s_13498_jpg).
holds(s_13498_jpg, building).
holds(s_13498_jpg, feature).
holds(s_13498_jpg, watertreatment).
holds(s_13498_jpg, door).
holds(s_13498_jpg, billboard).
holds(s_13498_jpg, porch).
holds(s_13498_jpg, sign).
holds(s_13498_jpg, tiledroof).
holds(s_13498_jpg, tiledrooftop).
holds(s_13498_jpg, wallsign).
holds(s_13498_jpg, industrial).

sample(s_9127_jpg).
holds(s_9127_jpg, building).
holds(s_9127_jpg, feature).
holds(s_9127_jpg, watertreatment).
holds(s_9127_jpg, door).
holds(s_9127_jpg, billboard).
holds(s_9127_jpg, porch).
holds(s_9127_jpg, sign).
holds(s_9127_jpg, tiledroof).
holds(s_9127_jpg, tiledrooftop).
holds(s_9127_jpg, wallsign).
holds(s_9127_jpg, chimney).
holds(s_9127_jpg, pipe).
holds(s_9127_jpg, industrial).

sample(s_5727_jpg).
holds(s_5727_jpg, building).
holds(s_5727_jpg, feature).
holds(s_5727_jpg, hotel).
holds(s_5727_jpg, door).
holds(s_5727_jpg, billboard).
holds(s_5727_jpg, porch).
holds(s_5727_jpg, sign).
holds(s_5727_jpg, tiledroof).
holds(s_5727_jpg, tiledrooftop).
holds(s_5727_jpg, vendingmachine).
holds(s_5727_jpg, wallsign).
holds(s_5727_jpg, chimney).
holds(s_5727_jpg, pipe).
holds(s_5727_jpg, machine).
holds(s_5727_jpg, car).
holds(s_5727_jpg, commercial).

sample(s_10953_jpg).
holds(s_10953_jpg, building).
holds(s_10953_jpg, feature).
holds(s_10953_jpg, hotel).
holds(s_10953_jpg, billboard).
holds(s_10953_jpg, porch).
holds(s_10953_jpg, sign).
holds(s_10953_jpg, tiledroof).
holds(s_10953_jpg, tiledrooftop).
holds(s_10953_jpg, wallsign).
holds(s_10953_jpg, chimney).
holds(s_10953_jpg, pipe).
holds(s_10953_jpg, machine).
holds(s_10953_jpg, car).
holds(s_10953_jpg, commercial).

sample(s_14089_jpg).
holds(s_14089_jpg, building).
holds(s_14089_jpg, feature).
holds(s_14089_jpg, watertreatment).
holds(s_14089_jpg, door).
holds(s_14089_jpg, billboard).
holds(s_14089_jpg, porch).
holds(s_14089_jpg, sign).
holds(s_14089_jpg, tiledroof).
holds(s_14089_jpg, tiledrooftop).
holds(s_14089_jpg, wallsign).
holds(s_14089_jpg, pipe).
holds(s_14089_jpg, industrial).

sample(s_9711_jpg).
holds(s_9711_jpg, building).
holds(s_9711_jpg, feature).
holds(s_9711_jpg, hotel).
holds(s_9711_jpg, door).
holds(s_9711_jpg, billboard).
holds(s_9711_jpg, porch).
holds(s_9711_jpg, sign).
holds(s_9711_jpg, tiledroof).
holds(s_9711_jpg, tiledrooftop).
holds(s_9711_jpg, wallsign).
holds(s_9711_jpg, chimney).
holds(s_9711_jpg, pipe).
holds(s_9711_jpg, car).
holds(s_9711_jpg, commercial).

sample(s_12260_jpg).
holds(s_12260_jpg, building).
holds(s_12260_jpg, feature).
holds(s_12260_jpg, sign).
holds(s_12260_jpg, table).
holds(s_12260_jpg, tiledrooftop).
holds(s_12260_jpg, vendingmachine).
holds(s_12260_jpg, statue).
holds(s_12260_jpg, pipe).
holds(s_12260_jpg, machine).

sample(s_15944_jpg).
holds(s_15944_jpg, building).
holds(s_15944_jpg, feature).
holds(s_15944_jpg, porch).
holds(s_15944_jpg, sign).
holds(s_15944_jpg, table).
holds(s_15944_jpg, tiledrooftop).
holds(s_15944_jpg, vendingmachine).
holds(s_15944_jpg, statue).
holds(s_15944_jpg, pipe).

sample(s_4771_jpg).
holds(s_4771_jpg, building).
holds(s_4771_jpg, feature).
holds(s_4771_jpg, watertreatment).
holds(s_4771_jpg, door).
holds(s_4771_jpg, billboard).
holds(s_4771_jpg, porch).
holds(s_4771_jpg, sign).
holds(s_4771_jpg, tiledroof).
holds(s_4771_jpg, wallsign).
holds(s_4771_jpg, industrial).

sample(s_788_jpg).
holds(s_788_jpg, building).
holds(s_788_jpg, feature).
holds(s_788_jpg, sign).
holds(s_788_jpg, table).
holds(s_788_jpg, tiledrooftop).
holds(s_788_jpg, vendingmachine).
holds(s_788_jpg, statue).
holds(s_788_jpg, pipe).
holds(s_788_jpg, machine).

sample(s_7257_jpg).
holds(s_7257_jpg, building).
holds(s_7257_jpg, feature).
holds(s_7257_jpg, hotel).
holds(s_7257_jpg, billboard).
holds(s_7257_jpg, sign).
holds(s_7257_jpg, table).
holds(s_7257_jpg, tiledroof).
holds(s_7257_jpg, tiledrooftop).
holds(s_7257_jpg, vendingmachine).
holds(s_7257_jpg, wallsign).
holds(s_7257_jpg, chimney).
holds(s_7257_jpg, pipe).
holds(s_7257_jpg, machine).
holds(s_7257_jpg, car).
holds(s_7257_jpg, commercial).

sample(s_14402_jpg).
holds(s_14402_jpg, building).
holds(s_14402_jpg, feature).
holds(s_14402_jpg, window).
holds(s_14402_jpg, porch).
holds(s_14402_jpg, table).
holds(s_14402_jpg, tiledrooftop).
holds(s_14402_jpg, vendingmachine).
holds(s_14402_jpg, statue).
holds(s_14402_jpg, pipe).

sample(s_7357_jpg).
holds(s_7357_jpg, building).
holds(s_7357_jpg, feature).
holds(s_7357_jpg, watertreatment).
holds(s_7357_jpg, door).
holds(s_7357_jpg, billboard).
holds(s_7357_jpg, porch).
holds(s_7357_jpg, sign).
holds(s_7357_jpg, tiledroof).
holds(s_7357_jpg, wallsign).
holds(s_7357_jpg, industrial).

sample(s_8800_jpg).
holds(s_8800_jpg, building).
holds(s_8800_jpg, feature).
holds(s_8800_jpg, watertreatment).
holds(s_8800_jpg, door).
holds(s_8800_jpg, billboard).
holds(s_8800_jpg, porch).
holds(s_8800_jpg, sign).
holds(s_8800_jpg, tiledroof).
holds(s_8800_jpg, tiledrooftop).
holds(s_8800_jpg, wallsign).
holds(s_8800_jpg, pipe).
holds(s_8800_jpg, industrial).

sample(s_4809_jpg).
holds(s_4809_jpg, building).
holds(s_4809_jpg, feature).
holds(s_4809_jpg, hotel).
holds(s_4809_jpg, door).
holds(s_4809_jpg, billboard).
holds(s_4809_jpg, porch).
holds(s_4809_jpg, sign).
holds(s_4809_jpg, tiledroof).
holds(s_4809_jpg, tiledrooftop).
holds(s_4809_jpg, wallsign).
holds(s_4809_jpg, chimney).
holds(s_4809_jpg, pipe).
holds(s_4809_jpg, car).
holds(s_4809_jpg, commercial).

sample(s_4691_jpg).
holds(s_4691_jpg, building).
holds(s_4691_jpg, feature).
holds(s_4691_jpg, sign).
holds(s_4691_jpg, table).
holds(s_4691_jpg, tiledrooftop).
holds(s_4691_jpg, vendingmachine).
holds(s_4691_jpg, statue).
holds(s_4691_jpg, pipe).

sample(s_11878_jpg).
holds(s_11878_jpg, building).
holds(s_11878_jpg, feature).
holds(s_11878_jpg, watertreatment).
holds(s_11878_jpg, door).
holds(s_11878_jpg, billboard).
holds(s_11878_jpg, porch).
holds(s_11878_jpg, sign).
holds(s_11878_jpg, tiledroof).
holds(s_11878_jpg, wallsign).
holds(s_11878_jpg, industrial).

sample(s_4874_jpg).
holds(s_4874_jpg, building).
holds(s_4874_jpg, feature).
holds(s_4874_jpg, sign).
holds(s_4874_jpg, table).
holds(s_4874_jpg, tiledrooftop).
holds(s_4874_jpg, vendingmachine).
holds(s_4874_jpg, statue).
holds(s_4874_jpg, pipe).
holds(s_4874_jpg, machine).

sample(s_2085_jpg).
holds(s_2085_jpg, building).
holds(s_2085_jpg, feature).
holds(s_2085_jpg, hotel).
holds(s_2085_jpg, door).
holds(s_2085_jpg, billboard).
holds(s_2085_jpg, sign).
holds(s_2085_jpg, tiledroof).
holds(s_2085_jpg, tiledrooftop).
holds(s_2085_jpg, wallsign).
holds(s_2085_jpg, chimney).
holds(s_2085_jpg, pipe).
holds(s_2085_jpg, car).
holds(s_2085_jpg, commercial).

sample(s_1298_jpg).
holds(s_1298_jpg, building).
holds(s_1298_jpg, feature).
holds(s_1298_jpg, sign).
holds(s_1298_jpg, table).
holds(s_1298_jpg, tiledrooftop).
holds(s_1298_jpg, vendingmachine).
holds(s_1298_jpg, statue).
holds(s_1298_jpg, pipe).
holds(s_1298_jpg, machine).

sample(s_15078_jpg).
holds(s_15078_jpg, building).
holds(s_15078_jpg, feature).
holds(s_15078_jpg, hotel).
holds(s_15078_jpg, billboard).
holds(s_15078_jpg, sign).
holds(s_15078_jpg, table).
holds(s_15078_jpg, tiledroof).
holds(s_15078_jpg, tiledrooftop).
holds(s_15078_jpg, vendingmachine).
holds(s_15078_jpg, statue).
holds(s_15078_jpg, chimney).
holds(s_15078_jpg, pipe).
holds(s_15078_jpg, machine).
holds(s_15078_jpg, car).
holds(s_15078_jpg, commercial).

sample(s_7513_jpg).
holds(s_7513_jpg, building).
holds(s_7513_jpg, feature).
holds(s_7513_jpg, watertreatment).
holds(s_7513_jpg, door).
holds(s_7513_jpg, billboard).
holds(s_7513_jpg, porch).
holds(s_7513_jpg, sign).
holds(s_7513_jpg, tiledroof).
holds(s_7513_jpg, wallsign).
holds(s_7513_jpg, industrial).

sample(s_11786_jpg).
holds(s_11786_jpg, building).
holds(s_11786_jpg, feature).
holds(s_11786_jpg, sign).
holds(s_11786_jpg, table).
holds(s_11786_jpg, tiledrooftop).
holds(s_11786_jpg, vendingmachine).
holds(s_11786_jpg, statue).
holds(s_11786_jpg, pipe).

sample(s_9323_jpg).
holds(s_9323_jpg, building).
holds(s_9323_jpg, feature).
holds(s_9323_jpg, window).
holds(s_9323_jpg, porch).
holds(s_9323_jpg, sign).
holds(s_9323_jpg, table).
holds(s_9323_jpg, tiledrooftop).
holds(s_9323_jpg, vendingmachine).
holds(s_9323_jpg, statue).
holds(s_9323_jpg, pipe).

sample(s_5174_jpg).
holds(s_5174_jpg, building).
holds(s_5174_jpg, feature).
holds(s_5174_jpg, sign).
holds(s_5174_jpg, table).
holds(s_5174_jpg, tiledrooftop).
holds(s_5174_jpg, vendingmachine).
holds(s_5174_jpg, statue).
holds(s_5174_jpg, pipe).

sample(s_8169_jpg).
holds(s_8169_jpg, building).
holds(s_8169_jpg, feature).
holds(s_8169_jpg, hotel).
holds(s_8169_jpg, door).
holds(s_8169_jpg, billboard).
holds(s_8169_jpg, porch).
holds(s_8169_jpg, sign).
holds(s_8169_jpg, tiledroof).
holds(s_8169_jpg, tiledrooftop).
holds(s_8169_jpg, wallsign).
holds(s_8169_jpg, chimney).
holds(s_8169_jpg, pipe).
holds(s_8169_jpg, car).
holds(s_8169_jpg, commercial).

sample(s_8778_jpg).
holds(s_8778_jpg, building).
holds(s_8778_jpg, feature).
holds(s_8778_jpg, hotel).
holds(s_8778_jpg, door).
holds(s_8778_jpg, billboard).
holds(s_8778_jpg, porch).
holds(s_8778_jpg, sign).
holds(s_8778_jpg, tiledroof).
holds(s_8778_jpg, tiledrooftop).
holds(s_8778_jpg, wallsign).
holds(s_8778_jpg, chimney).
holds(s_8778_jpg, pipe).
holds(s_8778_jpg, car).
holds(s_8778_jpg, commercial).

sample(s_6347_jpg).
holds(s_6347_jpg, building).
holds(s_6347_jpg, feature).
holds(s_6347_jpg, billboard).
holds(s_6347_jpg, sign).
holds(s_6347_jpg, table).
holds(s_6347_jpg, tiledrooftop).
holds(s_6347_jpg, vendingmachine).
holds(s_6347_jpg, statue).
holds(s_6347_jpg, pipe).
holds(s_6347_jpg, machine).

sample(s_8434_jpg).
holds(s_8434_jpg, building).
holds(s_8434_jpg, feature).
holds(s_8434_jpg, watertreatment).
holds(s_8434_jpg, door).
holds(s_8434_jpg, billboard).
holds(s_8434_jpg, sign).
holds(s_8434_jpg, tiledroof).
holds(s_8434_jpg, tiledrooftop).
holds(s_8434_jpg, wallsign).
holds(s_8434_jpg, chimney).
holds(s_8434_jpg, pipe).
holds(s_8434_jpg, industrial).

sample(s_6839_jpg).
holds(s_6839_jpg, building).
holds(s_6839_jpg, feature).
holds(s_6839_jpg, porch).
holds(s_6839_jpg, sign).
holds(s_6839_jpg, table).
holds(s_6839_jpg, tiledrooftop).
holds(s_6839_jpg, vendingmachine).
holds(s_6839_jpg, statue).
holds(s_6839_jpg, pipe).
holds(s_6839_jpg, machine).

sample(s_9655_jpg).
holds(s_9655_jpg, building).
holds(s_9655_jpg, feature).
holds(s_9655_jpg, watertreatment).
holds(s_9655_jpg, door).
holds(s_9655_jpg, billboard).
holds(s_9655_jpg, porch).
holds(s_9655_jpg, sign).
holds(s_9655_jpg, tiledroof).
holds(s_9655_jpg, wallsign).
holds(s_9655_jpg, chimney).
holds(s_9655_jpg, pipe).
holds(s_9655_jpg, industrial).

sample(s_6393_jpg).
holds(s_6393_jpg, building).
holds(s_6393_jpg, feature).
holds(s_6393_jpg, hotel).
holds(s_6393_jpg, door).
holds(s_6393_jpg, billboard).
holds(s_6393_jpg, sign).
holds(s_6393_jpg, tiledroof).
holds(s_6393_jpg, tiledrooftop).
holds(s_6393_jpg, wallsign).
holds(s_6393_jpg, chimney).
holds(s_6393_jpg, pipe).
holds(s_6393_jpg, machine).
holds(s_6393_jpg, car).
holds(s_6393_jpg, commercial).

sample(s_741_jpg).
holds(s_741_jpg, building).
holds(s_741_jpg, feature).
holds(s_741_jpg, hotel).
holds(s_741_jpg, door).
holds(s_741_jpg, billboard).
holds(s_741_jpg, porch).
holds(s_741_jpg, sign).
holds(s_741_jpg, table).
holds(s_741_jpg, tiledroof).
holds(s_741_jpg, tiledrooftop).
holds(s_741_jpg, vendingmachine).
holds(s_741_jpg, wallsign).
holds(s_741_jpg, chimney).
holds(s_741_jpg, pipe).
holds(s_741_jpg, machine).
holds(s_741_jpg, car).
holds(s_741_jpg, commercial).

sample(s_2414_jpg).
holds(s_2414_jpg, building).
holds(s_2414_jpg, feature).
holds(s_2414_jpg, sign).
holds(s_2414_jpg, table).
holds(s_2414_jpg, tiledrooftop).
holds(s_2414_jpg, vendingmachine).
holds(s_2414_jpg, statue).
holds(s_2414_jpg, pipe).
holds(s_2414_jpg, machine).

sample(s_2138_jpg).
holds(s_2138_jpg, building).
holds(s_2138_jpg, feature).
holds(s_2138_jpg, window).
holds(s_2138_jpg, porch).
holds(s_2138_jpg, sign).
holds(s_2138_jpg, table).
holds(s_2138_jpg, tiledrooftop).
holds(s_2138_jpg, vendingmachine).
holds(s_2138_jpg, statue).
holds(s_2138_jpg, pipe).

sample(s_4247_jpg).
holds(s_4247_jpg, building).
holds(s_4247_jpg, feature).
holds(s_4247_jpg, sign).
holds(s_4247_jpg, table).
holds(s_4247_jpg, tiledrooftop).
holds(s_4247_jpg, vendingmachine).
holds(s_4247_jpg, statue).
holds(s_4247_jpg, pipe).
holds(s_4247_jpg, machine).

sample(s_3040_jpg).
holds(s_3040_jpg, building).
holds(s_3040_jpg, feature).
holds(s_3040_jpg, watertreatment).
holds(s_3040_jpg, door).
holds(s_3040_jpg, billboard).
holds(s_3040_jpg, porch).
holds(s_3040_jpg, sign).
holds(s_3040_jpg, tiledroof).
holds(s_3040_jpg, wallsign).
holds(s_3040_jpg, industrial).

sample(s_10111_jpg).
holds(s_10111_jpg, building).
holds(s_10111_jpg, feature).
holds(s_10111_jpg, watertreatment).
holds(s_10111_jpg, door).
holds(s_10111_jpg, billboard).
holds(s_10111_jpg, porch).
holds(s_10111_jpg, sign).
holds(s_10111_jpg, tiledroof).
holds(s_10111_jpg, tiledrooftop).
holds(s_10111_jpg, wallsign).
holds(s_10111_jpg, chimney).
holds(s_10111_jpg, pipe).
holds(s_10111_jpg, industrial).

sample(s_7030_jpg).
holds(s_7030_jpg, building).
holds(s_7030_jpg, feature).
holds(s_7030_jpg, watertreatment).
holds(s_7030_jpg, door).
holds(s_7030_jpg, billboard).
holds(s_7030_jpg, porch).
holds(s_7030_jpg, sign).
holds(s_7030_jpg, tiledroof).
holds(s_7030_jpg, wallsign).
holds(s_7030_jpg, industrial).

sample(s_13905_jpg).
holds(s_13905_jpg, building).
holds(s_13905_jpg, feature).
holds(s_13905_jpg, hotel).
holds(s_13905_jpg, billboard).
holds(s_13905_jpg, sign).
holds(s_13905_jpg, table).
holds(s_13905_jpg, tiledroof).
holds(s_13905_jpg, tiledrooftop).
holds(s_13905_jpg, vendingmachine).
holds(s_13905_jpg, wallsign).
holds(s_13905_jpg, chimney).
holds(s_13905_jpg, pipe).
holds(s_13905_jpg, machine).
holds(s_13905_jpg, car).
holds(s_13905_jpg, commercial).

sample(s_6512_jpg).
holds(s_6512_jpg, building).
holds(s_6512_jpg, feature).
holds(s_6512_jpg, sign).
holds(s_6512_jpg, table).
holds(s_6512_jpg, tiledrooftop).
holds(s_6512_jpg, vendingmachine).
holds(s_6512_jpg, statue).
holds(s_6512_jpg, pipe).
holds(s_6512_jpg, machine).

sample(s_661_jpg).
holds(s_661_jpg, building).
holds(s_661_jpg, feature).
holds(s_661_jpg, watertreatment).
holds(s_661_jpg, door).
holds(s_661_jpg, billboard).
holds(s_661_jpg, porch).
holds(s_661_jpg, sign).
holds(s_661_jpg, tiledroof).
holds(s_661_jpg, wallsign).
holds(s_661_jpg, industrial).

sample(s_1208_jpg).
holds(s_1208_jpg, building).
holds(s_1208_jpg, feature).
holds(s_1208_jpg, sign).
holds(s_1208_jpg, table).
holds(s_1208_jpg, tiledrooftop).
holds(s_1208_jpg, vendingmachine).
holds(s_1208_jpg, statue).
holds(s_1208_jpg, pipe).
holds(s_1208_jpg, machine).

sample(s_8822_jpg).
holds(s_8822_jpg, building).
holds(s_8822_jpg, feature).
holds(s_8822_jpg, billboard).
holds(s_8822_jpg, sign).
holds(s_8822_jpg, table).
holds(s_8822_jpg, tiledrooftop).
holds(s_8822_jpg, vendingmachine).
holds(s_8822_jpg, statue).
holds(s_8822_jpg, pipe).
holds(s_8822_jpg, machine).

sample(s_8269_jpg).
holds(s_8269_jpg, building).
holds(s_8269_jpg, feature).
holds(s_8269_jpg, watertreatment).
holds(s_8269_jpg, door).
holds(s_8269_jpg, billboard).
holds(s_8269_jpg, porch).
holds(s_8269_jpg, sign).
holds(s_8269_jpg, tiledroof).
holds(s_8269_jpg, tiledrooftop).
holds(s_8269_jpg, wallsign).
holds(s_8269_jpg, industrial).

sample(s_3609_jpg).
holds(s_3609_jpg, building).
holds(s_3609_jpg, feature).
holds(s_3609_jpg, hotel).
holds(s_3609_jpg, door).
holds(s_3609_jpg, billboard).
holds(s_3609_jpg, porch).
holds(s_3609_jpg, sign).
holds(s_3609_jpg, tiledroof).
holds(s_3609_jpg, tiledrooftop).
holds(s_3609_jpg, vendingmachine).
holds(s_3609_jpg, wallsign).
holds(s_3609_jpg, chimney).
holds(s_3609_jpg, pipe).
holds(s_3609_jpg, machine).
holds(s_3609_jpg, car).
holds(s_3609_jpg, commercial).

sample(s_10276_jpg).
holds(s_10276_jpg, building).
holds(s_10276_jpg, feature).
holds(s_10276_jpg, watertreatment).
holds(s_10276_jpg, door).
holds(s_10276_jpg, billboard).
holds(s_10276_jpg, porch).
holds(s_10276_jpg, sign).
holds(s_10276_jpg, tiledroof).
holds(s_10276_jpg, tiledrooftop).
holds(s_10276_jpg, wallsign).
holds(s_10276_jpg, chimney).
holds(s_10276_jpg, pipe).
holds(s_10276_jpg, industrial).

sample(s_13160_jpg).
holds(s_13160_jpg, building).
holds(s_13160_jpg, feature).
holds(s_13160_jpg, sign).
holds(s_13160_jpg, table).
holds(s_13160_jpg, tiledrooftop).
holds(s_13160_jpg, vendingmachine).
holds(s_13160_jpg, statue).
holds(s_13160_jpg, pipe).

sample(s_15676_jpg).
holds(s_15676_jpg, building).
holds(s_15676_jpg, feature).
holds(s_15676_jpg, watertreatment).
holds(s_15676_jpg, door).
holds(s_15676_jpg, billboard).
holds(s_15676_jpg, porch).
holds(s_15676_jpg, sign).
holds(s_15676_jpg, tiledroof).
holds(s_15676_jpg, wallsign).
holds(s_15676_jpg, industrial).

sample(s_4510_jpg).
holds(s_4510_jpg, building).
holds(s_4510_jpg, feature).
holds(s_4510_jpg, watertreatment).
holds(s_4510_jpg, door).
holds(s_4510_jpg, billboard).
holds(s_4510_jpg, porch).
holds(s_4510_jpg, sign).
holds(s_4510_jpg, tiledroof).
holds(s_4510_jpg, wallsign).
holds(s_4510_jpg, chimney).
holds(s_4510_jpg, pipe).
holds(s_4510_jpg, industrial).

sample(s_9441_jpg).
holds(s_9441_jpg, building).
holds(s_9441_jpg, feature).
holds(s_9441_jpg, hotel).
holds(s_9441_jpg, door).
holds(s_9441_jpg, billboard).
holds(s_9441_jpg, porch).
holds(s_9441_jpg, sign).
holds(s_9441_jpg, table).
holds(s_9441_jpg, tiledroof).
holds(s_9441_jpg, tiledrooftop).
holds(s_9441_jpg, vendingmachine).
holds(s_9441_jpg, wallsign).
holds(s_9441_jpg, chimney).
holds(s_9441_jpg, pipe).
holds(s_9441_jpg, car).
holds(s_9441_jpg, commercial).

sample(s_4304_jpg).
holds(s_4304_jpg, building).
holds(s_4304_jpg, feature).
holds(s_4304_jpg, sign).
holds(s_4304_jpg, table).
holds(s_4304_jpg, tiledrooftop).
holds(s_4304_jpg, vendingmachine).
holds(s_4304_jpg, statue).
holds(s_4304_jpg, pipe).
holds(s_4304_jpg, machine).

sample(s_2497_jpg).
holds(s_2497_jpg, building).
holds(s_2497_jpg, feature).
holds(s_2497_jpg, watertreatment).
holds(s_2497_jpg, door).
holds(s_2497_jpg, billboard).
holds(s_2497_jpg, porch).
holds(s_2497_jpg, sign).
holds(s_2497_jpg, tiledroof).
holds(s_2497_jpg, wallsign).
holds(s_2497_jpg, industrial).

sample(s_8246_jpg).
holds(s_8246_jpg, building).
holds(s_8246_jpg, feature).
holds(s_8246_jpg, sign).
holds(s_8246_jpg, table).
holds(s_8246_jpg, tiledrooftop).
holds(s_8246_jpg, vendingmachine).
holds(s_8246_jpg, statue).
holds(s_8246_jpg, pipe).
holds(s_8246_jpg, machine).

sample(s_2841_jpg).
holds(s_2841_jpg, building).
holds(s_2841_jpg, feature).
holds(s_2841_jpg, hotel).
holds(s_2841_jpg, billboard).
holds(s_2841_jpg, porch).
holds(s_2841_jpg, sign).
holds(s_2841_jpg, table).
holds(s_2841_jpg, tiledroof).
holds(s_2841_jpg, tiledrooftop).
holds(s_2841_jpg, vendingmachine).
holds(s_2841_jpg, wallsign).
holds(s_2841_jpg, statue).
holds(s_2841_jpg, chimney).
holds(s_2841_jpg, pipe).
holds(s_2841_jpg, machine).
holds(s_2841_jpg, car).
holds(s_2841_jpg, commercial).

sample(s_13773_jpg).
holds(s_13773_jpg, building).
holds(s_13773_jpg, feature).
holds(s_13773_jpg, hotel).
holds(s_13773_jpg, door).
holds(s_13773_jpg, billboard).
holds(s_13773_jpg, sign).
holds(s_13773_jpg, tiledroof).
holds(s_13773_jpg, tiledrooftop).
holds(s_13773_jpg, wallsign).
holds(s_13773_jpg, chimney).
holds(s_13773_jpg, pipe).
holds(s_13773_jpg, car).
holds(s_13773_jpg, commercial).

sample(s_14978_jpg).
holds(s_14978_jpg, building).
holds(s_14978_jpg, feature).
holds(s_14978_jpg, sign).
holds(s_14978_jpg, table).
holds(s_14978_jpg, tiledrooftop).
holds(s_14978_jpg, vendingmachine).
holds(s_14978_jpg, statue).
holds(s_14978_jpg, pipe).
holds(s_14978_jpg, machine).

sample(s_5262_jpg).
holds(s_5262_jpg, building).
holds(s_5262_jpg, feature).
holds(s_5262_jpg, hotel).
holds(s_5262_jpg, door).
holds(s_5262_jpg, billboard).
holds(s_5262_jpg, porch).
holds(s_5262_jpg, sign).
holds(s_5262_jpg, tiledroof).
holds(s_5262_jpg, tiledrooftop).
holds(s_5262_jpg, wallsign).
holds(s_5262_jpg, chimney).
holds(s_5262_jpg, pipe).
holds(s_5262_jpg, car).
holds(s_5262_jpg, commercial).

sample(s_6036_jpg).
holds(s_6036_jpg, building).
holds(s_6036_jpg, feature).
holds(s_6036_jpg, hotel).
holds(s_6036_jpg, door).
holds(s_6036_jpg, billboard).
holds(s_6036_jpg, porch).
holds(s_6036_jpg, sign).
holds(s_6036_jpg, table).
holds(s_6036_jpg, tiledroof).
holds(s_6036_jpg, tiledrooftop).
holds(s_6036_jpg, vendingmachine).
holds(s_6036_jpg, wallsign).
holds(s_6036_jpg, chimney).
holds(s_6036_jpg, pipe).
holds(s_6036_jpg, car).
holds(s_6036_jpg, commercial).

sample(s_3710_jpg).
holds(s_3710_jpg, building).
holds(s_3710_jpg, feature).
holds(s_3710_jpg, sign).
holds(s_3710_jpg, table).
holds(s_3710_jpg, tiledrooftop).
holds(s_3710_jpg, vendingmachine).
holds(s_3710_jpg, statue).
holds(s_3710_jpg, pipe).
holds(s_3710_jpg, machine).

sample(s_10447_jpg).
holds(s_10447_jpg, building).
holds(s_10447_jpg, feature).
holds(s_10447_jpg, watertreatment).
holds(s_10447_jpg, door).
holds(s_10447_jpg, billboard).
holds(s_10447_jpg, porch).
holds(s_10447_jpg, sign).
holds(s_10447_jpg, tiledroof).
holds(s_10447_jpg, tiledrooftop).
holds(s_10447_jpg, wallsign).
holds(s_10447_jpg, chimney).
holds(s_10447_jpg, pipe).
holds(s_10447_jpg, industrial).

sample(s_11360_jpg).
holds(s_11360_jpg, building).
holds(s_11360_jpg, feature).
holds(s_11360_jpg, sign).
holds(s_11360_jpg, table).
holds(s_11360_jpg, tiledrooftop).
holds(s_11360_jpg, vendingmachine).
holds(s_11360_jpg, statue).
holds(s_11360_jpg, pipe).
holds(s_11360_jpg, machine).

sample(s_10219_jpg).
holds(s_10219_jpg, building).
holds(s_10219_jpg, feature).
holds(s_10219_jpg, watertreatment).
holds(s_10219_jpg, door).
holds(s_10219_jpg, billboard).
holds(s_10219_jpg, porch).
holds(s_10219_jpg, sign).
holds(s_10219_jpg, tiledroof).
holds(s_10219_jpg, tiledrooftop).
holds(s_10219_jpg, wallsign).
holds(s_10219_jpg, industrial).

sample(s_6672_jpg).
holds(s_6672_jpg, building).
holds(s_6672_jpg, feature).
holds(s_6672_jpg, hotel).
holds(s_6672_jpg, door).
holds(s_6672_jpg, billboard).
holds(s_6672_jpg, porch).
holds(s_6672_jpg, sign).
holds(s_6672_jpg, tiledroof).
holds(s_6672_jpg, tiledrooftop).
holds(s_6672_jpg, vendingmachine).
holds(s_6672_jpg, wallsign).
holds(s_6672_jpg, chimney).
holds(s_6672_jpg, pipe).
holds(s_6672_jpg, car).
holds(s_6672_jpg, commercial).

sample(s_6866_jpg).
holds(s_6866_jpg, building).
holds(s_6866_jpg, feature).
holds(s_6866_jpg, billboard).
holds(s_6866_jpg, sign).
holds(s_6866_jpg, table).
holds(s_6866_jpg, tiledrooftop).
holds(s_6866_jpg, vendingmachine).
holds(s_6866_jpg, statue).
holds(s_6866_jpg, pipe).
holds(s_6866_jpg, machine).

sample(s_15964_jpg).
holds(s_15964_jpg, building).
holds(s_15964_jpg, feature).
holds(s_15964_jpg, watertreatment).
holds(s_15964_jpg, door).
holds(s_15964_jpg, billboard).
holds(s_15964_jpg, porch).
holds(s_15964_jpg, sign).
holds(s_15964_jpg, tiledroof).
holds(s_15964_jpg, wallsign).
holds(s_15964_jpg, pipe).
holds(s_15964_jpg, industrial).

sample(s_13074_jpg).
holds(s_13074_jpg, building).
holds(s_13074_jpg, feature).
holds(s_13074_jpg, hotel).
holds(s_13074_jpg, billboard).
holds(s_13074_jpg, sign).
holds(s_13074_jpg, table).
holds(s_13074_jpg, tiledroof).
holds(s_13074_jpg, tiledrooftop).
holds(s_13074_jpg, vendingmachine).
holds(s_13074_jpg, chimney).
holds(s_13074_jpg, pipe).
holds(s_13074_jpg, machine).
holds(s_13074_jpg, car).
holds(s_13074_jpg, commercial).

sample(s_7368_jpg).
holds(s_7368_jpg, building).
holds(s_7368_jpg, feature).
holds(s_7368_jpg, hotel).
holds(s_7368_jpg, door).
holds(s_7368_jpg, billboard).
holds(s_7368_jpg, sign).
holds(s_7368_jpg, tiledroof).
holds(s_7368_jpg, tiledrooftop).
holds(s_7368_jpg, wallsign).
holds(s_7368_jpg, chimney).
holds(s_7368_jpg, pipe).
holds(s_7368_jpg, car).
holds(s_7368_jpg, commercial).

sample(s_14625_jpg).
holds(s_14625_jpg, building).
holds(s_14625_jpg, feature).
holds(s_14625_jpg, hotel).
holds(s_14625_jpg, door).
holds(s_14625_jpg, billboard).
holds(s_14625_jpg, sign).
holds(s_14625_jpg, tiledroof).
holds(s_14625_jpg, tiledrooftop).
holds(s_14625_jpg, wallsign).
holds(s_14625_jpg, chimney).
holds(s_14625_jpg, pipe).
holds(s_14625_jpg, car).
holds(s_14625_jpg, commercial).

sample(s_3770_jpg).
holds(s_3770_jpg, building).
holds(s_3770_jpg, feature).
holds(s_3770_jpg, sign).
holds(s_3770_jpg, table).
holds(s_3770_jpg, tiledrooftop).
holds(s_3770_jpg, vendingmachine).
holds(s_3770_jpg, statue).
holds(s_3770_jpg, pipe).

sample(s_5007_jpg).
holds(s_5007_jpg, building).
holds(s_5007_jpg, feature).
holds(s_5007_jpg, hotel).
holds(s_5007_jpg, billboard).
holds(s_5007_jpg, porch).
holds(s_5007_jpg, sign).
holds(s_5007_jpg, table).
holds(s_5007_jpg, tiledroof).
holds(s_5007_jpg, tiledrooftop).
holds(s_5007_jpg, vendingmachine).
holds(s_5007_jpg, wallsign).
holds(s_5007_jpg, chimney).
holds(s_5007_jpg, pipe).
holds(s_5007_jpg, machine).
holds(s_5007_jpg, car).
holds(s_5007_jpg, commercial).

sample(s_13707_jpg).
holds(s_13707_jpg, building).
holds(s_13707_jpg, feature).
holds(s_13707_jpg, hotel).
holds(s_13707_jpg, porch).
holds(s_13707_jpg, sign).
holds(s_13707_jpg, table).
holds(s_13707_jpg, tiledroof).
holds(s_13707_jpg, tiledrooftop).
holds(s_13707_jpg, vendingmachine).
holds(s_13707_jpg, statue).
holds(s_13707_jpg, chimney).
holds(s_13707_jpg, pipe).
holds(s_13707_jpg, car).
holds(s_13707_jpg, commercial).

sample(s_11742_jpg).
holds(s_11742_jpg, building).
holds(s_11742_jpg, feature).
holds(s_11742_jpg, hotel).
holds(s_11742_jpg, door).
holds(s_11742_jpg, billboard).
holds(s_11742_jpg, porch).
holds(s_11742_jpg, sign).
holds(s_11742_jpg, tiledroof).
holds(s_11742_jpg, tiledrooftop).
holds(s_11742_jpg, vendingmachine).
holds(s_11742_jpg, wallsign).
holds(s_11742_jpg, chimney).
holds(s_11742_jpg, pipe).
holds(s_11742_jpg, machine).
holds(s_11742_jpg, car).
holds(s_11742_jpg, commercial).

sample(s_12595_jpg).
holds(s_12595_jpg, building).
holds(s_12595_jpg, feature).
holds(s_12595_jpg, watertreatment).
holds(s_12595_jpg, door).
holds(s_12595_jpg, billboard).
holds(s_12595_jpg, porch).
holds(s_12595_jpg, sign).
holds(s_12595_jpg, tiledroof).
holds(s_12595_jpg, tiledrooftop).
holds(s_12595_jpg, wallsign).
holds(s_12595_jpg, industrial).

sample(s_1063_jpg).
holds(s_1063_jpg, building).
holds(s_1063_jpg, feature).
holds(s_1063_jpg, watertreatment).
holds(s_1063_jpg, door).
holds(s_1063_jpg, billboard).
holds(s_1063_jpg, porch).
holds(s_1063_jpg, sign).
holds(s_1063_jpg, tiledroof).
holds(s_1063_jpg, wallsign).
holds(s_1063_jpg, industrial).

sample(s_15941_jpg).
holds(s_15941_jpg, building).
holds(s_15941_jpg, feature).
holds(s_15941_jpg, sign).
holds(s_15941_jpg, table).
holds(s_15941_jpg, tiledrooftop).
holds(s_15941_jpg, vendingmachine).
holds(s_15941_jpg, statue).
holds(s_15941_jpg, pipe).
holds(s_15941_jpg, machine).

sample(s_8057_jpg).
holds(s_8057_jpg, building).
holds(s_8057_jpg, feature).
holds(s_8057_jpg, porch).
holds(s_8057_jpg, sign).
holds(s_8057_jpg, table).
holds(s_8057_jpg, tiledrooftop).
holds(s_8057_jpg, vendingmachine).
holds(s_8057_jpg, statue).

sample(s_13251_jpg).
holds(s_13251_jpg, building).
holds(s_13251_jpg, feature).
holds(s_13251_jpg, hotel).
holds(s_13251_jpg, door).
holds(s_13251_jpg, billboard).
holds(s_13251_jpg, porch).
holds(s_13251_jpg, sign).
holds(s_13251_jpg, tiledroof).
holds(s_13251_jpg, tiledrooftop).
holds(s_13251_jpg, vendingmachine).
holds(s_13251_jpg, wallsign).
holds(s_13251_jpg, chimney).
holds(s_13251_jpg, pipe).
holds(s_13251_jpg, car).
holds(s_13251_jpg, commercial).

sample(s_4568_jpg).
holds(s_4568_jpg, building).
holds(s_4568_jpg, feature).
holds(s_4568_jpg, sign).
holds(s_4568_jpg, table).
holds(s_4568_jpg, tiledrooftop).
holds(s_4568_jpg, vendingmachine).
holds(s_4568_jpg, statue).
holds(s_4568_jpg, pipe).

sample(s_13264_jpg).
holds(s_13264_jpg, building).
holds(s_13264_jpg, feature).
holds(s_13264_jpg, watertreatment).
holds(s_13264_jpg, door).
holds(s_13264_jpg, billboard).
holds(s_13264_jpg, porch).
holds(s_13264_jpg, sign).
holds(s_13264_jpg, tiledroof).
holds(s_13264_jpg, tiledrooftop).
holds(s_13264_jpg, wallsign).
holds(s_13264_jpg, pipe).
holds(s_13264_jpg, industrial).

sample(s_4918_jpg).
holds(s_4918_jpg, building).
holds(s_4918_jpg, feature).
holds(s_4918_jpg, watertreatment).
holds(s_4918_jpg, door).
holds(s_4918_jpg, billboard).
holds(s_4918_jpg, porch).
holds(s_4918_jpg, sign).
holds(s_4918_jpg, tiledroof).
holds(s_4918_jpg, tiledrooftop).
holds(s_4918_jpg, wallsign).
holds(s_4918_jpg, pipe).
holds(s_4918_jpg, industrial).

sample(s_8310_jpg).
holds(s_8310_jpg, building).
holds(s_8310_jpg, feature).
holds(s_8310_jpg, hotel).
holds(s_8310_jpg, billboard).
holds(s_8310_jpg, sign).
holds(s_8310_jpg, table).
holds(s_8310_jpg, tiledroof).
holds(s_8310_jpg, tiledrooftop).
holds(s_8310_jpg, vendingmachine).
holds(s_8310_jpg, wallsign).
holds(s_8310_jpg, chimney).
holds(s_8310_jpg, pipe).
holds(s_8310_jpg, machine).
holds(s_8310_jpg, car).
holds(s_8310_jpg, commercial).

sample(s_12609_jpg).
holds(s_12609_jpg, building).
holds(s_12609_jpg, feature).
holds(s_12609_jpg, hotel).
holds(s_12609_jpg, billboard).
holds(s_12609_jpg, sign).
holds(s_12609_jpg, tiledroof).
holds(s_12609_jpg, tiledrooftop).
holds(s_12609_jpg, vendingmachine).
holds(s_12609_jpg, wallsign).
holds(s_12609_jpg, chimney).
holds(s_12609_jpg, pipe).
holds(s_12609_jpg, machine).
holds(s_12609_jpg, car).
holds(s_12609_jpg, commercial).

sample(s_10577_jpg).
holds(s_10577_jpg, building).
holds(s_10577_jpg, feature).
holds(s_10577_jpg, sign).
holds(s_10577_jpg, table).
holds(s_10577_jpg, tiledrooftop).
holds(s_10577_jpg, vendingmachine).
holds(s_10577_jpg, statue).
holds(s_10577_jpg, pipe).
holds(s_10577_jpg, machine).

sample(s_5834_jpg).
holds(s_5834_jpg, building).
holds(s_5834_jpg, feature).
holds(s_5834_jpg, porch).
holds(s_5834_jpg, sign).
holds(s_5834_jpg, table).
holds(s_5834_jpg, tiledrooftop).
holds(s_5834_jpg, vendingmachine).
holds(s_5834_jpg, statue).
holds(s_5834_jpg, pipe).
holds(s_5834_jpg, machine).

sample(s_4006_jpg).
holds(s_4006_jpg, building).
holds(s_4006_jpg, feature).
holds(s_4006_jpg, watertreatment).
holds(s_4006_jpg, door).
holds(s_4006_jpg, billboard).
holds(s_4006_jpg, porch).
holds(s_4006_jpg, sign).
holds(s_4006_jpg, tiledroof).
holds(s_4006_jpg, wallsign).
holds(s_4006_jpg, industrial).

sample(s_4556_jpg).
holds(s_4556_jpg, building).
holds(s_4556_jpg, feature).
holds(s_4556_jpg, window).
holds(s_4556_jpg, porch).
holds(s_4556_jpg, table).
holds(s_4556_jpg, tiledrooftop).
holds(s_4556_jpg, vendingmachine).
holds(s_4556_jpg, statue).

sample(s_15132_jpg).
holds(s_15132_jpg, building).
holds(s_15132_jpg, feature).
holds(s_15132_jpg, hotel).
holds(s_15132_jpg, door).
holds(s_15132_jpg, billboard).
holds(s_15132_jpg, porch).
holds(s_15132_jpg, sign).
holds(s_15132_jpg, tiledroof).
holds(s_15132_jpg, tiledrooftop).
holds(s_15132_jpg, vendingmachine).
holds(s_15132_jpg, wallsign).
holds(s_15132_jpg, chimney).
holds(s_15132_jpg, pipe).
holds(s_15132_jpg, machine).
holds(s_15132_jpg, car).
holds(s_15132_jpg, commercial).

sample(s_4231_jpg).
holds(s_4231_jpg, building).
holds(s_4231_jpg, feature).
holds(s_4231_jpg, watertreatment).
holds(s_4231_jpg, door).
holds(s_4231_jpg, billboard).
holds(s_4231_jpg, porch).
holds(s_4231_jpg, sign).
holds(s_4231_jpg, tiledroof).
holds(s_4231_jpg, wallsign).
holds(s_4231_jpg, chimney).
holds(s_4231_jpg, pipe).
holds(s_4231_jpg, industrial).

sample(s_2182_jpg).
holds(s_2182_jpg, building).
holds(s_2182_jpg, feature).
holds(s_2182_jpg, watertreatment).
holds(s_2182_jpg, window).
holds(s_2182_jpg, porch).
holds(s_2182_jpg, sign).
holds(s_2182_jpg, table).
holds(s_2182_jpg, tiledroof).
holds(s_2182_jpg, vendingmachine).
holds(s_2182_jpg, statue).
holds(s_2182_jpg, pipe).
holds(s_2182_jpg, industrial).

sample(s_11445_jpg).
holds(s_11445_jpg, building).
holds(s_11445_jpg, feature).
holds(s_11445_jpg, hotel).
holds(s_11445_jpg, door).
holds(s_11445_jpg, billboard).
holds(s_11445_jpg, porch).
holds(s_11445_jpg, sign).
holds(s_11445_jpg, tiledroof).
holds(s_11445_jpg, tiledrooftop).
holds(s_11445_jpg, wallsign).
holds(s_11445_jpg, chimney).
holds(s_11445_jpg, pipe).
holds(s_11445_jpg, car).
holds(s_11445_jpg, commercial).

sample(s_10415_jpg).
holds(s_10415_jpg, building).
holds(s_10415_jpg, feature).
holds(s_10415_jpg, sign).
holds(s_10415_jpg, table).
holds(s_10415_jpg, tiledrooftop).
holds(s_10415_jpg, vendingmachine).
holds(s_10415_jpg, statue).
holds(s_10415_jpg, pipe).

sample(s_2891_jpg).
holds(s_2891_jpg, building).
holds(s_2891_jpg, feature).
holds(s_2891_jpg, sign).
holds(s_2891_jpg, table).
holds(s_2891_jpg, tiledrooftop).
holds(s_2891_jpg, vendingmachine).
holds(s_2891_jpg, statue).
holds(s_2891_jpg, pipe).

sample(s_14298_jpg).
holds(s_14298_jpg, building).
holds(s_14298_jpg, feature).
holds(s_14298_jpg, hotel).
holds(s_14298_jpg, billboard).
holds(s_14298_jpg, sign).
holds(s_14298_jpg, table).
holds(s_14298_jpg, tiledroof).
holds(s_14298_jpg, tiledrooftop).
holds(s_14298_jpg, vendingmachine).
holds(s_14298_jpg, statue).
holds(s_14298_jpg, chimney).
holds(s_14298_jpg, pipe).
holds(s_14298_jpg, machine).
holds(s_14298_jpg, car).
holds(s_14298_jpg, commercial).

sample(s_1868_jpg).
holds(s_1868_jpg, building).
holds(s_1868_jpg, feature).
holds(s_1868_jpg, sign).
holds(s_1868_jpg, table).
holds(s_1868_jpg, tiledrooftop).
holds(s_1868_jpg, vendingmachine).
holds(s_1868_jpg, statue).
holds(s_1868_jpg, pipe).
holds(s_1868_jpg, machine).

sample(s_7543_jpg).
holds(s_7543_jpg, building).
holds(s_7543_jpg, feature).
holds(s_7543_jpg, watertreatment).
holds(s_7543_jpg, door).
holds(s_7543_jpg, billboard).
holds(s_7543_jpg, porch).
holds(s_7543_jpg, sign).
holds(s_7543_jpg, tiledroof).
holds(s_7543_jpg, tiledrooftop).
holds(s_7543_jpg, wallsign).
holds(s_7543_jpg, industrial).

sample(s_7762_jpg).
holds(s_7762_jpg, building).
holds(s_7762_jpg, feature).
holds(s_7762_jpg, watertreatment).
holds(s_7762_jpg, door).
holds(s_7762_jpg, billboard).
holds(s_7762_jpg, sign).
holds(s_7762_jpg, tiledroof).
holds(s_7762_jpg, tiledrooftop).
holds(s_7762_jpg, wallsign).
holds(s_7762_jpg, chimney).
holds(s_7762_jpg, pipe).
holds(s_7762_jpg, industrial).

sample(s_13993_jpg).
holds(s_13993_jpg, building).
holds(s_13993_jpg, feature).
holds(s_13993_jpg, watertreatment).
holds(s_13993_jpg, door).
holds(s_13993_jpg, billboard).
holds(s_13993_jpg, porch).
holds(s_13993_jpg, sign).
holds(s_13993_jpg, tiledroof).
holds(s_13993_jpg, tiledrooftop).
holds(s_13993_jpg, wallsign).
holds(s_13993_jpg, pipe).
holds(s_13993_jpg, industrial).

sample(s_13249_jpg).
holds(s_13249_jpg, building).
holds(s_13249_jpg, feature).
holds(s_13249_jpg, watertreatment).
holds(s_13249_jpg, door).
holds(s_13249_jpg, billboard).
holds(s_13249_jpg, porch).
holds(s_13249_jpg, sign).
holds(s_13249_jpg, tiledroof).
holds(s_13249_jpg, wallsign).
holds(s_13249_jpg, chimney).
holds(s_13249_jpg, pipe).
holds(s_13249_jpg, industrial).

sample(s_2331_jpg).
holds(s_2331_jpg, building).
holds(s_2331_jpg, feature).
holds(s_2331_jpg, hotel).
holds(s_2331_jpg, billboard).
holds(s_2331_jpg, porch).
holds(s_2331_jpg, sign).
holds(s_2331_jpg, table).
holds(s_2331_jpg, tiledroof).
holds(s_2331_jpg, tiledrooftop).
holds(s_2331_jpg, vendingmachine).
holds(s_2331_jpg, wallsign).
holds(s_2331_jpg, chimney).
holds(s_2331_jpg, pipe).
holds(s_2331_jpg, machine).
holds(s_2331_jpg, car).
holds(s_2331_jpg, commercial).

sample(s_2547_jpg).
holds(s_2547_jpg, building).
holds(s_2547_jpg, feature).
holds(s_2547_jpg, hotel).
holds(s_2547_jpg, door).
holds(s_2547_jpg, billboard).
holds(s_2547_jpg, sign).
holds(s_2547_jpg, tiledroof).
holds(s_2547_jpg, tiledrooftop).
holds(s_2547_jpg, wallsign).
holds(s_2547_jpg, chimney).
holds(s_2547_jpg, pipe).
holds(s_2547_jpg, car).
holds(s_2547_jpg, commercial).

sample(s_13980_jpg).
holds(s_13980_jpg, building).
holds(s_13980_jpg, feature).
holds(s_13980_jpg, hotel).
holds(s_13980_jpg, door).
holds(s_13980_jpg, billboard).
holds(s_13980_jpg, porch).
holds(s_13980_jpg, sign).
holds(s_13980_jpg, tiledroof).
holds(s_13980_jpg, tiledrooftop).
holds(s_13980_jpg, wallsign).
holds(s_13980_jpg, chimney).
holds(s_13980_jpg, pipe).
holds(s_13980_jpg, car).
holds(s_13980_jpg, commercial).

sample(s_6701_jpg).
holds(s_6701_jpg, building).
holds(s_6701_jpg, feature).
holds(s_6701_jpg, sign).
holds(s_6701_jpg, table).
holds(s_6701_jpg, tiledrooftop).
holds(s_6701_jpg, vendingmachine).
holds(s_6701_jpg, statue).
holds(s_6701_jpg, pipe).
holds(s_6701_jpg, machine).

sample(s_8340_jpg).
holds(s_8340_jpg, building).
holds(s_8340_jpg, feature).
holds(s_8340_jpg, hotel).
holds(s_8340_jpg, billboard).
holds(s_8340_jpg, porch).
holds(s_8340_jpg, sign).
holds(s_8340_jpg, table).
holds(s_8340_jpg, tiledroof).
holds(s_8340_jpg, tiledrooftop).
holds(s_8340_jpg, vendingmachine).
holds(s_8340_jpg, statue).
holds(s_8340_jpg, pipe).
holds(s_8340_jpg, commercial).

sample(s_10071_jpg).
holds(s_10071_jpg, building).
holds(s_10071_jpg, feature).
holds(s_10071_jpg, hotel).
holds(s_10071_jpg, door).
holds(s_10071_jpg, billboard).
holds(s_10071_jpg, porch).
holds(s_10071_jpg, sign).
holds(s_10071_jpg, tiledroof).
holds(s_10071_jpg, tiledrooftop).
holds(s_10071_jpg, vendingmachine).
holds(s_10071_jpg, wallsign).
holds(s_10071_jpg, chimney).
holds(s_10071_jpg, pipe).
holds(s_10071_jpg, car).
holds(s_10071_jpg, commercial).

sample(s_4985_jpg).
holds(s_4985_jpg, building).
holds(s_4985_jpg, feature).
holds(s_4985_jpg, porch).
holds(s_4985_jpg, sign).
holds(s_4985_jpg, table).
holds(s_4985_jpg, tiledrooftop).
holds(s_4985_jpg, vendingmachine).
holds(s_4985_jpg, statue).

sample(s_9316_jpg).
holds(s_9316_jpg, building).
holds(s_9316_jpg, feature).
holds(s_9316_jpg, watertreatment).
holds(s_9316_jpg, door).
holds(s_9316_jpg, billboard).
holds(s_9316_jpg, porch).
holds(s_9316_jpg, sign).
holds(s_9316_jpg, tiledroof).
holds(s_9316_jpg, wallsign).
holds(s_9316_jpg, industrial).

sample(s_159_jpg).
holds(s_159_jpg, building).
holds(s_159_jpg, feature).
holds(s_159_jpg, hotel).
holds(s_159_jpg, door).
holds(s_159_jpg, billboard).
holds(s_159_jpg, sign).
holds(s_159_jpg, tiledroof).
holds(s_159_jpg, tiledrooftop).
holds(s_159_jpg, wallsign).
holds(s_159_jpg, chimney).
holds(s_159_jpg, pipe).
holds(s_159_jpg, car).
holds(s_159_jpg, commercial).

sample(s_12199_jpg).
holds(s_12199_jpg, building).
holds(s_12199_jpg, feature).
holds(s_12199_jpg, watertreatment).
holds(s_12199_jpg, door).
holds(s_12199_jpg, billboard).
holds(s_12199_jpg, porch).
holds(s_12199_jpg, sign).
holds(s_12199_jpg, tiledroof).
holds(s_12199_jpg, wallsign).
holds(s_12199_jpg, pipe).
holds(s_12199_jpg, industrial).

sample(s_7549_jpg).
holds(s_7549_jpg, building).
holds(s_7549_jpg, feature).
holds(s_7549_jpg, watertreatment).
holds(s_7549_jpg, door).
holds(s_7549_jpg, billboard).
holds(s_7549_jpg, porch).
holds(s_7549_jpg, sign).
holds(s_7549_jpg, tiledroof).
holds(s_7549_jpg, tiledrooftop).
holds(s_7549_jpg, wallsign).
holds(s_7549_jpg, industrial).

sample(s_1565_jpg).
holds(s_1565_jpg, building).
holds(s_1565_jpg, feature).
holds(s_1565_jpg, porch).
holds(s_1565_jpg, sign).
holds(s_1565_jpg, table).
holds(s_1565_jpg, tiledrooftop).
holds(s_1565_jpg, vendingmachine).
holds(s_1565_jpg, statue).
holds(s_1565_jpg, pipe).

sample(s_8316_jpg).
holds(s_8316_jpg, building).
holds(s_8316_jpg, feature).
holds(s_8316_jpg, hotel).
holds(s_8316_jpg, door).
holds(s_8316_jpg, billboard).
holds(s_8316_jpg, porch).
holds(s_8316_jpg, sign).
holds(s_8316_jpg, tiledroof).
holds(s_8316_jpg, tiledrooftop).
holds(s_8316_jpg, vendingmachine).
holds(s_8316_jpg, wallsign).
holds(s_8316_jpg, chimney).
holds(s_8316_jpg, pipe).
holds(s_8316_jpg, car).
holds(s_8316_jpg, commercial).

sample(s_12681_jpg).
holds(s_12681_jpg, building).
holds(s_12681_jpg, feature).
holds(s_12681_jpg, hotel).
holds(s_12681_jpg, door).
holds(s_12681_jpg, billboard).
holds(s_12681_jpg, porch).
holds(s_12681_jpg, sign).
holds(s_12681_jpg, tiledroof).
holds(s_12681_jpg, tiledrooftop).
holds(s_12681_jpg, vendingmachine).
holds(s_12681_jpg, wallsign).
holds(s_12681_jpg, chimney).
holds(s_12681_jpg, pipe).
holds(s_12681_jpg, car).
holds(s_12681_jpg, commercial).

sample(s_703_jpg).
holds(s_703_jpg, building).
holds(s_703_jpg, feature).
holds(s_703_jpg, watertreatment).
holds(s_703_jpg, door).
holds(s_703_jpg, billboard).
holds(s_703_jpg, porch).
holds(s_703_jpg, sign).
holds(s_703_jpg, tiledroof).
holds(s_703_jpg, tiledrooftop).
holds(s_703_jpg, wallsign).
holds(s_703_jpg, pipe).
holds(s_703_jpg, industrial).

sample(s_9752_jpg).
holds(s_9752_jpg, building).
holds(s_9752_jpg, feature).
holds(s_9752_jpg, window).
holds(s_9752_jpg, porch).
holds(s_9752_jpg, sign).
holds(s_9752_jpg, table).
holds(s_9752_jpg, tiledrooftop).
holds(s_9752_jpg, vendingmachine).
holds(s_9752_jpg, statue).
holds(s_9752_jpg, pipe).

sample(s_5403_jpg).
holds(s_5403_jpg, building).
holds(s_5403_jpg, feature).
holds(s_5403_jpg, hotel).
holds(s_5403_jpg, billboard).
holds(s_5403_jpg, porch).
holds(s_5403_jpg, sign).
holds(s_5403_jpg, table).
holds(s_5403_jpg, tiledroof).
holds(s_5403_jpg, tiledrooftop).
holds(s_5403_jpg, vendingmachine).
holds(s_5403_jpg, statue).
holds(s_5403_jpg, chimney).
holds(s_5403_jpg, pipe).
holds(s_5403_jpg, machine).
holds(s_5403_jpg, car).
holds(s_5403_jpg, commercial).

sample(s_9024_jpg).
holds(s_9024_jpg, building).
holds(s_9024_jpg, feature).
holds(s_9024_jpg, hotel).
holds(s_9024_jpg, door).
holds(s_9024_jpg, billboard).
holds(s_9024_jpg, porch).
holds(s_9024_jpg, sign).
holds(s_9024_jpg, tiledroof).
holds(s_9024_jpg, tiledrooftop).
holds(s_9024_jpg, vendingmachine).
holds(s_9024_jpg, wallsign).
holds(s_9024_jpg, chimney).
holds(s_9024_jpg, pipe).
holds(s_9024_jpg, car).
holds(s_9024_jpg, commercial).

sample(s_3724_jpg).
holds(s_3724_jpg, building).
holds(s_3724_jpg, feature).
holds(s_3724_jpg, watertreatment).
holds(s_3724_jpg, door).
holds(s_3724_jpg, billboard).
holds(s_3724_jpg, porch).
holds(s_3724_jpg, sign).
holds(s_3724_jpg, tiledroof).
holds(s_3724_jpg, tiledrooftop).
holds(s_3724_jpg, wallsign).
holds(s_3724_jpg, industrial).

sample(s_2291_jpg).
holds(s_2291_jpg, building).
holds(s_2291_jpg, feature).
holds(s_2291_jpg, sign).
holds(s_2291_jpg, table).
holds(s_2291_jpg, tiledrooftop).
holds(s_2291_jpg, vendingmachine).
holds(s_2291_jpg, statue).
holds(s_2291_jpg, pipe).
holds(s_2291_jpg, machine).

sample(s_7040_jpg).
holds(s_7040_jpg, building).
holds(s_7040_jpg, feature).
holds(s_7040_jpg, window).
holds(s_7040_jpg, porch).
holds(s_7040_jpg, sign).
holds(s_7040_jpg, table).
holds(s_7040_jpg, tiledrooftop).
holds(s_7040_jpg, vendingmachine).
holds(s_7040_jpg, statue).
holds(s_7040_jpg, pipe).

sample(s_7076_jpg).
holds(s_7076_jpg, building).
holds(s_7076_jpg, feature).
holds(s_7076_jpg, window).
holds(s_7076_jpg, porch).
holds(s_7076_jpg, table).
holds(s_7076_jpg, tiledrooftop).
holds(s_7076_jpg, vendingmachine).
holds(s_7076_jpg, statue).

sample(s_13764_jpg).
holds(s_13764_jpg, building).
holds(s_13764_jpg, feature).
holds(s_13764_jpg, hotel).
holds(s_13764_jpg, billboard).
holds(s_13764_jpg, porch).
holds(s_13764_jpg, sign).
holds(s_13764_jpg, table).
holds(s_13764_jpg, tiledroof).
holds(s_13764_jpg, tiledrooftop).
holds(s_13764_jpg, vendingmachine).
holds(s_13764_jpg, wallsign).
holds(s_13764_jpg, chimney).
holds(s_13764_jpg, pipe).
holds(s_13764_jpg, machine).
holds(s_13764_jpg, car).
holds(s_13764_jpg, commercial).

sample(s_10778_jpg).
holds(s_10778_jpg, building).
holds(s_10778_jpg, feature).
holds(s_10778_jpg, sign).
holds(s_10778_jpg, table).
holds(s_10778_jpg, tiledrooftop).
holds(s_10778_jpg, vendingmachine).
holds(s_10778_jpg, statue).
holds(s_10778_jpg, pipe).
holds(s_10778_jpg, machine).

sample(s_5284_jpg).
holds(s_5284_jpg, building).
holds(s_5284_jpg, feature).
holds(s_5284_jpg, watertreatment).
holds(s_5284_jpg, door).
holds(s_5284_jpg, billboard).
holds(s_5284_jpg, porch).
holds(s_5284_jpg, sign).
holds(s_5284_jpg, tiledroof).
holds(s_5284_jpg, wallsign).
holds(s_5284_jpg, industrial).

sample(s_2078_jpg).
holds(s_2078_jpg, building).
holds(s_2078_jpg, feature).
holds(s_2078_jpg, porch).
holds(s_2078_jpg, sign).
holds(s_2078_jpg, table).
holds(s_2078_jpg, tiledrooftop).
holds(s_2078_jpg, vendingmachine).
holds(s_2078_jpg, statue).

sample(s_12125_jpg).
holds(s_12125_jpg, building).
holds(s_12125_jpg, feature).
holds(s_12125_jpg, sign).
holds(s_12125_jpg, table).
holds(s_12125_jpg, tiledrooftop).
holds(s_12125_jpg, vendingmachine).
holds(s_12125_jpg, statue).
holds(s_12125_jpg, pipe).
holds(s_12125_jpg, machine).

sample(s_15493_jpg).
holds(s_15493_jpg, building).
holds(s_15493_jpg, feature).
holds(s_15493_jpg, watertreatment).
holds(s_15493_jpg, door).
holds(s_15493_jpg, billboard).
holds(s_15493_jpg, porch).
holds(s_15493_jpg, sign).
holds(s_15493_jpg, tiledroof).
holds(s_15493_jpg, tiledrooftop).
holds(s_15493_jpg, wallsign).
holds(s_15493_jpg, pipe).
holds(s_15493_jpg, industrial).

sample(s_6028_jpg).
holds(s_6028_jpg, building).
holds(s_6028_jpg, feature).
holds(s_6028_jpg, watertreatment).
holds(s_6028_jpg, door).
holds(s_6028_jpg, billboard).
holds(s_6028_jpg, porch).
holds(s_6028_jpg, sign).
holds(s_6028_jpg, tiledroof).
holds(s_6028_jpg, wallsign).
holds(s_6028_jpg, industrial).

sample(s_7801_jpg).
holds(s_7801_jpg, building).
holds(s_7801_jpg, feature).
holds(s_7801_jpg, watertreatment).
holds(s_7801_jpg, door).
holds(s_7801_jpg, billboard).
holds(s_7801_jpg, porch).
holds(s_7801_jpg, sign).
holds(s_7801_jpg, tiledroof).
holds(s_7801_jpg, tiledrooftop).
holds(s_7801_jpg, wallsign).
holds(s_7801_jpg, pipe).
holds(s_7801_jpg, industrial).

sample(s_3540_jpg).
holds(s_3540_jpg, building).
holds(s_3540_jpg, feature).
holds(s_3540_jpg, hotel).
holds(s_3540_jpg, billboard).
holds(s_3540_jpg, porch).
holds(s_3540_jpg, sign).
holds(s_3540_jpg, tiledroof).
holds(s_3540_jpg, tiledrooftop).
holds(s_3540_jpg, vendingmachine).
holds(s_3540_jpg, wallsign).
holds(s_3540_jpg, chimney).
holds(s_3540_jpg, pipe).
holds(s_3540_jpg, machine).
holds(s_3540_jpg, car).
holds(s_3540_jpg, commercial).

sample(s_6880_jpg).
holds(s_6880_jpg, building).
holds(s_6880_jpg, feature).
holds(s_6880_jpg, watertreatment).
holds(s_6880_jpg, door).
holds(s_6880_jpg, billboard).
holds(s_6880_jpg, porch).
holds(s_6880_jpg, sign).
holds(s_6880_jpg, tiledroof).
holds(s_6880_jpg, tiledrooftop).
holds(s_6880_jpg, wallsign).
holds(s_6880_jpg, industrial).

sample(s_6032_jpg).
holds(s_6032_jpg, building).
holds(s_6032_jpg, feature).
holds(s_6032_jpg, porch).
holds(s_6032_jpg, sign).
holds(s_6032_jpg, table).
holds(s_6032_jpg, tiledrooftop).
holds(s_6032_jpg, vendingmachine).
holds(s_6032_jpg, statue).

sample(s_12668_jpg).
holds(s_12668_jpg, building).
holds(s_12668_jpg, feature).
holds(s_12668_jpg, porch).
holds(s_12668_jpg, sign).
holds(s_12668_jpg, table).
holds(s_12668_jpg, tiledrooftop).
holds(s_12668_jpg, vendingmachine).
holds(s_12668_jpg, statue).

sample(s_2862_jpg).
holds(s_2862_jpg, building).
holds(s_2862_jpg, feature).
holds(s_2862_jpg, hotel).
holds(s_2862_jpg, door).
holds(s_2862_jpg, billboard).
holds(s_2862_jpg, sign).
holds(s_2862_jpg, tiledroof).
holds(s_2862_jpg, tiledrooftop).
holds(s_2862_jpg, chimney).
holds(s_2862_jpg, pipe).
holds(s_2862_jpg, car).
holds(s_2862_jpg, commercial).

sample(s_6709_jpg).
holds(s_6709_jpg, building).
holds(s_6709_jpg, feature).
holds(s_6709_jpg, watertreatment).
holds(s_6709_jpg, door).
holds(s_6709_jpg, billboard).
holds(s_6709_jpg, porch).
holds(s_6709_jpg, sign).
holds(s_6709_jpg, tiledroof).
holds(s_6709_jpg, wallsign).
holds(s_6709_jpg, chimney).
holds(s_6709_jpg, pipe).
holds(s_6709_jpg, industrial).

sample(s_11914_jpg).
holds(s_11914_jpg, building).
holds(s_11914_jpg, feature).
holds(s_11914_jpg, watertreatment).
holds(s_11914_jpg, door).
holds(s_11914_jpg, billboard).
holds(s_11914_jpg, porch).
holds(s_11914_jpg, sign).
holds(s_11914_jpg, tiledroof).
holds(s_11914_jpg, tiledrooftop).
holds(s_11914_jpg, wallsign).
holds(s_11914_jpg, pipe).
holds(s_11914_jpg, industrial).

sample(s_5086_jpg).
holds(s_5086_jpg, building).
holds(s_5086_jpg, feature).
holds(s_5086_jpg, watertreatment).
holds(s_5086_jpg, door).
holds(s_5086_jpg, billboard).
holds(s_5086_jpg, porch).
holds(s_5086_jpg, sign).
holds(s_5086_jpg, tiledroof).
holds(s_5086_jpg, wallsign).
holds(s_5086_jpg, pipe).
holds(s_5086_jpg, industrial).

sample(s_21_jpg).
holds(s_21_jpg, building).
holds(s_21_jpg, feature).
holds(s_21_jpg, hotel).
holds(s_21_jpg, door).
holds(s_21_jpg, billboard).
holds(s_21_jpg, porch).
holds(s_21_jpg, sign).
holds(s_21_jpg, tiledroof).
holds(s_21_jpg, tiledrooftop).
holds(s_21_jpg, wallsign).
holds(s_21_jpg, chimney).
holds(s_21_jpg, pipe).
holds(s_21_jpg, car).
holds(s_21_jpg, commercial).

sample(s_9674_jpg).
holds(s_9674_jpg, building).
holds(s_9674_jpg, feature).
holds(s_9674_jpg, window).
holds(s_9674_jpg, porch).
holds(s_9674_jpg, table).
holds(s_9674_jpg, tiledrooftop).
holds(s_9674_jpg, vendingmachine).
holds(s_9674_jpg, statue).
holds(s_9674_jpg, pipe).

sample(s_14012_jpg).
holds(s_14012_jpg, building).
holds(s_14012_jpg, feature).
holds(s_14012_jpg, sign).
holds(s_14012_jpg, table).
holds(s_14012_jpg, tiledrooftop).
holds(s_14012_jpg, vendingmachine).
holds(s_14012_jpg, statue).
holds(s_14012_jpg, pipe).

sample(s_12436_jpg).
holds(s_12436_jpg, building).
holds(s_12436_jpg, feature).
holds(s_12436_jpg, watertreatment).
holds(s_12436_jpg, door).
holds(s_12436_jpg, billboard).
holds(s_12436_jpg, porch).
holds(s_12436_jpg, sign).
holds(s_12436_jpg, tiledroof).
holds(s_12436_jpg, tiledrooftop).
holds(s_12436_jpg, wallsign).
holds(s_12436_jpg, pipe).
holds(s_12436_jpg, industrial).

sample(s_5272_jpg).
holds(s_5272_jpg, building).
holds(s_5272_jpg, feature).
holds(s_5272_jpg, watertreatment).
holds(s_5272_jpg, door).
holds(s_5272_jpg, billboard).
holds(s_5272_jpg, porch).
holds(s_5272_jpg, sign).
holds(s_5272_jpg, tiledroof).
holds(s_5272_jpg, tiledrooftop).
holds(s_5272_jpg, wallsign).
holds(s_5272_jpg, chimney).
holds(s_5272_jpg, pipe).
holds(s_5272_jpg, industrial).

sample(s_9297_jpg).
holds(s_9297_jpg, building).
holds(s_9297_jpg, feature).
holds(s_9297_jpg, hotel).
holds(s_9297_jpg, door).
holds(s_9297_jpg, billboard).
holds(s_9297_jpg, porch).
holds(s_9297_jpg, sign).
holds(s_9297_jpg, tiledroof).
holds(s_9297_jpg, tiledrooftop).
holds(s_9297_jpg, vendingmachine).
holds(s_9297_jpg, wallsign).
holds(s_9297_jpg, chimney).
holds(s_9297_jpg, pipe).
holds(s_9297_jpg, machine).
holds(s_9297_jpg, car).
holds(s_9297_jpg, commercial).

sample(s_6792_jpg).
holds(s_6792_jpg, building).
holds(s_6792_jpg, feature).
holds(s_6792_jpg, hotel).
holds(s_6792_jpg, door).
holds(s_6792_jpg, billboard).
holds(s_6792_jpg, porch).
holds(s_6792_jpg, sign).
holds(s_6792_jpg, tiledroof).
holds(s_6792_jpg, tiledrooftop).
holds(s_6792_jpg, vendingmachine).
holds(s_6792_jpg, wallsign).
holds(s_6792_jpg, chimney).
holds(s_6792_jpg, pipe).
holds(s_6792_jpg, car).
holds(s_6792_jpg, commercial).

sample(s_609_jpg).
holds(s_609_jpg, building).
holds(s_609_jpg, feature).
holds(s_609_jpg, hotel).
holds(s_609_jpg, door).
holds(s_609_jpg, billboard).
holds(s_609_jpg, porch).
holds(s_609_jpg, sign).
holds(s_609_jpg, table).
holds(s_609_jpg, tiledroof).
holds(s_609_jpg, tiledrooftop).
holds(s_609_jpg, vendingmachine).
holds(s_609_jpg, wallsign).
holds(s_609_jpg, chimney).
holds(s_609_jpg, pipe).
holds(s_609_jpg, machine).
holds(s_609_jpg, car).
holds(s_609_jpg, commercial).

sample(s_12059_jpg).
holds(s_12059_jpg, building).
holds(s_12059_jpg, feature).
holds(s_12059_jpg, window).
holds(s_12059_jpg, porch).
holds(s_12059_jpg, sign).
holds(s_12059_jpg, table).
holds(s_12059_jpg, tiledrooftop).
holds(s_12059_jpg, vendingmachine).
holds(s_12059_jpg, statue).
holds(s_12059_jpg, pipe).

sample(s_5186_jpg).
holds(s_5186_jpg, building).
holds(s_5186_jpg, feature).
holds(s_5186_jpg, sign).
holds(s_5186_jpg, table).
holds(s_5186_jpg, tiledrooftop).
holds(s_5186_jpg, vendingmachine).
holds(s_5186_jpg, statue).
holds(s_5186_jpg, pipe).

sample(s_801_jpg).
holds(s_801_jpg, building).
holds(s_801_jpg, feature).
holds(s_801_jpg, hotel).
holds(s_801_jpg, door).
holds(s_801_jpg, billboard).
holds(s_801_jpg, sign).
holds(s_801_jpg, tiledroof).
holds(s_801_jpg, tiledrooftop).
holds(s_801_jpg, wallsign).
holds(s_801_jpg, chimney).
holds(s_801_jpg, pipe).
holds(s_801_jpg, car).
holds(s_801_jpg, commercial).

sample(s_12637_jpg).
holds(s_12637_jpg, building).
holds(s_12637_jpg, feature).
holds(s_12637_jpg, watertreatment).
holds(s_12637_jpg, door).
holds(s_12637_jpg, billboard).
holds(s_12637_jpg, porch).
holds(s_12637_jpg, sign).
holds(s_12637_jpg, tiledroof).
holds(s_12637_jpg, tiledrooftop).
holds(s_12637_jpg, wallsign).
holds(s_12637_jpg, pipe).
holds(s_12637_jpg, industrial).

sample(s_11302_jpg).
holds(s_11302_jpg, building).
holds(s_11302_jpg, feature).
holds(s_11302_jpg, watertreatment).
holds(s_11302_jpg, door).
holds(s_11302_jpg, billboard).
holds(s_11302_jpg, porch).
holds(s_11302_jpg, sign).
holds(s_11302_jpg, tiledroof).
holds(s_11302_jpg, wallsign).
holds(s_11302_jpg, industrial).

sample(s_5553_jpg).
holds(s_5553_jpg, building).
holds(s_5553_jpg, feature).
holds(s_5553_jpg, hotel).
holds(s_5553_jpg, door).
holds(s_5553_jpg, billboard).
holds(s_5553_jpg, porch).
holds(s_5553_jpg, sign).
holds(s_5553_jpg, table).
holds(s_5553_jpg, tiledroof).
holds(s_5553_jpg, tiledrooftop).
holds(s_5553_jpg, vendingmachine).
holds(s_5553_jpg, wallsign).
holds(s_5553_jpg, chimney).
holds(s_5553_jpg, pipe).
holds(s_5553_jpg, car).
holds(s_5553_jpg, commercial).

sample(s_9650_jpg).
holds(s_9650_jpg, building).
holds(s_9650_jpg, feature).
holds(s_9650_jpg, sign).
holds(s_9650_jpg, table).
holds(s_9650_jpg, tiledrooftop).
holds(s_9650_jpg, vendingmachine).
holds(s_9650_jpg, statue).
holds(s_9650_jpg, pipe).

sample(s_10942_jpg).
holds(s_10942_jpg, building).
holds(s_10942_jpg, feature).
holds(s_10942_jpg, watertreatment).
holds(s_10942_jpg, door).
holds(s_10942_jpg, billboard).
holds(s_10942_jpg, porch).
holds(s_10942_jpg, sign).
holds(s_10942_jpg, tiledroof).
holds(s_10942_jpg, wallsign).
holds(s_10942_jpg, industrial).

sample(s_15174_jpg).
holds(s_15174_jpg, building).
holds(s_15174_jpg, feature).
holds(s_15174_jpg, hotel).
holds(s_15174_jpg, door).
holds(s_15174_jpg, billboard).
holds(s_15174_jpg, porch).
holds(s_15174_jpg, sign).
holds(s_15174_jpg, tiledroof).
holds(s_15174_jpg, tiledrooftop).
holds(s_15174_jpg, wallsign).
holds(s_15174_jpg, chimney).
holds(s_15174_jpg, pipe).
holds(s_15174_jpg, car).
holds(s_15174_jpg, commercial).

sample(s_1403_jpg).
holds(s_1403_jpg, building).
holds(s_1403_jpg, feature).
holds(s_1403_jpg, sign).
holds(s_1403_jpg, table).
holds(s_1403_jpg, tiledrooftop).
holds(s_1403_jpg, vendingmachine).
holds(s_1403_jpg, statue).
holds(s_1403_jpg, pipe).

sample(s_12095_jpg).
holds(s_12095_jpg, building).
holds(s_12095_jpg, feature).
holds(s_12095_jpg, sign).
holds(s_12095_jpg, table).
holds(s_12095_jpg, tiledrooftop).
holds(s_12095_jpg, vendingmachine).
holds(s_12095_jpg, statue).
holds(s_12095_jpg, pipe).
holds(s_12095_jpg, machine).

sample(s_9748_jpg).
holds(s_9748_jpg, building).
holds(s_9748_jpg, feature).
holds(s_9748_jpg, watertreatment).
holds(s_9748_jpg, door).
holds(s_9748_jpg, billboard).
holds(s_9748_jpg, porch).
holds(s_9748_jpg, sign).
holds(s_9748_jpg, tiledroof).
holds(s_9748_jpg, tiledrooftop).
holds(s_9748_jpg, wallsign).
holds(s_9748_jpg, industrial).

sample(s_10298_jpg).
holds(s_10298_jpg, building).
holds(s_10298_jpg, feature).
holds(s_10298_jpg, sign).
holds(s_10298_jpg, table).
holds(s_10298_jpg, tiledrooftop).
holds(s_10298_jpg, vendingmachine).
holds(s_10298_jpg, statue).
holds(s_10298_jpg, pipe).
holds(s_10298_jpg, machine).

sample(s_1837_jpg).
holds(s_1837_jpg, building).
holds(s_1837_jpg, feature).
holds(s_1837_jpg, watertreatment).
holds(s_1837_jpg, door).
holds(s_1837_jpg, billboard).
holds(s_1837_jpg, porch).
holds(s_1837_jpg, sign).
holds(s_1837_jpg, tiledroof).
holds(s_1837_jpg, wallsign).
holds(s_1837_jpg, industrial).

sample(s_7618_jpg).
holds(s_7618_jpg, building).
holds(s_7618_jpg, feature).
holds(s_7618_jpg, watertreatment).
holds(s_7618_jpg, door).
holds(s_7618_jpg, billboard).
holds(s_7618_jpg, porch).
holds(s_7618_jpg, sign).
holds(s_7618_jpg, tiledroof).
holds(s_7618_jpg, wallsign).
holds(s_7618_jpg, pipe).
holds(s_7618_jpg, industrial).

sample(s_9268_jpg).
holds(s_9268_jpg, building).
holds(s_9268_jpg, feature).
holds(s_9268_jpg, watertreatment).
holds(s_9268_jpg, door).
holds(s_9268_jpg, billboard).
holds(s_9268_jpg, porch).
holds(s_9268_jpg, sign).
holds(s_9268_jpg, tiledroof).
holds(s_9268_jpg, tiledrooftop).
holds(s_9268_jpg, wallsign).
holds(s_9268_jpg, pipe).
holds(s_9268_jpg, industrial).

sample(s_6899_jpg).
holds(s_6899_jpg, building).
holds(s_6899_jpg, feature).
holds(s_6899_jpg, porch).
holds(s_6899_jpg, sign).
holds(s_6899_jpg, table).
holds(s_6899_jpg, tiledrooftop).
holds(s_6899_jpg, vendingmachine).
holds(s_6899_jpg, statue).
holds(s_6899_jpg, pipe).

sample(s_13704_jpg).
holds(s_13704_jpg, building).
holds(s_13704_jpg, feature).
holds(s_13704_jpg, hotel).
holds(s_13704_jpg, door).
holds(s_13704_jpg, billboard).
holds(s_13704_jpg, sign).
holds(s_13704_jpg, tiledroof).
holds(s_13704_jpg, tiledrooftop).
holds(s_13704_jpg, wallsign).
holds(s_13704_jpg, chimney).
holds(s_13704_jpg, pipe).
holds(s_13704_jpg, car).
holds(s_13704_jpg, commercial).

sample(s_7613_jpg).
holds(s_7613_jpg, building).
holds(s_7613_jpg, feature).
holds(s_7613_jpg, sign).
holds(s_7613_jpg, table).
holds(s_7613_jpg, tiledrooftop).
holds(s_7613_jpg, vendingmachine).
holds(s_7613_jpg, statue).
holds(s_7613_jpg, pipe).
holds(s_7613_jpg, machine).

sample(s_2229_jpg).
holds(s_2229_jpg, building).
holds(s_2229_jpg, feature).
holds(s_2229_jpg, hotel).
holds(s_2229_jpg, door).
holds(s_2229_jpg, billboard).
holds(s_2229_jpg, porch).
holds(s_2229_jpg, sign).
holds(s_2229_jpg, tiledroof).
holds(s_2229_jpg, tiledrooftop).
holds(s_2229_jpg, vendingmachine).
holds(s_2229_jpg, wallsign).
holds(s_2229_jpg, chimney).
holds(s_2229_jpg, pipe).
holds(s_2229_jpg, car).
holds(s_2229_jpg, commercial).

sample(s_9043_jpg).
holds(s_9043_jpg, building).
holds(s_9043_jpg, feature).
holds(s_9043_jpg, watertreatment).
holds(s_9043_jpg, door).
holds(s_9043_jpg, billboard).
holds(s_9043_jpg, porch).
holds(s_9043_jpg, sign).
holds(s_9043_jpg, tiledroof).
holds(s_9043_jpg, tiledrooftop).
holds(s_9043_jpg, wallsign).
holds(s_9043_jpg, pipe).
holds(s_9043_jpg, industrial).

sample(s_1266_jpg).
holds(s_1266_jpg, building).
holds(s_1266_jpg, feature).
holds(s_1266_jpg, hotel).
holds(s_1266_jpg, billboard).
holds(s_1266_jpg, sign).
holds(s_1266_jpg, table).
holds(s_1266_jpg, tiledroof).
holds(s_1266_jpg, tiledrooftop).
holds(s_1266_jpg, vendingmachine).
holds(s_1266_jpg, statue).
holds(s_1266_jpg, chimney).
holds(s_1266_jpg, pipe).
holds(s_1266_jpg, machine).
holds(s_1266_jpg, car).
holds(s_1266_jpg, commercial).

sample(s_2777_jpg).
holds(s_2777_jpg, building).
holds(s_2777_jpg, feature).
holds(s_2777_jpg, sign).
holds(s_2777_jpg, table).
holds(s_2777_jpg, tiledrooftop).
holds(s_2777_jpg, vendingmachine).
holds(s_2777_jpg, statue).
holds(s_2777_jpg, pipe).

sample(s_6304_jpg).
holds(s_6304_jpg, building).
holds(s_6304_jpg, feature).
holds(s_6304_jpg, watertreatment).
holds(s_6304_jpg, door).
holds(s_6304_jpg, billboard).
holds(s_6304_jpg, porch).
holds(s_6304_jpg, sign).
holds(s_6304_jpg, tiledroof).
holds(s_6304_jpg, tiledrooftop).
holds(s_6304_jpg, wallsign).
holds(s_6304_jpg, industrial).

sample(s_120_jpg).
holds(s_120_jpg, building).
holds(s_120_jpg, feature).
holds(s_120_jpg, hotel).
holds(s_120_jpg, billboard).
holds(s_120_jpg, sign).
holds(s_120_jpg, table).
holds(s_120_jpg, tiledroof).
holds(s_120_jpg, tiledrooftop).
holds(s_120_jpg, vendingmachine).
holds(s_120_jpg, statue).
holds(s_120_jpg, chimney).
holds(s_120_jpg, pipe).
holds(s_120_jpg, machine).
holds(s_120_jpg, car).
holds(s_120_jpg, commercial).

sample(s_3139_jpg).
holds(s_3139_jpg, building).
holds(s_3139_jpg, feature).
holds(s_3139_jpg, watertreatment).
holds(s_3139_jpg, door).
holds(s_3139_jpg, billboard).
holds(s_3139_jpg, porch).
holds(s_3139_jpg, sign).
holds(s_3139_jpg, tiledroof).
holds(s_3139_jpg, tiledrooftop).
holds(s_3139_jpg, wallsign).
holds(s_3139_jpg, industrial).

sample(s_6800_jpg).
holds(s_6800_jpg, building).
holds(s_6800_jpg, feature).
holds(s_6800_jpg, sign).
holds(s_6800_jpg, table).
holds(s_6800_jpg, tiledrooftop).
holds(s_6800_jpg, vendingmachine).
holds(s_6800_jpg, statue).
holds(s_6800_jpg, pipe).
holds(s_6800_jpg, machine).

sample(s_10782_jpg).
holds(s_10782_jpg, building).
holds(s_10782_jpg, feature).
holds(s_10782_jpg, hotel).
holds(s_10782_jpg, door).
holds(s_10782_jpg, billboard).
holds(s_10782_jpg, porch).
holds(s_10782_jpg, sign).
holds(s_10782_jpg, tiledroof).
holds(s_10782_jpg, tiledrooftop).
holds(s_10782_jpg, wallsign).
holds(s_10782_jpg, chimney).
holds(s_10782_jpg, pipe).
holds(s_10782_jpg, car).
holds(s_10782_jpg, commercial).

sample(s_4168_jpg).
holds(s_4168_jpg, building).
holds(s_4168_jpg, feature).
holds(s_4168_jpg, watertreatment).
holds(s_4168_jpg, door).
holds(s_4168_jpg, billboard).
holds(s_4168_jpg, porch).
holds(s_4168_jpg, sign).
holds(s_4168_jpg, tiledroof).
holds(s_4168_jpg, wallsign).
holds(s_4168_jpg, industrial).

sample(s_12114_jpg).
holds(s_12114_jpg, building).
holds(s_12114_jpg, feature).
holds(s_12114_jpg, hotel).
holds(s_12114_jpg, door).
holds(s_12114_jpg, billboard).
holds(s_12114_jpg, porch).
holds(s_12114_jpg, sign).
holds(s_12114_jpg, tiledroof).
holds(s_12114_jpg, tiledrooftop).
holds(s_12114_jpg, wallsign).
holds(s_12114_jpg, chimney).
holds(s_12114_jpg, pipe).
holds(s_12114_jpg, car).
holds(s_12114_jpg, commercial).

sample(s_3599_jpg).
holds(s_3599_jpg, building).
holds(s_3599_jpg, feature).
holds(s_3599_jpg, sign).
holds(s_3599_jpg, table).
holds(s_3599_jpg, tiledrooftop).
holds(s_3599_jpg, vendingmachine).
holds(s_3599_jpg, statue).
holds(s_3599_jpg, pipe).
holds(s_3599_jpg, machine).

sample(s_4390_jpg).
holds(s_4390_jpg, building).
holds(s_4390_jpg, feature).
holds(s_4390_jpg, watertreatment).
holds(s_4390_jpg, door).
holds(s_4390_jpg, billboard).
holds(s_4390_jpg, porch).
holds(s_4390_jpg, sign).
holds(s_4390_jpg, tiledroof).
holds(s_4390_jpg, wallsign).
holds(s_4390_jpg, industrial).

sample(s_14340_jpg).
holds(s_14340_jpg, building).
holds(s_14340_jpg, feature).
holds(s_14340_jpg, hotel).
holds(s_14340_jpg, billboard).
holds(s_14340_jpg, porch).
holds(s_14340_jpg, sign).
holds(s_14340_jpg, table).
holds(s_14340_jpg, tiledroof).
holds(s_14340_jpg, tiledrooftop).
holds(s_14340_jpg, vendingmachine).
holds(s_14340_jpg, statue).
holds(s_14340_jpg, chimney).
holds(s_14340_jpg, pipe).
holds(s_14340_jpg, car).
holds(s_14340_jpg, commercial).

sample(s_10588_jpg).
holds(s_10588_jpg, building).
holds(s_10588_jpg, feature).
holds(s_10588_jpg, watertreatment).
holds(s_10588_jpg, door).
holds(s_10588_jpg, billboard).
holds(s_10588_jpg, porch).
holds(s_10588_jpg, sign).
holds(s_10588_jpg, tiledroof).
holds(s_10588_jpg, tiledrooftop).
holds(s_10588_jpg, wallsign).
holds(s_10588_jpg, pipe).
holds(s_10588_jpg, industrial).

sample(s_10583_jpg).
holds(s_10583_jpg, building).
holds(s_10583_jpg, feature).
holds(s_10583_jpg, sign).
holds(s_10583_jpg, table).
holds(s_10583_jpg, tiledrooftop).
holds(s_10583_jpg, vendingmachine).
holds(s_10583_jpg, statue).
holds(s_10583_jpg, pipe).

sample(s_2265_jpg).
holds(s_2265_jpg, building).
holds(s_2265_jpg, feature).
holds(s_2265_jpg, hotel).
holds(s_2265_jpg, door).
holds(s_2265_jpg, billboard).
holds(s_2265_jpg, porch).
holds(s_2265_jpg, sign).
holds(s_2265_jpg, tiledroof).
holds(s_2265_jpg, tiledrooftop).
holds(s_2265_jpg, wallsign).
holds(s_2265_jpg, chimney).
holds(s_2265_jpg, pipe).
holds(s_2265_jpg, car).
holds(s_2265_jpg, commercial).

sample(s_6827_jpg).
holds(s_6827_jpg, building).
holds(s_6827_jpg, feature).
holds(s_6827_jpg, sign).
holds(s_6827_jpg, table).
holds(s_6827_jpg, tiledrooftop).
holds(s_6827_jpg, vendingmachine).
holds(s_6827_jpg, statue).
holds(s_6827_jpg, pipe).
holds(s_6827_jpg, machine).

sample(s_2401_jpg).
holds(s_2401_jpg, building).
holds(s_2401_jpg, feature).
holds(s_2401_jpg, watertreatment).
holds(s_2401_jpg, door).
holds(s_2401_jpg, billboard).
holds(s_2401_jpg, porch).
holds(s_2401_jpg, sign).
holds(s_2401_jpg, tiledroof).
holds(s_2401_jpg, wallsign).
holds(s_2401_jpg, chimney).
holds(s_2401_jpg, pipe).
holds(s_2401_jpg, industrial).

sample(s_13236_jpg).
holds(s_13236_jpg, building).
holds(s_13236_jpg, feature).
holds(s_13236_jpg, hotel).
holds(s_13236_jpg, porch).
holds(s_13236_jpg, sign).
holds(s_13236_jpg, table).
holds(s_13236_jpg, tiledroof).
holds(s_13236_jpg, tiledrooftop).
holds(s_13236_jpg, vendingmachine).
holds(s_13236_jpg, statue).
holds(s_13236_jpg, pipe).
holds(s_13236_jpg, commercial).

sample(s_183_jpg).
holds(s_183_jpg, building).
holds(s_183_jpg, feature).
holds(s_183_jpg, hotel).
holds(s_183_jpg, door).
holds(s_183_jpg, billboard).
holds(s_183_jpg, porch).
holds(s_183_jpg, sign).
holds(s_183_jpg, tiledroof).
holds(s_183_jpg, tiledrooftop).
holds(s_183_jpg, vendingmachine).
holds(s_183_jpg, wallsign).
holds(s_183_jpg, chimney).
holds(s_183_jpg, pipe).
holds(s_183_jpg, car).
holds(s_183_jpg, commercial).

sample(s_6194_jpg).
holds(s_6194_jpg, building).
holds(s_6194_jpg, feature).
holds(s_6194_jpg, sign).
holds(s_6194_jpg, table).
holds(s_6194_jpg, tiledrooftop).
holds(s_6194_jpg, vendingmachine).
holds(s_6194_jpg, statue).
holds(s_6194_jpg, pipe).

sample(s_4811_jpg).
holds(s_4811_jpg, building).
holds(s_4811_jpg, feature).
holds(s_4811_jpg, billboard).
holds(s_4811_jpg, porch).
holds(s_4811_jpg, sign).
holds(s_4811_jpg, table).
holds(s_4811_jpg, tiledrooftop).
holds(s_4811_jpg, vendingmachine).
holds(s_4811_jpg, statue).
holds(s_4811_jpg, pipe).
holds(s_4811_jpg, machine).

sample(s_15570_jpg).
holds(s_15570_jpg, building).
holds(s_15570_jpg, feature).
holds(s_15570_jpg, hotel).
holds(s_15570_jpg, billboard).
holds(s_15570_jpg, sign).
holds(s_15570_jpg, tiledroof).
holds(s_15570_jpg, tiledrooftop).
holds(s_15570_jpg, vendingmachine).
holds(s_15570_jpg, wallsign).
holds(s_15570_jpg, chimney).
holds(s_15570_jpg, pipe).
holds(s_15570_jpg, machine).
holds(s_15570_jpg, car).
holds(s_15570_jpg, commercial).

sample(s_15468_jpg).
holds(s_15468_jpg, building).
holds(s_15468_jpg, feature).
holds(s_15468_jpg, hotel).
holds(s_15468_jpg, billboard).
holds(s_15468_jpg, porch).
holds(s_15468_jpg, sign).
holds(s_15468_jpg, table).
holds(s_15468_jpg, tiledroof).
holds(s_15468_jpg, tiledrooftop).
holds(s_15468_jpg, vendingmachine).
holds(s_15468_jpg, wallsign).
holds(s_15468_jpg, chimney).
holds(s_15468_jpg, pipe).
holds(s_15468_jpg, machine).
holds(s_15468_jpg, car).
holds(s_15468_jpg, commercial).

sample(s_7028_jpg).
holds(s_7028_jpg, building).
holds(s_7028_jpg, feature).
holds(s_7028_jpg, window).
holds(s_7028_jpg, porch).
holds(s_7028_jpg, sign).
holds(s_7028_jpg, table).
holds(s_7028_jpg, tiledrooftop).
holds(s_7028_jpg, vendingmachine).
holds(s_7028_jpg, statue).
holds(s_7028_jpg, pipe).

sample(s_15025_jpg).
holds(s_15025_jpg, building).
holds(s_15025_jpg, feature).
holds(s_15025_jpg, watertreatment).
holds(s_15025_jpg, door).
holds(s_15025_jpg, billboard).
holds(s_15025_jpg, sign).
holds(s_15025_jpg, tiledroof).
holds(s_15025_jpg, tiledrooftop).
holds(s_15025_jpg, wallsign).
holds(s_15025_jpg, pipe).
holds(s_15025_jpg, industrial).

sample(s_4067_jpg).
holds(s_4067_jpg, building).
holds(s_4067_jpg, feature).
holds(s_4067_jpg, sign).
holds(s_4067_jpg, table).
holds(s_4067_jpg, tiledrooftop).
holds(s_4067_jpg, vendingmachine).
holds(s_4067_jpg, statue).
holds(s_4067_jpg, pipe).
holds(s_4067_jpg, machine).

sample(s_8466_jpg).
holds(s_8466_jpg, building).
holds(s_8466_jpg, feature).
holds(s_8466_jpg, hotel).
holds(s_8466_jpg, door).
holds(s_8466_jpg, billboard).
holds(s_8466_jpg, sign).
holds(s_8466_jpg, tiledroof).
holds(s_8466_jpg, tiledrooftop).
holds(s_8466_jpg, wallsign).
holds(s_8466_jpg, chimney).
holds(s_8466_jpg, pipe).
holds(s_8466_jpg, machine).
holds(s_8466_jpg, car).
holds(s_8466_jpg, commercial).

sample(s_11976_jpg).
holds(s_11976_jpg, building).
holds(s_11976_jpg, feature).
holds(s_11976_jpg, hotel).
holds(s_11976_jpg, porch).
holds(s_11976_jpg, sign).
holds(s_11976_jpg, table).
holds(s_11976_jpg, tiledroof).
holds(s_11976_jpg, tiledrooftop).
holds(s_11976_jpg, vendingmachine).
holds(s_11976_jpg, statue).
holds(s_11976_jpg, chimney).
holds(s_11976_jpg, pipe).
holds(s_11976_jpg, car).
holds(s_11976_jpg, commercial).

sample(s_1307_jpg).
holds(s_1307_jpg, building).
holds(s_1307_jpg, feature).
holds(s_1307_jpg, porch).
holds(s_1307_jpg, sign).
holds(s_1307_jpg, table).
holds(s_1307_jpg, tiledrooftop).
holds(s_1307_jpg, vendingmachine).
holds(s_1307_jpg, statue).
holds(s_1307_jpg, machine).

sample(s_1254_jpg).
holds(s_1254_jpg, building).
holds(s_1254_jpg, feature).
holds(s_1254_jpg, hotel).
holds(s_1254_jpg, billboard).
holds(s_1254_jpg, porch).
holds(s_1254_jpg, sign).
holds(s_1254_jpg, table).
holds(s_1254_jpg, tiledroof).
holds(s_1254_jpg, tiledrooftop).
holds(s_1254_jpg, vendingmachine).
holds(s_1254_jpg, wallsign).
holds(s_1254_jpg, chimney).
holds(s_1254_jpg, pipe).
holds(s_1254_jpg, machine).
holds(s_1254_jpg, car).
holds(s_1254_jpg, commercial).

sample(s_13224_jpg).
holds(s_13224_jpg, building).
holds(s_13224_jpg, feature).
holds(s_13224_jpg, hotel).
holds(s_13224_jpg, door).
holds(s_13224_jpg, billboard).
holds(s_13224_jpg, porch).
holds(s_13224_jpg, sign).
holds(s_13224_jpg, tiledroof).
holds(s_13224_jpg, tiledrooftop).
holds(s_13224_jpg, wallsign).
holds(s_13224_jpg, chimney).
holds(s_13224_jpg, pipe).
holds(s_13224_jpg, car).
holds(s_13224_jpg, commercial).

sample(s_14574_jpg).
holds(s_14574_jpg, building).
holds(s_14574_jpg, feature).
holds(s_14574_jpg, hotel).
holds(s_14574_jpg, door).
holds(s_14574_jpg, billboard).
holds(s_14574_jpg, sign).
holds(s_14574_jpg, tiledroof).
holds(s_14574_jpg, tiledrooftop).
holds(s_14574_jpg, wallsign).
holds(s_14574_jpg, chimney).
holds(s_14574_jpg, pipe).
holds(s_14574_jpg, car).
holds(s_14574_jpg, commercial).

sample(s_1676_jpg).
holds(s_1676_jpg, building).
holds(s_1676_jpg, feature).
holds(s_1676_jpg, sign).
holds(s_1676_jpg, table).
holds(s_1676_jpg, tiledrooftop).
holds(s_1676_jpg, vendingmachine).
holds(s_1676_jpg, statue).
holds(s_1676_jpg, pipe).

sample(s_12489_jpg).
holds(s_12489_jpg, building).
holds(s_12489_jpg, feature).
holds(s_12489_jpg, hotel).
holds(s_12489_jpg, billboard).
holds(s_12489_jpg, sign).
holds(s_12489_jpg, table).
holds(s_12489_jpg, tiledroof).
holds(s_12489_jpg, tiledrooftop).
holds(s_12489_jpg, vendingmachine).
holds(s_12489_jpg, wallsign).
holds(s_12489_jpg, chimney).
holds(s_12489_jpg, pipe).
holds(s_12489_jpg, machine).
holds(s_12489_jpg, car).
holds(s_12489_jpg, commercial).

sample(s_12156_jpg).
holds(s_12156_jpg, building).
holds(s_12156_jpg, feature).
holds(s_12156_jpg, hotel).
holds(s_12156_jpg, door).
holds(s_12156_jpg, billboard).
holds(s_12156_jpg, porch).
holds(s_12156_jpg, sign).
holds(s_12156_jpg, tiledroof).
holds(s_12156_jpg, tiledrooftop).
holds(s_12156_jpg, vendingmachine).
holds(s_12156_jpg, wallsign).
holds(s_12156_jpg, chimney).
holds(s_12156_jpg, pipe).
holds(s_12156_jpg, machine).
holds(s_12156_jpg, car).
holds(s_12156_jpg, commercial).

sample(s_13126_jpg).
holds(s_13126_jpg, building).
holds(s_13126_jpg, feature).
holds(s_13126_jpg, watertreatment).
holds(s_13126_jpg, door).
holds(s_13126_jpg, billboard).
holds(s_13126_jpg, porch).
holds(s_13126_jpg, sign).
holds(s_13126_jpg, tiledroof).
holds(s_13126_jpg, wallsign).
holds(s_13126_jpg, industrial).

sample(s_15179_jpg).
holds(s_15179_jpg, building).
holds(s_15179_jpg, feature).
holds(s_15179_jpg, sign).
holds(s_15179_jpg, table).
holds(s_15179_jpg, tiledrooftop).
holds(s_15179_jpg, vendingmachine).
holds(s_15179_jpg, statue).
holds(s_15179_jpg, pipe).
holds(s_15179_jpg, machine).

sample(s_6575_jpg).
holds(s_6575_jpg, building).
holds(s_6575_jpg, feature).
holds(s_6575_jpg, porch).
holds(s_6575_jpg, sign).
holds(s_6575_jpg, table).
holds(s_6575_jpg, tiledrooftop).
holds(s_6575_jpg, vendingmachine).
holds(s_6575_jpg, statue).
holds(s_6575_jpg, pipe).
holds(s_6575_jpg, machine).

sample(s_2641_jpg).
holds(s_2641_jpg, building).
holds(s_2641_jpg, feature).
holds(s_2641_jpg, watertreatment).
holds(s_2641_jpg, door).
holds(s_2641_jpg, billboard).
holds(s_2641_jpg, sign).
holds(s_2641_jpg, tiledroof).
holds(s_2641_jpg, tiledrooftop).
holds(s_2641_jpg, wallsign).
holds(s_2641_jpg, pipe).
holds(s_2641_jpg, industrial).

sample(s_13500_jpg).
holds(s_13500_jpg, building).
holds(s_13500_jpg, feature).
holds(s_13500_jpg, hotel).
holds(s_13500_jpg, door).
holds(s_13500_jpg, billboard).
holds(s_13500_jpg, porch).
holds(s_13500_jpg, sign).
holds(s_13500_jpg, tiledroof).
holds(s_13500_jpg, tiledrooftop).
holds(s_13500_jpg, vendingmachine).
holds(s_13500_jpg, wallsign).
holds(s_13500_jpg, chimney).
holds(s_13500_jpg, pipe).
holds(s_13500_jpg, machine).
holds(s_13500_jpg, car).
holds(s_13500_jpg, commercial).

sample(s_2830_jpg).
holds(s_2830_jpg, building).
holds(s_2830_jpg, feature).
holds(s_2830_jpg, watertreatment).
holds(s_2830_jpg, door).
holds(s_2830_jpg, billboard).
holds(s_2830_jpg, porch).
holds(s_2830_jpg, sign).
holds(s_2830_jpg, tiledroof).
holds(s_2830_jpg, tiledrooftop).
holds(s_2830_jpg, wallsign).
holds(s_2830_jpg, pipe).
holds(s_2830_jpg, industrial).

sample(s_15470_jpg).
holds(s_15470_jpg, building).
holds(s_15470_jpg, feature).
holds(s_15470_jpg, sign).
holds(s_15470_jpg, table).
holds(s_15470_jpg, tiledrooftop).
holds(s_15470_jpg, vendingmachine).
holds(s_15470_jpg, statue).
holds(s_15470_jpg, pipe).

sample(s_3331_jpg).
holds(s_3331_jpg, building).
holds(s_3331_jpg, feature).
holds(s_3331_jpg, watertreatment).
holds(s_3331_jpg, door).
holds(s_3331_jpg, billboard).
holds(s_3331_jpg, porch).
holds(s_3331_jpg, sign).
holds(s_3331_jpg, tiledroof).
holds(s_3331_jpg, wallsign).
holds(s_3331_jpg, pipe).
holds(s_3331_jpg, industrial).

sample(s_4149_jpg).
holds(s_4149_jpg, building).
holds(s_4149_jpg, feature).
holds(s_4149_jpg, hotel).
holds(s_4149_jpg, billboard).
holds(s_4149_jpg, porch).
holds(s_4149_jpg, sign).
holds(s_4149_jpg, table).
holds(s_4149_jpg, tiledroof).
holds(s_4149_jpg, tiledrooftop).
holds(s_4149_jpg, vendingmachine).
holds(s_4149_jpg, statue).
holds(s_4149_jpg, chimney).
holds(s_4149_jpg, pipe).
holds(s_4149_jpg, machine).
holds(s_4149_jpg, car).
holds(s_4149_jpg, commercial).

sample(s_11648_jpg).
holds(s_11648_jpg, building).
holds(s_11648_jpg, feature).
holds(s_11648_jpg, sign).
holds(s_11648_jpg, table).
holds(s_11648_jpg, tiledrooftop).
holds(s_11648_jpg, vendingmachine).
holds(s_11648_jpg, statue).
holds(s_11648_jpg, pipe).

sample(s_4281_jpg).
holds(s_4281_jpg, building).
holds(s_4281_jpg, feature).
holds(s_4281_jpg, hotel).
holds(s_4281_jpg, door).
holds(s_4281_jpg, billboard).
holds(s_4281_jpg, porch).
holds(s_4281_jpg, sign).
holds(s_4281_jpg, tiledroof).
holds(s_4281_jpg, tiledrooftop).
holds(s_4281_jpg, wallsign).
holds(s_4281_jpg, chimney).
holds(s_4281_jpg, pipe).
holds(s_4281_jpg, car).
holds(s_4281_jpg, commercial).

sample(s_3720_jpg).
holds(s_3720_jpg, building).
holds(s_3720_jpg, feature).
holds(s_3720_jpg, hotel).
holds(s_3720_jpg, door).
holds(s_3720_jpg, billboard).
holds(s_3720_jpg, sign).
holds(s_3720_jpg, tiledroof).
holds(s_3720_jpg, tiledrooftop).
holds(s_3720_jpg, wallsign).
holds(s_3720_jpg, chimney).
holds(s_3720_jpg, pipe).
holds(s_3720_jpg, car).
holds(s_3720_jpg, commercial).

sample(s_10534_jpg).
holds(s_10534_jpg, building).
holds(s_10534_jpg, feature).
holds(s_10534_jpg, watertreatment).
holds(s_10534_jpg, door).
holds(s_10534_jpg, billboard).
holds(s_10534_jpg, porch).
holds(s_10534_jpg, sign).
holds(s_10534_jpg, tiledroof).
holds(s_10534_jpg, tiledrooftop).
holds(s_10534_jpg, wallsign).
holds(s_10534_jpg, industrial).

sample(s_2255_jpg).
holds(s_2255_jpg, building).
holds(s_2255_jpg, feature).
holds(s_2255_jpg, sign).
holds(s_2255_jpg, table).
holds(s_2255_jpg, tiledrooftop).
holds(s_2255_jpg, vendingmachine).
holds(s_2255_jpg, statue).
holds(s_2255_jpg, pipe).

sample(s_14775_jpg).
holds(s_14775_jpg, building).
holds(s_14775_jpg, feature).
holds(s_14775_jpg, hotel).
holds(s_14775_jpg, billboard).
holds(s_14775_jpg, sign).
holds(s_14775_jpg, table).
holds(s_14775_jpg, tiledroof).
holds(s_14775_jpg, tiledrooftop).
holds(s_14775_jpg, vendingmachine).
holds(s_14775_jpg, statue).
holds(s_14775_jpg, chimney).
holds(s_14775_jpg, pipe).
holds(s_14775_jpg, machine).
holds(s_14775_jpg, car).
holds(s_14775_jpg, commercial).

sample(s_672_jpg).
holds(s_672_jpg, building).
holds(s_672_jpg, feature).
holds(s_672_jpg, hotel).
holds(s_672_jpg, door).
holds(s_672_jpg, billboard).
holds(s_672_jpg, sign).
holds(s_672_jpg, tiledroof).
holds(s_672_jpg, tiledrooftop).
holds(s_672_jpg, wallsign).
holds(s_672_jpg, chimney).
holds(s_672_jpg, pipe).
holds(s_672_jpg, car).
holds(s_672_jpg, commercial).

sample(s_10661_jpg).
holds(s_10661_jpg, building).
holds(s_10661_jpg, feature).
holds(s_10661_jpg, sign).
holds(s_10661_jpg, table).
holds(s_10661_jpg, tiledrooftop).
holds(s_10661_jpg, vendingmachine).
holds(s_10661_jpg, statue).
holds(s_10661_jpg, pipe).
holds(s_10661_jpg, machine).

sample(s_9061_jpg).
holds(s_9061_jpg, building).
holds(s_9061_jpg, feature).
holds(s_9061_jpg, watertreatment).
holds(s_9061_jpg, door).
holds(s_9061_jpg, billboard).
holds(s_9061_jpg, porch).
holds(s_9061_jpg, sign).
holds(s_9061_jpg, tiledroof).
holds(s_9061_jpg, wallsign).
holds(s_9061_jpg, industrial).

sample(s_4459_jpg).
holds(s_4459_jpg, building).
holds(s_4459_jpg, feature).
holds(s_4459_jpg, watertreatment).
holds(s_4459_jpg, door).
holds(s_4459_jpg, billboard).
holds(s_4459_jpg, porch).
holds(s_4459_jpg, sign).
holds(s_4459_jpg, table).
holds(s_4459_jpg, tiledroof).
holds(s_4459_jpg, tiledrooftop).
holds(s_4459_jpg, vendingmachine).
holds(s_4459_jpg, wallsign).
holds(s_4459_jpg, industrial).

sample(s_187_jpg).
holds(s_187_jpg, building).
holds(s_187_jpg, feature).
holds(s_187_jpg, watertreatment).
holds(s_187_jpg, door).
holds(s_187_jpg, billboard).
holds(s_187_jpg, porch).
holds(s_187_jpg, sign).
holds(s_187_jpg, tiledroof).
holds(s_187_jpg, wallsign).
holds(s_187_jpg, chimney).
holds(s_187_jpg, pipe).
holds(s_187_jpg, industrial).

sample(s_4038_jpg).
holds(s_4038_jpg, building).
holds(s_4038_jpg, feature).
holds(s_4038_jpg, hotel).
holds(s_4038_jpg, door).
holds(s_4038_jpg, billboard).
holds(s_4038_jpg, sign).
holds(s_4038_jpg, tiledroof).
holds(s_4038_jpg, tiledrooftop).
holds(s_4038_jpg, wallsign).
holds(s_4038_jpg, chimney).
holds(s_4038_jpg, pipe).
holds(s_4038_jpg, car).
holds(s_4038_jpg, commercial).

sample(s_1910_jpg).
holds(s_1910_jpg, building).
holds(s_1910_jpg, feature).
holds(s_1910_jpg, sign).
holds(s_1910_jpg, table).
holds(s_1910_jpg, tiledrooftop).
holds(s_1910_jpg, vendingmachine).
holds(s_1910_jpg, statue).
holds(s_1910_jpg, pipe).
holds(s_1910_jpg, machine).

sample(s_6695_jpg).
holds(s_6695_jpg, building).
holds(s_6695_jpg, feature).
holds(s_6695_jpg, porch).
holds(s_6695_jpg, sign).
holds(s_6695_jpg, table).
holds(s_6695_jpg, tiledrooftop).
holds(s_6695_jpg, vendingmachine).
holds(s_6695_jpg, statue).

sample(s_11048_jpg).
holds(s_11048_jpg, building).
holds(s_11048_jpg, feature).
holds(s_11048_jpg, billboard).
holds(s_11048_jpg, sign).
holds(s_11048_jpg, table).
holds(s_11048_jpg, tiledrooftop).
holds(s_11048_jpg, vendingmachine).
holds(s_11048_jpg, statue).
holds(s_11048_jpg, pipe).
holds(s_11048_jpg, machine).

sample(s_5040_jpg).
holds(s_5040_jpg, building).
holds(s_5040_jpg, feature).
holds(s_5040_jpg, hotel).
holds(s_5040_jpg, door).
holds(s_5040_jpg, billboard).
holds(s_5040_jpg, porch).
holds(s_5040_jpg, sign).
holds(s_5040_jpg, tiledroof).
holds(s_5040_jpg, tiledrooftop).
holds(s_5040_jpg, vendingmachine).
holds(s_5040_jpg, wallsign).
holds(s_5040_jpg, chimney).
holds(s_5040_jpg, pipe).
holds(s_5040_jpg, machine).
holds(s_5040_jpg, car).
holds(s_5040_jpg, commercial).

sample(s_9100_jpg).
holds(s_9100_jpg, building).
holds(s_9100_jpg, feature).
holds(s_9100_jpg, watertreatment).
holds(s_9100_jpg, door).
holds(s_9100_jpg, billboard).
holds(s_9100_jpg, porch).
holds(s_9100_jpg, sign).
holds(s_9100_jpg, tiledroof).
holds(s_9100_jpg, tiledrooftop).
holds(s_9100_jpg, wallsign).
holds(s_9100_jpg, industrial).

sample(s_4798_jpg).
holds(s_4798_jpg, building).
holds(s_4798_jpg, feature).
holds(s_4798_jpg, watertreatment).
holds(s_4798_jpg, door).
holds(s_4798_jpg, billboard).
holds(s_4798_jpg, porch).
holds(s_4798_jpg, sign).
holds(s_4798_jpg, tiledroof).
holds(s_4798_jpg, tiledrooftop).
holds(s_4798_jpg, wallsign).
holds(s_4798_jpg, industrial).

sample(s_9589_jpg).
holds(s_9589_jpg, building).
holds(s_9589_jpg, feature).
holds(s_9589_jpg, watertreatment).
holds(s_9589_jpg, door).
holds(s_9589_jpg, billboard).
holds(s_9589_jpg, porch).
holds(s_9589_jpg, sign).
holds(s_9589_jpg, table).
holds(s_9589_jpg, tiledroof).
holds(s_9589_jpg, tiledrooftop).
holds(s_9589_jpg, wallsign).
holds(s_9589_jpg, industrial).

sample(s_10538_jpg).
holds(s_10538_jpg, building).
holds(s_10538_jpg, feature).
holds(s_10538_jpg, sign).
holds(s_10538_jpg, table).
holds(s_10538_jpg, tiledrooftop).
holds(s_10538_jpg, vendingmachine).
holds(s_10538_jpg, statue).
holds(s_10538_jpg, pipe).
holds(s_10538_jpg, machine).

sample(s_6496_jpg).
holds(s_6496_jpg, building).
holds(s_6496_jpg, feature).
holds(s_6496_jpg, watertreatment).
holds(s_6496_jpg, door).
holds(s_6496_jpg, billboard).
holds(s_6496_jpg, porch).
holds(s_6496_jpg, sign).
holds(s_6496_jpg, tiledroof).
holds(s_6496_jpg, tiledrooftop).
holds(s_6496_jpg, wallsign).
holds(s_6496_jpg, pipe).
holds(s_6496_jpg, industrial).

sample(s_2442_jpg).
holds(s_2442_jpg, building).
holds(s_2442_jpg, feature).
holds(s_2442_jpg, hotel).
holds(s_2442_jpg, door).
holds(s_2442_jpg, billboard).
holds(s_2442_jpg, porch).
holds(s_2442_jpg, sign).
holds(s_2442_jpg, tiledroof).
holds(s_2442_jpg, tiledrooftop).
holds(s_2442_jpg, vendingmachine).
holds(s_2442_jpg, wallsign).
holds(s_2442_jpg, chimney).
holds(s_2442_jpg, pipe).
holds(s_2442_jpg, car).
holds(s_2442_jpg, commercial).

sample(s_7723_jpg).
holds(s_7723_jpg, building).
holds(s_7723_jpg, feature).
holds(s_7723_jpg, watertreatment).
holds(s_7723_jpg, door).
holds(s_7723_jpg, billboard).
holds(s_7723_jpg, porch).
holds(s_7723_jpg, sign).
holds(s_7723_jpg, tiledroof).
holds(s_7723_jpg, wallsign).
holds(s_7723_jpg, industrial).

sample(s_13057_jpg).
holds(s_13057_jpg, building).
holds(s_13057_jpg, feature).
holds(s_13057_jpg, watertreatment).
holds(s_13057_jpg, door).
holds(s_13057_jpg, billboard).
holds(s_13057_jpg, porch).
holds(s_13057_jpg, sign).
holds(s_13057_jpg, tiledroof).
holds(s_13057_jpg, wallsign).
holds(s_13057_jpg, pipe).
holds(s_13057_jpg, industrial).

sample(s_1803_jpg).
holds(s_1803_jpg, building).
holds(s_1803_jpg, feature).
holds(s_1803_jpg, billboard).
holds(s_1803_jpg, sign).
holds(s_1803_jpg, table).
holds(s_1803_jpg, tiledrooftop).
holds(s_1803_jpg, vendingmachine).
holds(s_1803_jpg, statue).
holds(s_1803_jpg, pipe).
holds(s_1803_jpg, machine).

sample(s_12706_jpg).
holds(s_12706_jpg, building).
holds(s_12706_jpg, feature).
holds(s_12706_jpg, watertreatment).
holds(s_12706_jpg, door).
holds(s_12706_jpg, billboard).
holds(s_12706_jpg, sign).
holds(s_12706_jpg, tiledroof).
holds(s_12706_jpg, tiledrooftop).
holds(s_12706_jpg, wallsign).
holds(s_12706_jpg, pipe).
holds(s_12706_jpg, industrial).

sample(s_6342_jpg).
holds(s_6342_jpg, building).
holds(s_6342_jpg, feature).
holds(s_6342_jpg, hotel).
holds(s_6342_jpg, door).
holds(s_6342_jpg, billboard).
holds(s_6342_jpg, porch).
holds(s_6342_jpg, sign).
holds(s_6342_jpg, tiledroof).
holds(s_6342_jpg, tiledrooftop).
holds(s_6342_jpg, wallsign).
holds(s_6342_jpg, chimney).
holds(s_6342_jpg, pipe).
holds(s_6342_jpg, car).
holds(s_6342_jpg, commercial).

sample(s_12812_jpg).
holds(s_12812_jpg, building).
holds(s_12812_jpg, feature).
holds(s_12812_jpg, sign).
holds(s_12812_jpg, table).
holds(s_12812_jpg, tiledrooftop).
holds(s_12812_jpg, vendingmachine).
holds(s_12812_jpg, statue).
holds(s_12812_jpg, pipe).
holds(s_12812_jpg, machine).

sample(s_15106_jpg).
holds(s_15106_jpg, building).
holds(s_15106_jpg, feature).
holds(s_15106_jpg, watertreatment).
holds(s_15106_jpg, door).
holds(s_15106_jpg, billboard).
holds(s_15106_jpg, porch).
holds(s_15106_jpg, sign).
holds(s_15106_jpg, tiledroof).
holds(s_15106_jpg, tiledrooftop).
holds(s_15106_jpg, wallsign).
holds(s_15106_jpg, industrial).

sample(s_386_jpg).
holds(s_386_jpg, building).
holds(s_386_jpg, feature).
holds(s_386_jpg, sign).
holds(s_386_jpg, table).
holds(s_386_jpg, tiledrooftop).
holds(s_386_jpg, vendingmachine).
holds(s_386_jpg, statue).
holds(s_386_jpg, pipe).
holds(s_386_jpg, machine).

sample(s_8554_jpg).
holds(s_8554_jpg, building).
holds(s_8554_jpg, feature).
holds(s_8554_jpg, watertreatment).
holds(s_8554_jpg, door).
holds(s_8554_jpg, billboard).
holds(s_8554_jpg, porch).
holds(s_8554_jpg, sign).
holds(s_8554_jpg, tiledroof).
holds(s_8554_jpg, wallsign).
holds(s_8554_jpg, industrial).

sample(s_10319_jpg).
holds(s_10319_jpg, building).
holds(s_10319_jpg, feature).
holds(s_10319_jpg, porch).
holds(s_10319_jpg, sign).
holds(s_10319_jpg, table).
holds(s_10319_jpg, tiledrooftop).
holds(s_10319_jpg, vendingmachine).
holds(s_10319_jpg, statue).
holds(s_10319_jpg, pipe).
holds(s_10319_jpg, machine).

sample(s_5494_jpg).
holds(s_5494_jpg, building).
holds(s_5494_jpg, feature).
holds(s_5494_jpg, watertreatment).
holds(s_5494_jpg, door).
holds(s_5494_jpg, billboard).
holds(s_5494_jpg, porch).
holds(s_5494_jpg, sign).
holds(s_5494_jpg, tiledroof).
holds(s_5494_jpg, tiledrooftop).
holds(s_5494_jpg, wallsign).
holds(s_5494_jpg, pipe).
holds(s_5494_jpg, industrial).

sample(s_15434_jpg).
holds(s_15434_jpg, building).
holds(s_15434_jpg, feature).
holds(s_15434_jpg, sign).
holds(s_15434_jpg, table).
holds(s_15434_jpg, tiledrooftop).
holds(s_15434_jpg, vendingmachine).
holds(s_15434_jpg, statue).
holds(s_15434_jpg, pipe).

sample(s_2352_jpg).
holds(s_2352_jpg, building).
holds(s_2352_jpg, feature).
holds(s_2352_jpg, hotel).
holds(s_2352_jpg, door).
holds(s_2352_jpg, billboard).
holds(s_2352_jpg, porch).
holds(s_2352_jpg, sign).
holds(s_2352_jpg, tiledroof).
holds(s_2352_jpg, tiledrooftop).
holds(s_2352_jpg, vendingmachine).
holds(s_2352_jpg, wallsign).
holds(s_2352_jpg, chimney).
holds(s_2352_jpg, pipe).
holds(s_2352_jpg, machine).
holds(s_2352_jpg, car).
holds(s_2352_jpg, commercial).

sample(s_7637_jpg).
holds(s_7637_jpg, building).
holds(s_7637_jpg, feature).
holds(s_7637_jpg, sign).
holds(s_7637_jpg, table).
holds(s_7637_jpg, tiledrooftop).
holds(s_7637_jpg, vendingmachine).
holds(s_7637_jpg, statue).

sample(s_2207_jpg).
holds(s_2207_jpg, building).
holds(s_2207_jpg, feature).
holds(s_2207_jpg, sign).
holds(s_2207_jpg, table).
holds(s_2207_jpg, tiledrooftop).
holds(s_2207_jpg, vendingmachine).
holds(s_2207_jpg, statue).
holds(s_2207_jpg, pipe).
holds(s_2207_jpg, machine).

sample(s_15085_jpg).
holds(s_15085_jpg, building).
holds(s_15085_jpg, feature).
holds(s_15085_jpg, watertreatment).
holds(s_15085_jpg, door).
holds(s_15085_jpg, billboard).
holds(s_15085_jpg, porch).
holds(s_15085_jpg, sign).
holds(s_15085_jpg, tiledroof).
holds(s_15085_jpg, wallsign).
holds(s_15085_jpg, industrial).

sample(s_13093_jpg).
holds(s_13093_jpg, building).
holds(s_13093_jpg, feature).
holds(s_13093_jpg, watertreatment).
holds(s_13093_jpg, door).
holds(s_13093_jpg, billboard).
holds(s_13093_jpg, porch).
holds(s_13093_jpg, sign).
holds(s_13093_jpg, tiledroof).
holds(s_13093_jpg, tiledrooftop).
holds(s_13093_jpg, wallsign).
holds(s_13093_jpg, pipe).
holds(s_13093_jpg, industrial).

sample(s_11240_jpg).
holds(s_11240_jpg, building).
holds(s_11240_jpg, feature).
holds(s_11240_jpg, sign).
holds(s_11240_jpg, table).
holds(s_11240_jpg, tiledrooftop).
holds(s_11240_jpg, vendingmachine).
holds(s_11240_jpg, statue).
holds(s_11240_jpg, pipe).

sample(s_758_jpg).
holds(s_758_jpg, building).
holds(s_758_jpg, feature).
holds(s_758_jpg, sign).
holds(s_758_jpg, table).
holds(s_758_jpg, tiledrooftop).
holds(s_758_jpg, vendingmachine).
holds(s_758_jpg, statue).
holds(s_758_jpg, pipe).
holds(s_758_jpg, machine).

sample(s_5937_jpg).
holds(s_5937_jpg, building).
holds(s_5937_jpg, feature).
holds(s_5937_jpg, hotel).
holds(s_5937_jpg, billboard).
holds(s_5937_jpg, porch).
holds(s_5937_jpg, sign).
holds(s_5937_jpg, table).
holds(s_5937_jpg, tiledroof).
holds(s_5937_jpg, tiledrooftop).
holds(s_5937_jpg, vendingmachine).
holds(s_5937_jpg, statue).
holds(s_5937_jpg, chimney).
holds(s_5937_jpg, pipe).
holds(s_5937_jpg, machine).
holds(s_5937_jpg, car).
holds(s_5937_jpg, commercial).

sample(s_4710_jpg).
holds(s_4710_jpg, building).
holds(s_4710_jpg, feature).
holds(s_4710_jpg, hotel).
holds(s_4710_jpg, billboard).
holds(s_4710_jpg, porch).
holds(s_4710_jpg, sign).
holds(s_4710_jpg, table).
holds(s_4710_jpg, tiledroof).
holds(s_4710_jpg, tiledrooftop).
holds(s_4710_jpg, vendingmachine).
holds(s_4710_jpg, statue).
holds(s_4710_jpg, chimney).
holds(s_4710_jpg, pipe).
holds(s_4710_jpg, machine).
holds(s_4710_jpg, car).
holds(s_4710_jpg, commercial).

sample(s_1700_jpg).
holds(s_1700_jpg, building).
holds(s_1700_jpg, feature).
holds(s_1700_jpg, porch).
holds(s_1700_jpg, sign).
holds(s_1700_jpg, table).
holds(s_1700_jpg, tiledrooftop).
holds(s_1700_jpg, vendingmachine).
holds(s_1700_jpg, statue).
holds(s_1700_jpg, pipe).

sample(s_9710_jpg).
holds(s_9710_jpg, building).
holds(s_9710_jpg, feature).
holds(s_9710_jpg, sign).
holds(s_9710_jpg, table).
holds(s_9710_jpg, tiledrooftop).
holds(s_9710_jpg, vendingmachine).
holds(s_9710_jpg, statue).
holds(s_9710_jpg, pipe).

sample(s_12765_jpg).
holds(s_12765_jpg, building).
holds(s_12765_jpg, feature).
holds(s_12765_jpg, hotel).
holds(s_12765_jpg, door).
holds(s_12765_jpg, billboard).
holds(s_12765_jpg, sign).
holds(s_12765_jpg, tiledroof).
holds(s_12765_jpg, tiledrooftop).
holds(s_12765_jpg, wallsign).
holds(s_12765_jpg, chimney).
holds(s_12765_jpg, pipe).
holds(s_12765_jpg, car).
holds(s_12765_jpg, commercial).

sample(s_14806_jpg).
holds(s_14806_jpg, building).
holds(s_14806_jpg, feature).
holds(s_14806_jpg, watertreatment).
holds(s_14806_jpg, door).
holds(s_14806_jpg, billboard).
holds(s_14806_jpg, porch).
holds(s_14806_jpg, sign).
holds(s_14806_jpg, tiledroof).
holds(s_14806_jpg, tiledrooftop).
holds(s_14806_jpg, wallsign).
holds(s_14806_jpg, pipe).
holds(s_14806_jpg, industrial).

sample(s_9283_jpg).
holds(s_9283_jpg, building).
holds(s_9283_jpg, feature).
holds(s_9283_jpg, watertreatment).
holds(s_9283_jpg, door).
holds(s_9283_jpg, billboard).
holds(s_9283_jpg, sign).
holds(s_9283_jpg, tiledroof).
holds(s_9283_jpg, tiledrooftop).
holds(s_9283_jpg, wallsign).
holds(s_9283_jpg, pipe).
holds(s_9283_jpg, industrial).

sample(s_511_jpg).
holds(s_511_jpg, building).
holds(s_511_jpg, feature).
holds(s_511_jpg, watertreatment).
holds(s_511_jpg, door).
holds(s_511_jpg, billboard).
holds(s_511_jpg, porch).
holds(s_511_jpg, sign).
holds(s_511_jpg, tiledroof).
holds(s_511_jpg, tiledrooftop).
holds(s_511_jpg, wallsign).
holds(s_511_jpg, pipe).
holds(s_511_jpg, industrial).

sample(s_12529_jpg).
holds(s_12529_jpg, building).
holds(s_12529_jpg, feature).
holds(s_12529_jpg, watertreatment).
holds(s_12529_jpg, door).
holds(s_12529_jpg, billboard).
holds(s_12529_jpg, porch).
holds(s_12529_jpg, sign).
holds(s_12529_jpg, tiledroof).
holds(s_12529_jpg, wallsign).
holds(s_12529_jpg, industrial).

sample(s_15947_jpg).
holds(s_15947_jpg, building).
holds(s_15947_jpg, feature).
holds(s_15947_jpg, sign).
holds(s_15947_jpg, table).
holds(s_15947_jpg, tiledrooftop).
holds(s_15947_jpg, vendingmachine).
holds(s_15947_jpg, statue).
holds(s_15947_jpg, pipe).
holds(s_15947_jpg, machine).

sample(s_8627_jpg).
holds(s_8627_jpg, building).
holds(s_8627_jpg, feature).
holds(s_8627_jpg, sign).
holds(s_8627_jpg, table).
holds(s_8627_jpg, tiledrooftop).
holds(s_8627_jpg, vendingmachine).
holds(s_8627_jpg, statue).
holds(s_8627_jpg, pipe).

sample(s_3470_jpg).
holds(s_3470_jpg, building).
holds(s_3470_jpg, feature).
holds(s_3470_jpg, sign).
holds(s_3470_jpg, table).
holds(s_3470_jpg, tiledrooftop).
holds(s_3470_jpg, vendingmachine).
holds(s_3470_jpg, statue).
holds(s_3470_jpg, pipe).
holds(s_3470_jpg, machine).

sample(s_9139_jpg).
holds(s_9139_jpg, building).
holds(s_9139_jpg, feature).
holds(s_9139_jpg, watertreatment).
holds(s_9139_jpg, door).
holds(s_9139_jpg, billboard).
holds(s_9139_jpg, porch).
holds(s_9139_jpg, sign).
holds(s_9139_jpg, tiledroof).
holds(s_9139_jpg, wallsign).
holds(s_9139_jpg, industrial).

sample(s_10514_jpg).
holds(s_10514_jpg, building).
holds(s_10514_jpg, feature).
holds(s_10514_jpg, sign).
holds(s_10514_jpg, table).
holds(s_10514_jpg, tiledrooftop).
holds(s_10514_jpg, vendingmachine).
holds(s_10514_jpg, statue).
holds(s_10514_jpg, pipe).
holds(s_10514_jpg, machine).

sample(s_8846_jpg).
holds(s_8846_jpg, building).
holds(s_8846_jpg, feature).
holds(s_8846_jpg, billboard).
holds(s_8846_jpg, sign).
holds(s_8846_jpg, table).
holds(s_8846_jpg, tiledrooftop).
holds(s_8846_jpg, vendingmachine).
holds(s_8846_jpg, statue).
holds(s_8846_jpg, pipe).
holds(s_8846_jpg, machine).

sample(s_9801_jpg).
holds(s_9801_jpg, building).
holds(s_9801_jpg, feature).
holds(s_9801_jpg, hotel).
holds(s_9801_jpg, door).
holds(s_9801_jpg, billboard).
holds(s_9801_jpg, porch).
holds(s_9801_jpg, sign).
holds(s_9801_jpg, table).
holds(s_9801_jpg, tiledroof).
holds(s_9801_jpg, tiledrooftop).
holds(s_9801_jpg, wallsign).
holds(s_9801_jpg, chimney).
holds(s_9801_jpg, pipe).
holds(s_9801_jpg, car).
holds(s_9801_jpg, commercial).

sample(s_1410_jpg).
holds(s_1410_jpg, building).
holds(s_1410_jpg, feature).
holds(s_1410_jpg, hotel).
holds(s_1410_jpg, door).
holds(s_1410_jpg, billboard).
holds(s_1410_jpg, porch).
holds(s_1410_jpg, sign).
holds(s_1410_jpg, tiledroof).
holds(s_1410_jpg, tiledrooftop).
holds(s_1410_jpg, wallsign).
holds(s_1410_jpg, chimney).
holds(s_1410_jpg, pipe).
holds(s_1410_jpg, car).
holds(s_1410_jpg, commercial).

sample(s_3295_jpg).
holds(s_3295_jpg, building).
holds(s_3295_jpg, feature).
holds(s_3295_jpg, watertreatment).
holds(s_3295_jpg, door).
holds(s_3295_jpg, billboard).
holds(s_3295_jpg, porch).
holds(s_3295_jpg, sign).
holds(s_3295_jpg, tiledroof).
holds(s_3295_jpg, tiledrooftop).
holds(s_3295_jpg, wallsign).
holds(s_3295_jpg, industrial).

sample(s_5892_jpg).
holds(s_5892_jpg, building).
holds(s_5892_jpg, feature).
holds(s_5892_jpg, hotel).
holds(s_5892_jpg, door).
holds(s_5892_jpg, billboard).
holds(s_5892_jpg, porch).
holds(s_5892_jpg, sign).
holds(s_5892_jpg, tiledroof).
holds(s_5892_jpg, tiledrooftop).
holds(s_5892_jpg, vendingmachine).
holds(s_5892_jpg, wallsign).
holds(s_5892_jpg, chimney).
holds(s_5892_jpg, pipe).
holds(s_5892_jpg, machine).
holds(s_5892_jpg, car).
holds(s_5892_jpg, commercial).

sample(s_14107_jpg).
holds(s_14107_jpg, building).
holds(s_14107_jpg, feature).
holds(s_14107_jpg, watertreatment).
holds(s_14107_jpg, door).
holds(s_14107_jpg, billboard).
holds(s_14107_jpg, porch).
holds(s_14107_jpg, sign).
holds(s_14107_jpg, tiledroof).
holds(s_14107_jpg, wallsign).
holds(s_14107_jpg, pipe).
holds(s_14107_jpg, industrial).

sample(s_11891_jpg).
holds(s_11891_jpg, building).
holds(s_11891_jpg, feature).
holds(s_11891_jpg, sign).
holds(s_11891_jpg, table).
holds(s_11891_jpg, tiledrooftop).
holds(s_11891_jpg, vendingmachine).
holds(s_11891_jpg, statue).
holds(s_11891_jpg, pipe).
holds(s_11891_jpg, machine).

sample(s_6180_jpg).
holds(s_6180_jpg, building).
holds(s_6180_jpg, feature).
holds(s_6180_jpg, hotel).
holds(s_6180_jpg, door).
holds(s_6180_jpg, billboard).
holds(s_6180_jpg, porch).
holds(s_6180_jpg, sign).
holds(s_6180_jpg, tiledroof).
holds(s_6180_jpg, tiledrooftop).
holds(s_6180_jpg, wallsign).
holds(s_6180_jpg, chimney).
holds(s_6180_jpg, pipe).
holds(s_6180_jpg, car).
holds(s_6180_jpg, commercial).

sample(s_15945_jpg).
holds(s_15945_jpg, building).
holds(s_15945_jpg, feature).
holds(s_15945_jpg, hotel).
holds(s_15945_jpg, door).
holds(s_15945_jpg, billboard).
holds(s_15945_jpg, sign).
holds(s_15945_jpg, tiledroof).
holds(s_15945_jpg, tiledrooftop).
holds(s_15945_jpg, vendingmachine).
holds(s_15945_jpg, wallsign).
holds(s_15945_jpg, chimney).
holds(s_15945_jpg, pipe).
holds(s_15945_jpg, machine).
holds(s_15945_jpg, car).
holds(s_15945_jpg, commercial).

sample(s_1441_jpg).
holds(s_1441_jpg, building).
holds(s_1441_jpg, feature).
holds(s_1441_jpg, watertreatment).
holds(s_1441_jpg, door).
holds(s_1441_jpg, billboard).
holds(s_1441_jpg, porch).
holds(s_1441_jpg, sign).
holds(s_1441_jpg, tiledroof).
holds(s_1441_jpg, wallsign).
holds(s_1441_jpg, industrial).

sample(s_3129_jpg).
holds(s_3129_jpg, building).
holds(s_3129_jpg, feature).
holds(s_3129_jpg, hotel).
holds(s_3129_jpg, door).
holds(s_3129_jpg, billboard).
holds(s_3129_jpg, porch).
holds(s_3129_jpg, sign).
holds(s_3129_jpg, tiledroof).
holds(s_3129_jpg, tiledrooftop).
holds(s_3129_jpg, wallsign).
holds(s_3129_jpg, chimney).
holds(s_3129_jpg, pipe).
holds(s_3129_jpg, car).
holds(s_3129_jpg, commercial).

sample(s_258_jpg).
holds(s_258_jpg, building).
holds(s_258_jpg, feature).
holds(s_258_jpg, hotel).
holds(s_258_jpg, door).
holds(s_258_jpg, billboard).
holds(s_258_jpg, porch).
holds(s_258_jpg, sign).
holds(s_258_jpg, tiledroof).
holds(s_258_jpg, tiledrooftop).
holds(s_258_jpg, wallsign).
holds(s_258_jpg, chimney).
holds(s_258_jpg, pipe).
holds(s_258_jpg, car).
holds(s_258_jpg, commercial).

sample(s_10369_jpg).
holds(s_10369_jpg, building).
holds(s_10369_jpg, feature).
holds(s_10369_jpg, watertreatment).
holds(s_10369_jpg, door).
holds(s_10369_jpg, billboard).
holds(s_10369_jpg, porch).
holds(s_10369_jpg, sign).
holds(s_10369_jpg, tiledroof).
holds(s_10369_jpg, wallsign).
holds(s_10369_jpg, chimney).
holds(s_10369_jpg, pipe).
holds(s_10369_jpg, industrial).

sample(s_6232_jpg).
holds(s_6232_jpg, building).
holds(s_6232_jpg, feature).
holds(s_6232_jpg, watertreatment).
holds(s_6232_jpg, door).
holds(s_6232_jpg, billboard).
holds(s_6232_jpg, porch).
holds(s_6232_jpg, sign).
holds(s_6232_jpg, tiledroof).
holds(s_6232_jpg, wallsign).
holds(s_6232_jpg, chimney).
holds(s_6232_jpg, pipe).
holds(s_6232_jpg, car).
holds(s_6232_jpg, industrial).

sample(s_4250_jpg).
holds(s_4250_jpg, building).
holds(s_4250_jpg, feature).
holds(s_4250_jpg, sign).
holds(s_4250_jpg, table).
holds(s_4250_jpg, tiledrooftop).
holds(s_4250_jpg, vendingmachine).
holds(s_4250_jpg, statue).
holds(s_4250_jpg, pipe).
holds(s_4250_jpg, machine).

sample(s_1943_jpg).
holds(s_1943_jpg, building).
holds(s_1943_jpg, feature).
holds(s_1943_jpg, sign).
holds(s_1943_jpg, table).
holds(s_1943_jpg, tiledrooftop).
holds(s_1943_jpg, vendingmachine).
holds(s_1943_jpg, statue).
holds(s_1943_jpg, pipe).
holds(s_1943_jpg, machine).

sample(s_3991_jpg).
holds(s_3991_jpg, building).
holds(s_3991_jpg, feature).
holds(s_3991_jpg, watertreatment).
holds(s_3991_jpg, door).
holds(s_3991_jpg, billboard).
holds(s_3991_jpg, porch).
holds(s_3991_jpg, sign).
holds(s_3991_jpg, tiledroof).
holds(s_3991_jpg, wallsign).
holds(s_3991_jpg, industrial).

sample(s_7531_jpg).
holds(s_7531_jpg, building).
holds(s_7531_jpg, feature).
holds(s_7531_jpg, watertreatment).
holds(s_7531_jpg, door).
holds(s_7531_jpg, billboard).
holds(s_7531_jpg, porch).
holds(s_7531_jpg, sign).
holds(s_7531_jpg, tiledroof).
holds(s_7531_jpg, wallsign).
holds(s_7531_jpg, industrial).

sample(s_15164_jpg).
holds(s_15164_jpg, building).
holds(s_15164_jpg, feature).
holds(s_15164_jpg, sign).
holds(s_15164_jpg, table).
holds(s_15164_jpg, tiledrooftop).
holds(s_15164_jpg, vendingmachine).
holds(s_15164_jpg, statue).
holds(s_15164_jpg, pipe).
holds(s_15164_jpg, machine).

sample(s_542_jpg).
holds(s_542_jpg, building).
holds(s_542_jpg, feature).
holds(s_542_jpg, sign).
holds(s_542_jpg, table).
holds(s_542_jpg, tiledrooftop).
holds(s_542_jpg, vendingmachine).
holds(s_542_jpg, statue).
holds(s_542_jpg, pipe).
holds(s_542_jpg, machine).

sample(s_15556_jpg).
holds(s_15556_jpg, building).
holds(s_15556_jpg, feature).
holds(s_15556_jpg, watertreatment).
holds(s_15556_jpg, door).
holds(s_15556_jpg, billboard).
holds(s_15556_jpg, porch).
holds(s_15556_jpg, sign).
holds(s_15556_jpg, tiledroof).
holds(s_15556_jpg, wallsign).
holds(s_15556_jpg, industrial).

sample(s_1850_jpg).
holds(s_1850_jpg, building).
holds(s_1850_jpg, feature).
holds(s_1850_jpg, sign).
holds(s_1850_jpg, table).
holds(s_1850_jpg, tiledrooftop).
holds(s_1850_jpg, vendingmachine).
holds(s_1850_jpg, statue).
holds(s_1850_jpg, pipe).
holds(s_1850_jpg, machine).

sample(s_2722_jpg).
holds(s_2722_jpg, building).
holds(s_2722_jpg, feature).
holds(s_2722_jpg, watertreatment).
holds(s_2722_jpg, door).
holds(s_2722_jpg, billboard).
holds(s_2722_jpg, sign).
holds(s_2722_jpg, tiledroof).
holds(s_2722_jpg, tiledrooftop).
holds(s_2722_jpg, wallsign).
holds(s_2722_jpg, chimney).
holds(s_2722_jpg, pipe).
holds(s_2722_jpg, industrial).

sample(s_8775_jpg).
holds(s_8775_jpg, building).
holds(s_8775_jpg, feature).
holds(s_8775_jpg, hotel).
holds(s_8775_jpg, door).
holds(s_8775_jpg, billboard).
holds(s_8775_jpg, sign).
holds(s_8775_jpg, tiledroof).
holds(s_8775_jpg, tiledrooftop).
holds(s_8775_jpg, wallsign).
holds(s_8775_jpg, chimney).
holds(s_8775_jpg, pipe).
holds(s_8775_jpg, machine).
holds(s_8775_jpg, car).
holds(s_8775_jpg, commercial).

sample(s_3948_jpg).
holds(s_3948_jpg, building).
holds(s_3948_jpg, feature).
holds(s_3948_jpg, hotel).
holds(s_3948_jpg, billboard).
holds(s_3948_jpg, sign).
holds(s_3948_jpg, tiledroof).
holds(s_3948_jpg, tiledrooftop).
holds(s_3948_jpg, vendingmachine).
holds(s_3948_jpg, wallsign).
holds(s_3948_jpg, chimney).
holds(s_3948_jpg, pipe).
holds(s_3948_jpg, machine).
holds(s_3948_jpg, car).
holds(s_3948_jpg, commercial).

sample(s_322_jpg).
holds(s_322_jpg, building).
holds(s_322_jpg, feature).
holds(s_322_jpg, watertreatment).
holds(s_322_jpg, door).
holds(s_322_jpg, billboard).
holds(s_322_jpg, porch).
holds(s_322_jpg, sign).
holds(s_322_jpg, tiledroof).
holds(s_322_jpg, wallsign).
holds(s_322_jpg, chimney).
holds(s_322_jpg, pipe).
holds(s_322_jpg, industrial).

sample(s_10745_jpg).
holds(s_10745_jpg, building).
holds(s_10745_jpg, feature).
holds(s_10745_jpg, sign).
holds(s_10745_jpg, table).
holds(s_10745_jpg, tiledrooftop).
holds(s_10745_jpg, vendingmachine).
holds(s_10745_jpg, statue).
holds(s_10745_jpg, pipe).
holds(s_10745_jpg, machine).

sample(s_9548_jpg).
holds(s_9548_jpg, building).
holds(s_9548_jpg, feature).
holds(s_9548_jpg, sign).
holds(s_9548_jpg, table).
holds(s_9548_jpg, tiledrooftop).
holds(s_9548_jpg, vendingmachine).
holds(s_9548_jpg, statue).
holds(s_9548_jpg, pipe).

sample(s_14615_jpg).
holds(s_14615_jpg, building).
holds(s_14615_jpg, feature).
holds(s_14615_jpg, sign).
holds(s_14615_jpg, table).
holds(s_14615_jpg, tiledrooftop).
holds(s_14615_jpg, vendingmachine).
holds(s_14615_jpg, statue).
holds(s_14615_jpg, pipe).

sample(s_6558_jpg).
holds(s_6558_jpg, building).
holds(s_6558_jpg, feature).
holds(s_6558_jpg, hotel).
holds(s_6558_jpg, billboard).
holds(s_6558_jpg, sign).
holds(s_6558_jpg, tiledroof).
holds(s_6558_jpg, tiledrooftop).
holds(s_6558_jpg, chimney).
holds(s_6558_jpg, pipe).
holds(s_6558_jpg, machine).
holds(s_6558_jpg, car).
holds(s_6558_jpg, commercial).

sample(s_5640_jpg).
holds(s_5640_jpg, building).
holds(s_5640_jpg, feature).
holds(s_5640_jpg, hotel).
holds(s_5640_jpg, door).
holds(s_5640_jpg, billboard).
holds(s_5640_jpg, porch).
holds(s_5640_jpg, sign).
holds(s_5640_jpg, tiledroof).
holds(s_5640_jpg, tiledrooftop).
holds(s_5640_jpg, wallsign).
holds(s_5640_jpg, chimney).
holds(s_5640_jpg, pipe).
holds(s_5640_jpg, car).
holds(s_5640_jpg, commercial).

sample(s_1605_jpg).
holds(s_1605_jpg, building).
holds(s_1605_jpg, feature).
holds(s_1605_jpg, hotel).
holds(s_1605_jpg, billboard).
holds(s_1605_jpg, porch).
holds(s_1605_jpg, sign).
holds(s_1605_jpg, table).
holds(s_1605_jpg, tiledroof).
holds(s_1605_jpg, tiledrooftop).
holds(s_1605_jpg, vendingmachine).
holds(s_1605_jpg, statue).
holds(s_1605_jpg, chimney).
holds(s_1605_jpg, pipe).
holds(s_1605_jpg, machine).
holds(s_1605_jpg, car).
holds(s_1605_jpg, commercial).

sample(s_8582_jpg).
holds(s_8582_jpg, building).
holds(s_8582_jpg, feature).
holds(s_8582_jpg, sign).
holds(s_8582_jpg, table).
holds(s_8582_jpg, tiledrooftop).
holds(s_8582_jpg, vendingmachine).
holds(s_8582_jpg, statue).
holds(s_8582_jpg, pipe).
holds(s_8582_jpg, machine).

sample(s_13493_jpg).
holds(s_13493_jpg, building).
holds(s_13493_jpg, feature).
holds(s_13493_jpg, porch).
holds(s_13493_jpg, sign).
holds(s_13493_jpg, table).
holds(s_13493_jpg, tiledrooftop).
holds(s_13493_jpg, vendingmachine).
holds(s_13493_jpg, statue).
holds(s_13493_jpg, pipe).
holds(s_13493_jpg, machine).

sample(s_12029_jpg).
holds(s_12029_jpg, building).
holds(s_12029_jpg, feature).
holds(s_12029_jpg, sign).
holds(s_12029_jpg, table).
holds(s_12029_jpg, tiledrooftop).
holds(s_12029_jpg, vendingmachine).
holds(s_12029_jpg, statue).
holds(s_12029_jpg, pipe).
holds(s_12029_jpg, machine).

sample(s_2121_jpg).
holds(s_2121_jpg, building).
holds(s_2121_jpg, feature).
holds(s_2121_jpg, hotel).
holds(s_2121_jpg, door).
holds(s_2121_jpg, billboard).
holds(s_2121_jpg, porch).
holds(s_2121_jpg, sign).
holds(s_2121_jpg, table).
holds(s_2121_jpg, tiledroof).
holds(s_2121_jpg, tiledrooftop).
holds(s_2121_jpg, vendingmachine).
holds(s_2121_jpg, wallsign).
holds(s_2121_jpg, chimney).
holds(s_2121_jpg, pipe).
holds(s_2121_jpg, car).
holds(s_2121_jpg, commercial).

sample(s_9034_jpg).
holds(s_9034_jpg, building).
holds(s_9034_jpg, feature).
holds(s_9034_jpg, watertreatment).
holds(s_9034_jpg, door).
holds(s_9034_jpg, billboard).
holds(s_9034_jpg, porch).
holds(s_9034_jpg, sign).
holds(s_9034_jpg, tiledroof).
holds(s_9034_jpg, wallsign).
holds(s_9034_jpg, chimney).
holds(s_9034_jpg, pipe).
holds(s_9034_jpg, industrial).

sample(s_5795_jpg).
holds(s_5795_jpg, building).
holds(s_5795_jpg, feature).
holds(s_5795_jpg, sign).
holds(s_5795_jpg, table).
holds(s_5795_jpg, tiledrooftop).
holds(s_5795_jpg, vendingmachine).
holds(s_5795_jpg, statue).
holds(s_5795_jpg, pipe).
holds(s_5795_jpg, machine).

sample(s_12611_jpg).
holds(s_12611_jpg, building).
holds(s_12611_jpg, feature).
holds(s_12611_jpg, sign).
holds(s_12611_jpg, table).
holds(s_12611_jpg, tiledrooftop).
holds(s_12611_jpg, vendingmachine).
holds(s_12611_jpg, statue).
holds(s_12611_jpg, pipe).

sample(s_12112_jpg).
holds(s_12112_jpg, building).
holds(s_12112_jpg, feature).
holds(s_12112_jpg, watertreatment).
holds(s_12112_jpg, door).
holds(s_12112_jpg, billboard).
holds(s_12112_jpg, porch).
holds(s_12112_jpg, sign).
holds(s_12112_jpg, tiledroof).
holds(s_12112_jpg, tiledrooftop).
holds(s_12112_jpg, wallsign).
holds(s_12112_jpg, chimney).
holds(s_12112_jpg, pipe).
holds(s_12112_jpg, industrial).

sample(s_11055_jpg).
holds(s_11055_jpg, building).
holds(s_11055_jpg, feature).
holds(s_11055_jpg, hotel).
holds(s_11055_jpg, door).
holds(s_11055_jpg, billboard).
holds(s_11055_jpg, porch).
holds(s_11055_jpg, sign).
holds(s_11055_jpg, tiledroof).
holds(s_11055_jpg, tiledrooftop).
holds(s_11055_jpg, wallsign).
holds(s_11055_jpg, chimney).
holds(s_11055_jpg, pipe).
holds(s_11055_jpg, car).
holds(s_11055_jpg, commercial).

sample(s_1198_jpg).
holds(s_1198_jpg, building).
holds(s_1198_jpg, feature).
holds(s_1198_jpg, watertreatment).
holds(s_1198_jpg, door).
holds(s_1198_jpg, billboard).
holds(s_1198_jpg, porch).
holds(s_1198_jpg, sign).
holds(s_1198_jpg, tiledroof).
holds(s_1198_jpg, wallsign).
holds(s_1198_jpg, industrial).

sample(s_13976_jpg).
holds(s_13976_jpg, building).
holds(s_13976_jpg, feature).
holds(s_13976_jpg, porch).
holds(s_13976_jpg, sign).
holds(s_13976_jpg, table).
holds(s_13976_jpg, tiledrooftop).
holds(s_13976_jpg, vendingmachine).
holds(s_13976_jpg, statue).

sample(s_8608_jpg).
holds(s_8608_jpg, building).
holds(s_8608_jpg, feature).
holds(s_8608_jpg, watertreatment).
holds(s_8608_jpg, door).
holds(s_8608_jpg, billboard).
holds(s_8608_jpg, porch).
holds(s_8608_jpg, sign).
holds(s_8608_jpg, tiledroof).
holds(s_8608_jpg, tiledrooftop).
holds(s_8608_jpg, wallsign).
holds(s_8608_jpg, pipe).
holds(s_8608_jpg, industrial).

sample(s_6491_jpg).
holds(s_6491_jpg, building).
holds(s_6491_jpg, feature).
holds(s_6491_jpg, porch).
holds(s_6491_jpg, sign).
holds(s_6491_jpg, table).
holds(s_6491_jpg, tiledrooftop).
holds(s_6491_jpg, vendingmachine).
holds(s_6491_jpg, statue).
holds(s_6491_jpg, pipe).

sample(s_807_jpg).
holds(s_807_jpg, building).
holds(s_807_jpg, feature).
holds(s_807_jpg, hotel).
holds(s_807_jpg, door).
holds(s_807_jpg, billboard).
holds(s_807_jpg, porch).
holds(s_807_jpg, sign).
holds(s_807_jpg, tiledroof).
holds(s_807_jpg, tiledrooftop).
holds(s_807_jpg, wallsign).
holds(s_807_jpg, chimney).
holds(s_807_jpg, pipe).
holds(s_807_jpg, car).
holds(s_807_jpg, commercial).

sample(s_13771_jpg).
holds(s_13771_jpg, building).
holds(s_13771_jpg, feature).
holds(s_13771_jpg, watertreatment).
holds(s_13771_jpg, door).
holds(s_13771_jpg, billboard).
holds(s_13771_jpg, porch).
holds(s_13771_jpg, sign).
holds(s_13771_jpg, tiledroof).
holds(s_13771_jpg, wallsign).
holds(s_13771_jpg, chimney).
holds(s_13771_jpg, pipe).
holds(s_13771_jpg, industrial).

sample(s_11187_jpg).
holds(s_11187_jpg, building).
holds(s_11187_jpg, feature).
holds(s_11187_jpg, hotel).
holds(s_11187_jpg, billboard).
holds(s_11187_jpg, sign).
holds(s_11187_jpg, table).
holds(s_11187_jpg, tiledroof).
holds(s_11187_jpg, tiledrooftop).
holds(s_11187_jpg, vendingmachine).
holds(s_11187_jpg, statue).
holds(s_11187_jpg, chimney).
holds(s_11187_jpg, pipe).
holds(s_11187_jpg, machine).
holds(s_11187_jpg, car).
holds(s_11187_jpg, commercial).

sample(s_7252_jpg).
holds(s_7252_jpg, building).
holds(s_7252_jpg, feature).
holds(s_7252_jpg, watertreatment).
holds(s_7252_jpg, door).
holds(s_7252_jpg, billboard).
holds(s_7252_jpg, porch).
holds(s_7252_jpg, sign).
holds(s_7252_jpg, tiledroof).
holds(s_7252_jpg, wallsign).
holds(s_7252_jpg, chimney).
holds(s_7252_jpg, pipe).
holds(s_7252_jpg, industrial).

sample(s_4202_jpg).
holds(s_4202_jpg, building).
holds(s_4202_jpg, feature).
holds(s_4202_jpg, sign).
holds(s_4202_jpg, table).
holds(s_4202_jpg, tiledrooftop).
holds(s_4202_jpg, vendingmachine).
holds(s_4202_jpg, statue).
holds(s_4202_jpg, pipe).
holds(s_4202_jpg, machine).

sample(s_1263_jpg).
holds(s_1263_jpg, building).
holds(s_1263_jpg, feature).
holds(s_1263_jpg, hotel).
holds(s_1263_jpg, door).
holds(s_1263_jpg, billboard).
holds(s_1263_jpg, sign).
holds(s_1263_jpg, tiledroof).
holds(s_1263_jpg, tiledrooftop).
holds(s_1263_jpg, wallsign).
holds(s_1263_jpg, chimney).
holds(s_1263_jpg, pipe).
holds(s_1263_jpg, car).
holds(s_1263_jpg, commercial).

sample(s_8368_jpg).
holds(s_8368_jpg, building).
holds(s_8368_jpg, feature).
holds(s_8368_jpg, watertreatment).
holds(s_8368_jpg, door).
holds(s_8368_jpg, billboard).
holds(s_8368_jpg, porch).
holds(s_8368_jpg, sign).
holds(s_8368_jpg, tiledroof).
holds(s_8368_jpg, wallsign).
holds(s_8368_jpg, industrial).

sample(s_13435_jpg).
holds(s_13435_jpg, building).
holds(s_13435_jpg, feature).
holds(s_13435_jpg, watertreatment).
holds(s_13435_jpg, door).
holds(s_13435_jpg, billboard).
holds(s_13435_jpg, sign).
holds(s_13435_jpg, tiledroof).
holds(s_13435_jpg, tiledrooftop).
holds(s_13435_jpg, wallsign).
holds(s_13435_jpg, chimney).
holds(s_13435_jpg, pipe).
holds(s_13435_jpg, industrial).

sample(s_9884_jpg).
holds(s_9884_jpg, building).
holds(s_9884_jpg, feature).
holds(s_9884_jpg, window).
holds(s_9884_jpg, porch).
holds(s_9884_jpg, sign).
holds(s_9884_jpg, table).
holds(s_9884_jpg, tiledrooftop).
holds(s_9884_jpg, vendingmachine).
holds(s_9884_jpg, statue).
holds(s_9884_jpg, pipe).

sample(s_9392_jpg).
holds(s_9392_jpg, building).
holds(s_9392_jpg, feature).
holds(s_9392_jpg, sign).
holds(s_9392_jpg, table).
holds(s_9392_jpg, tiledrooftop).
holds(s_9392_jpg, vendingmachine).
holds(s_9392_jpg, statue).
holds(s_9392_jpg, pipe).

sample(s_2720_jpg).
holds(s_2720_jpg, building).
holds(s_2720_jpg, feature).
holds(s_2720_jpg, sign).
holds(s_2720_jpg, table).
holds(s_2720_jpg, tiledrooftop).
holds(s_2720_jpg, vendingmachine).
holds(s_2720_jpg, statue).
holds(s_2720_jpg, pipe).

sample(s_423_jpg).
holds(s_423_jpg, building).
holds(s_423_jpg, feature).
holds(s_423_jpg, hotel).
holds(s_423_jpg, door).
holds(s_423_jpg, billboard).
holds(s_423_jpg, sign).
holds(s_423_jpg, tiledroof).
holds(s_423_jpg, tiledrooftop).
holds(s_423_jpg, wallsign).
holds(s_423_jpg, chimney).
holds(s_423_jpg, pipe).
holds(s_423_jpg, car).
holds(s_423_jpg, commercial).

sample(s_12499_jpg).
holds(s_12499_jpg, building).
holds(s_12499_jpg, feature).
holds(s_12499_jpg, watertreatment).
holds(s_12499_jpg, door).
holds(s_12499_jpg, billboard).
holds(s_12499_jpg, porch).
holds(s_12499_jpg, sign).
holds(s_12499_jpg, tiledroof).
holds(s_12499_jpg, tiledrooftop).
holds(s_12499_jpg, wallsign).
holds(s_12499_jpg, pipe).
holds(s_12499_jpg, industrial).

sample(s_10463_jpg).
holds(s_10463_jpg, building).
holds(s_10463_jpg, feature).
holds(s_10463_jpg, sign).
holds(s_10463_jpg, table).
holds(s_10463_jpg, tiledrooftop).
holds(s_10463_jpg, vendingmachine).
holds(s_10463_jpg, statue).
holds(s_10463_jpg, pipe).

sample(s_2286_jpg).
holds(s_2286_jpg, building).
holds(s_2286_jpg, feature).
holds(s_2286_jpg, hotel).
holds(s_2286_jpg, billboard).
holds(s_2286_jpg, sign).
holds(s_2286_jpg, table).
holds(s_2286_jpg, tiledroof).
holds(s_2286_jpg, tiledrooftop).
holds(s_2286_jpg, vendingmachine).
holds(s_2286_jpg, wallsign).
holds(s_2286_jpg, chimney).
holds(s_2286_jpg, pipe).
holds(s_2286_jpg, machine).
holds(s_2286_jpg, car).
holds(s_2286_jpg, commercial).

sample(s_5673_jpg).
holds(s_5673_jpg, building).
holds(s_5673_jpg, feature).
holds(s_5673_jpg, hotel).
holds(s_5673_jpg, door).
holds(s_5673_jpg, billboard).
holds(s_5673_jpg, porch).
holds(s_5673_jpg, sign).
holds(s_5673_jpg, tiledroof).
holds(s_5673_jpg, tiledrooftop).
holds(s_5673_jpg, wallsign).
holds(s_5673_jpg, chimney).
holds(s_5673_jpg, pipe).
holds(s_5673_jpg, car).
holds(s_5673_jpg, commercial).

sample(s_5745_jpg).
holds(s_5745_jpg, building).
holds(s_5745_jpg, feature).
holds(s_5745_jpg, hotel).
holds(s_5745_jpg, billboard).
holds(s_5745_jpg, porch).
holds(s_5745_jpg, sign).
holds(s_5745_jpg, table).
holds(s_5745_jpg, tiledroof).
holds(s_5745_jpg, tiledrooftop).
holds(s_5745_jpg, vendingmachine).
holds(s_5745_jpg, wallsign).
holds(s_5745_jpg, chimney).
holds(s_5745_jpg, pipe).
holds(s_5745_jpg, machine).
holds(s_5745_jpg, car).
holds(s_5745_jpg, commercial).

sample(s_8444_jpg).
holds(s_8444_jpg, building).
holds(s_8444_jpg, feature).
holds(s_8444_jpg, porch).
holds(s_8444_jpg, sign).
holds(s_8444_jpg, table).
holds(s_8444_jpg, tiledrooftop).
holds(s_8444_jpg, vendingmachine).
holds(s_8444_jpg, statue).
holds(s_8444_jpg, pipe).
holds(s_8444_jpg, machine).

sample(s_3317_jpg).
holds(s_3317_jpg, building).
holds(s_3317_jpg, feature).
holds(s_3317_jpg, window).
holds(s_3317_jpg, porch).
holds(s_3317_jpg, sign).
holds(s_3317_jpg, table).
holds(s_3317_jpg, tiledrooftop).
holds(s_3317_jpg, vendingmachine).
holds(s_3317_jpg, statue).
holds(s_3317_jpg, pipe).

sample(s_965_jpg).
holds(s_965_jpg, building).
holds(s_965_jpg, feature).
holds(s_965_jpg, sign).
holds(s_965_jpg, table).
holds(s_965_jpg, tiledrooftop).
holds(s_965_jpg, vendingmachine).
holds(s_965_jpg, statue).
holds(s_965_jpg, pipe).

sample(s_5064_jpg).
holds(s_5064_jpg, building).
holds(s_5064_jpg, feature).
holds(s_5064_jpg, hotel).
holds(s_5064_jpg, door).
holds(s_5064_jpg, billboard).
holds(s_5064_jpg, porch).
holds(s_5064_jpg, sign).
holds(s_5064_jpg, tiledroof).
holds(s_5064_jpg, tiledrooftop).
holds(s_5064_jpg, wallsign).
holds(s_5064_jpg, chimney).
holds(s_5064_jpg, pipe).
holds(s_5064_jpg, car).
holds(s_5064_jpg, commercial).

sample(s_2594_jpg).
holds(s_2594_jpg, building).
holds(s_2594_jpg, feature).
holds(s_2594_jpg, porch).
holds(s_2594_jpg, sign).
holds(s_2594_jpg, table).
holds(s_2594_jpg, tiledrooftop).
holds(s_2594_jpg, vendingmachine).
holds(s_2594_jpg, statue).
holds(s_2594_jpg, pipe).

sample(s_2283_jpg).
holds(s_2283_jpg, building).
holds(s_2283_jpg, feature).
holds(s_2283_jpg, hotel).
holds(s_2283_jpg, billboard).
holds(s_2283_jpg, porch).
holds(s_2283_jpg, sign).
holds(s_2283_jpg, table).
holds(s_2283_jpg, tiledroof).
holds(s_2283_jpg, tiledrooftop).
holds(s_2283_jpg, vendingmachine).
holds(s_2283_jpg, statue).
holds(s_2283_jpg, chimney).
holds(s_2283_jpg, pipe).
holds(s_2283_jpg, machine).
holds(s_2283_jpg, car).
holds(s_2283_jpg, commercial).

sample(s_5090_jpg).
holds(s_5090_jpg, building).
holds(s_5090_jpg, feature).
holds(s_5090_jpg, window).
holds(s_5090_jpg, porch).
holds(s_5090_jpg, table).
holds(s_5090_jpg, tiledrooftop).
holds(s_5090_jpg, vendingmachine).
holds(s_5090_jpg, statue).

sample(s_8445_jpg).
holds(s_8445_jpg, building).
holds(s_8445_jpg, feature).
holds(s_8445_jpg, hotel).
holds(s_8445_jpg, door).
holds(s_8445_jpg, billboard).
holds(s_8445_jpg, sign).
holds(s_8445_jpg, tiledroof).
holds(s_8445_jpg, tiledrooftop).
holds(s_8445_jpg, wallsign).
holds(s_8445_jpg, chimney).
holds(s_8445_jpg, pipe).
holds(s_8445_jpg, car).
holds(s_8445_jpg, commercial).

sample(s_7519_jpg).
holds(s_7519_jpg, building).
holds(s_7519_jpg, feature).
holds(s_7519_jpg, watertreatment).
holds(s_7519_jpg, door).
holds(s_7519_jpg, billboard).
holds(s_7519_jpg, porch).
holds(s_7519_jpg, sign).
holds(s_7519_jpg, tiledroof).
holds(s_7519_jpg, wallsign).
holds(s_7519_jpg, industrial).

sample(s_13125_jpg).
holds(s_13125_jpg, building).
holds(s_13125_jpg, feature).
holds(s_13125_jpg, hotel).
holds(s_13125_jpg, door).
holds(s_13125_jpg, billboard).
holds(s_13125_jpg, porch).
holds(s_13125_jpg, sign).
holds(s_13125_jpg, table).
holds(s_13125_jpg, tiledroof).
holds(s_13125_jpg, tiledrooftop).
holds(s_13125_jpg, vendingmachine).
holds(s_13125_jpg, wallsign).
holds(s_13125_jpg, chimney).
holds(s_13125_jpg, pipe).
holds(s_13125_jpg, car).
holds(s_13125_jpg, commercial).

sample(s_8080_jpg).
holds(s_8080_jpg, building).
holds(s_8080_jpg, feature).
holds(s_8080_jpg, watertreatment).
holds(s_8080_jpg, door).
holds(s_8080_jpg, billboard).
holds(s_8080_jpg, porch).
holds(s_8080_jpg, sign).
holds(s_8080_jpg, tiledroof).
holds(s_8080_jpg, wallsign).
holds(s_8080_jpg, industrial).

sample(s_11984_jpg).
holds(s_11984_jpg, building).
holds(s_11984_jpg, feature).
holds(s_11984_jpg, sign).
holds(s_11984_jpg, table).
holds(s_11984_jpg, tiledrooftop).
holds(s_11984_jpg, vendingmachine).
holds(s_11984_jpg, statue).
holds(s_11984_jpg, pipe).
holds(s_11984_jpg, machine).

sample(s_8140_jpg).
holds(s_8140_jpg, building).
holds(s_8140_jpg, feature).
holds(s_8140_jpg, watertreatment).
holds(s_8140_jpg, door).
holds(s_8140_jpg, billboard).
holds(s_8140_jpg, porch).
holds(s_8140_jpg, sign).
holds(s_8140_jpg, tiledroof).
holds(s_8140_jpg, tiledrooftop).
holds(s_8140_jpg, wallsign).
holds(s_8140_jpg, industrial).

sample(s_8738_jpg).
holds(s_8738_jpg, building).
holds(s_8738_jpg, feature).
holds(s_8738_jpg, porch).
holds(s_8738_jpg, sign).
holds(s_8738_jpg, table).
holds(s_8738_jpg, tiledrooftop).
holds(s_8738_jpg, vendingmachine).
holds(s_8738_jpg, statue).
holds(s_8738_jpg, pipe).

sample(s_8167_jpg).
holds(s_8167_jpg, building).
holds(s_8167_jpg, feature).
holds(s_8167_jpg, watertreatment).
holds(s_8167_jpg, door).
holds(s_8167_jpg, billboard).
holds(s_8167_jpg, porch).
holds(s_8167_jpg, sign).
holds(s_8167_jpg, tiledroof).
holds(s_8167_jpg, tiledrooftop).
holds(s_8167_jpg, wallsign).
holds(s_8167_jpg, pipe).
holds(s_8167_jpg, industrial).

sample(s_9730_jpg).
holds(s_9730_jpg, building).
holds(s_9730_jpg, feature).
holds(s_9730_jpg, watertreatment).
holds(s_9730_jpg, door).
holds(s_9730_jpg, billboard).
holds(s_9730_jpg, porch).
holds(s_9730_jpg, sign).
holds(s_9730_jpg, tiledroof).
holds(s_9730_jpg, tiledrooftop).
holds(s_9730_jpg, wallsign).
holds(s_9730_jpg, pipe).
holds(s_9730_jpg, industrial).

sample(s_2119_jpg).
holds(s_2119_jpg, building).
holds(s_2119_jpg, feature).
holds(s_2119_jpg, watertreatment).
holds(s_2119_jpg, door).
holds(s_2119_jpg, billboard).
holds(s_2119_jpg, porch).
holds(s_2119_jpg, sign).
holds(s_2119_jpg, tiledroof).
holds(s_2119_jpg, wallsign).
holds(s_2119_jpg, chimney).
holds(s_2119_jpg, pipe).
holds(s_2119_jpg, industrial).

sample(s_4737_jpg).
holds(s_4737_jpg, building).
holds(s_4737_jpg, feature).
holds(s_4737_jpg, hotel).
holds(s_4737_jpg, door).
holds(s_4737_jpg, billboard).
holds(s_4737_jpg, porch).
holds(s_4737_jpg, sign).
holds(s_4737_jpg, tiledroof).
holds(s_4737_jpg, tiledrooftop).
holds(s_4737_jpg, wallsign).
holds(s_4737_jpg, chimney).
holds(s_4737_jpg, pipe).
holds(s_4737_jpg, car).
holds(s_4737_jpg, commercial).

sample(s_4136_jpg).
holds(s_4136_jpg, building).
holds(s_4136_jpg, feature).
holds(s_4136_jpg, sign).
holds(s_4136_jpg, table).
holds(s_4136_jpg, tiledrooftop).
holds(s_4136_jpg, vendingmachine).
holds(s_4136_jpg, statue).
holds(s_4136_jpg, pipe).
holds(s_4136_jpg, machine).

sample(s_11281_jpg).
holds(s_11281_jpg, building).
holds(s_11281_jpg, feature).
holds(s_11281_jpg, watertreatment).
holds(s_11281_jpg, door).
holds(s_11281_jpg, billboard).
holds(s_11281_jpg, porch).
holds(s_11281_jpg, sign).
holds(s_11281_jpg, tiledroof).
holds(s_11281_jpg, wallsign).
holds(s_11281_jpg, industrial).

sample(s_7846_jpg).
holds(s_7846_jpg, building).
holds(s_7846_jpg, feature).
holds(s_7846_jpg, watertreatment).
holds(s_7846_jpg, door).
holds(s_7846_jpg, billboard).
holds(s_7846_jpg, porch).
holds(s_7846_jpg, sign).
holds(s_7846_jpg, tiledroof).
holds(s_7846_jpg, tiledrooftop).
holds(s_7846_jpg, wallsign).
holds(s_7846_jpg, pipe).
holds(s_7846_jpg, industrial).

sample(s_2453_jpg).
holds(s_2453_jpg, building).
holds(s_2453_jpg, feature).
holds(s_2453_jpg, sign).
holds(s_2453_jpg, table).
holds(s_2453_jpg, tiledrooftop).
holds(s_2453_jpg, vendingmachine).
holds(s_2453_jpg, statue).
holds(s_2453_jpg, pipe).
holds(s_2453_jpg, machine).

sample(s_12247_jpg).
holds(s_12247_jpg, building).
holds(s_12247_jpg, feature).
holds(s_12247_jpg, watertreatment).
holds(s_12247_jpg, door).
holds(s_12247_jpg, billboard).
holds(s_12247_jpg, sign).
holds(s_12247_jpg, tiledroof).
holds(s_12247_jpg, tiledrooftop).
holds(s_12247_jpg, wallsign).
holds(s_12247_jpg, pipe).
holds(s_12247_jpg, industrial).

sample(s_13115_jpg).
holds(s_13115_jpg, building).
holds(s_13115_jpg, feature).
holds(s_13115_jpg, sign).
holds(s_13115_jpg, table).
holds(s_13115_jpg, tiledrooftop).
holds(s_13115_jpg, vendingmachine).
holds(s_13115_jpg, statue).
holds(s_13115_jpg, pipe).

sample(s_11294_jpg).
holds(s_11294_jpg, building).
holds(s_11294_jpg, feature).
holds(s_11294_jpg, sign).
holds(s_11294_jpg, table).
holds(s_11294_jpg, tiledrooftop).
holds(s_11294_jpg, vendingmachine).
holds(s_11294_jpg, statue).
holds(s_11294_jpg, pipe).

sample(s_8752_jpg).
holds(s_8752_jpg, building).
holds(s_8752_jpg, feature).
holds(s_8752_jpg, watertreatment).
holds(s_8752_jpg, door).
holds(s_8752_jpg, billboard).
holds(s_8752_jpg, porch).
holds(s_8752_jpg, sign).
holds(s_8752_jpg, tiledroof).
holds(s_8752_jpg, wallsign).
holds(s_8752_jpg, chimney).
holds(s_8752_jpg, pipe).
holds(s_8752_jpg, industrial).

sample(s_6315_jpg).
holds(s_6315_jpg, building).
holds(s_6315_jpg, feature).
holds(s_6315_jpg, hotel).
holds(s_6315_jpg, billboard).
holds(s_6315_jpg, porch).
holds(s_6315_jpg, sign).
holds(s_6315_jpg, table).
holds(s_6315_jpg, tiledroof).
holds(s_6315_jpg, tiledrooftop).
holds(s_6315_jpg, vendingmachine).
holds(s_6315_jpg, wallsign).
holds(s_6315_jpg, chimney).
holds(s_6315_jpg, pipe).
holds(s_6315_jpg, machine).
holds(s_6315_jpg, car).
holds(s_6315_jpg, commercial).

sample(s_4536_jpg).
holds(s_4536_jpg, building).
holds(s_4536_jpg, feature).
holds(s_4536_jpg, hotel).
holds(s_4536_jpg, door).
holds(s_4536_jpg, billboard).
holds(s_4536_jpg, sign).
holds(s_4536_jpg, tiledroof).
holds(s_4536_jpg, tiledrooftop).
holds(s_4536_jpg, wallsign).
holds(s_4536_jpg, chimney).
holds(s_4536_jpg, pipe).
holds(s_4536_jpg, car).
holds(s_4536_jpg, commercial).

sample(s_6021_jpg).
holds(s_6021_jpg, building).
holds(s_6021_jpg, feature).
holds(s_6021_jpg, hotel).
holds(s_6021_jpg, porch).
holds(s_6021_jpg, sign).
holds(s_6021_jpg, table).
holds(s_6021_jpg, tiledroof).
holds(s_6021_jpg, tiledrooftop).
holds(s_6021_jpg, vendingmachine).
holds(s_6021_jpg, statue).
holds(s_6021_jpg, pipe).
holds(s_6021_jpg, commercial).

sample(s_236_jpg).
holds(s_236_jpg, building).
holds(s_236_jpg, feature).
holds(s_236_jpg, window).
holds(s_236_jpg, porch).
holds(s_236_jpg, sign).
holds(s_236_jpg, table).
holds(s_236_jpg, tiledrooftop).
holds(s_236_jpg, vendingmachine).
holds(s_236_jpg, statue).
holds(s_236_jpg, pipe).

sample(s_8660_jpg).
holds(s_8660_jpg, building).
holds(s_8660_jpg, feature).
holds(s_8660_jpg, sign).
holds(s_8660_jpg, table).
holds(s_8660_jpg, tiledrooftop).
holds(s_8660_jpg, vendingmachine).
holds(s_8660_jpg, statue).
holds(s_8660_jpg, pipe).
holds(s_8660_jpg, machine).

sample(s_218_jpg).
holds(s_218_jpg, building).
holds(s_218_jpg, feature).
holds(s_218_jpg, sign).
holds(s_218_jpg, table).
holds(s_218_jpg, tiledrooftop).
holds(s_218_jpg, vendingmachine).
holds(s_218_jpg, statue).
holds(s_218_jpg, pipe).

sample(s_7756_jpg).
holds(s_7756_jpg, building).
holds(s_7756_jpg, feature).
holds(s_7756_jpg, watertreatment).
holds(s_7756_jpg, door).
holds(s_7756_jpg, billboard).
holds(s_7756_jpg, porch).
holds(s_7756_jpg, sign).
holds(s_7756_jpg, tiledroof).
holds(s_7756_jpg, tiledrooftop).
holds(s_7756_jpg, wallsign).
holds(s_7756_jpg, industrial).

sample(s_9381_jpg).
holds(s_9381_jpg, building).
holds(s_9381_jpg, feature).
holds(s_9381_jpg, hotel).
holds(s_9381_jpg, door).
holds(s_9381_jpg, billboard).
holds(s_9381_jpg, porch).
holds(s_9381_jpg, sign).
holds(s_9381_jpg, tiledroof).
holds(s_9381_jpg, tiledrooftop).
holds(s_9381_jpg, vendingmachine).
holds(s_9381_jpg, wallsign).
holds(s_9381_jpg, chimney).
holds(s_9381_jpg, pipe).
holds(s_9381_jpg, car).
holds(s_9381_jpg, commercial).

sample(s_12671_jpg).
holds(s_12671_jpg, building).
holds(s_12671_jpg, feature).
holds(s_12671_jpg, window).
holds(s_12671_jpg, porch).
holds(s_12671_jpg, sign).
holds(s_12671_jpg, table).
holds(s_12671_jpg, tiledrooftop).
holds(s_12671_jpg, vendingmachine).
holds(s_12671_jpg, statue).
holds(s_12671_jpg, pipe).

sample(s_1694_jpg).
holds(s_1694_jpg, building).
holds(s_1694_jpg, feature).
holds(s_1694_jpg, porch).
holds(s_1694_jpg, sign).
holds(s_1694_jpg, table).
holds(s_1694_jpg, tiledrooftop).
holds(s_1694_jpg, vendingmachine).
holds(s_1694_jpg, statue).
holds(s_1694_jpg, pipe).

sample(s_14711_jpg).
holds(s_14711_jpg, building).
holds(s_14711_jpg, feature).
holds(s_14711_jpg, porch).
holds(s_14711_jpg, sign).
holds(s_14711_jpg, table).
holds(s_14711_jpg, tiledrooftop).
holds(s_14711_jpg, vendingmachine).
holds(s_14711_jpg, statue).
holds(s_14711_jpg, pipe).
holds(s_14711_jpg, machine).

sample(s_2566_jpg).
holds(s_2566_jpg, building).
holds(s_2566_jpg, feature).
holds(s_2566_jpg, watertreatment).
holds(s_2566_jpg, door).
holds(s_2566_jpg, billboard).
holds(s_2566_jpg, porch).
holds(s_2566_jpg, sign).
holds(s_2566_jpg, tiledroof).
holds(s_2566_jpg, tiledrooftop).
holds(s_2566_jpg, wallsign).
holds(s_2566_jpg, pipe).
holds(s_2566_jpg, industrial).

sample(s_12763_jpg).
holds(s_12763_jpg, building).
holds(s_12763_jpg, feature).
holds(s_12763_jpg, watertreatment).
holds(s_12763_jpg, door).
holds(s_12763_jpg, billboard).
holds(s_12763_jpg, sign).
holds(s_12763_jpg, tiledroof).
holds(s_12763_jpg, tiledrooftop).
holds(s_12763_jpg, wallsign).
holds(s_12763_jpg, pipe).
holds(s_12763_jpg, industrial).

sample(s_11333_jpg).
holds(s_11333_jpg, building).
holds(s_11333_jpg, feature).
holds(s_11333_jpg, porch).
holds(s_11333_jpg, sign).
holds(s_11333_jpg, table).
holds(s_11333_jpg, tiledrooftop).
holds(s_11333_jpg, vendingmachine).
holds(s_11333_jpg, statue).
holds(s_11333_jpg, pipe).
holds(s_11333_jpg, machine).

sample(s_4832_jpg).
holds(s_4832_jpg, building).
holds(s_4832_jpg, feature).
holds(s_4832_jpg, sign).
holds(s_4832_jpg, table).
holds(s_4832_jpg, tiledrooftop).
holds(s_4832_jpg, vendingmachine).
holds(s_4832_jpg, statue).
holds(s_4832_jpg, pipe).

sample(s_9824_jpg).
holds(s_9824_jpg, building).
holds(s_9824_jpg, feature).
holds(s_9824_jpg, sign).
holds(s_9824_jpg, table).
holds(s_9824_jpg, tiledrooftop).
holds(s_9824_jpg, vendingmachine).
holds(s_9824_jpg, statue).
holds(s_9824_jpg, pipe).

sample(s_5111_jpg).
holds(s_5111_jpg, building).
holds(s_5111_jpg, feature).
holds(s_5111_jpg, sign).
holds(s_5111_jpg, table).
holds(s_5111_jpg, tiledrooftop).
holds(s_5111_jpg, vendingmachine).
holds(s_5111_jpg, statue).
holds(s_5111_jpg, pipe).
holds(s_5111_jpg, machine).

sample(s_13065_jpg).
holds(s_13065_jpg, building).
holds(s_13065_jpg, feature).
holds(s_13065_jpg, hotel).
holds(s_13065_jpg, door).
holds(s_13065_jpg, billboard).
holds(s_13065_jpg, porch).
holds(s_13065_jpg, sign).
holds(s_13065_jpg, tiledroof).
holds(s_13065_jpg, tiledrooftop).
holds(s_13065_jpg, vendingmachine).
holds(s_13065_jpg, wallsign).
holds(s_13065_jpg, chimney).
holds(s_13065_jpg, pipe).
holds(s_13065_jpg, car).
holds(s_13065_jpg, commercial).

sample(s_1714_jpg).
holds(s_1714_jpg, building).
holds(s_1714_jpg, feature).
holds(s_1714_jpg, watertreatment).
holds(s_1714_jpg, door).
holds(s_1714_jpg, billboard).
holds(s_1714_jpg, porch).
holds(s_1714_jpg, sign).
holds(s_1714_jpg, tiledroof).
holds(s_1714_jpg, tiledrooftop).
holds(s_1714_jpg, wallsign).
holds(s_1714_jpg, industrial).

sample(s_2130_jpg).
holds(s_2130_jpg, building).
holds(s_2130_jpg, feature).
holds(s_2130_jpg, hotel).
holds(s_2130_jpg, door).
holds(s_2130_jpg, billboard).
holds(s_2130_jpg, porch).
holds(s_2130_jpg, sign).
holds(s_2130_jpg, tiledroof).
holds(s_2130_jpg, tiledrooftop).
holds(s_2130_jpg, wallsign).
holds(s_2130_jpg, chimney).
holds(s_2130_jpg, pipe).
holds(s_2130_jpg, car).
holds(s_2130_jpg, commercial).

sample(s_11255_jpg).
holds(s_11255_jpg, building).
holds(s_11255_jpg, feature).
holds(s_11255_jpg, billboard).
holds(s_11255_jpg, sign).
holds(s_11255_jpg, table).
holds(s_11255_jpg, tiledrooftop).
holds(s_11255_jpg, vendingmachine).
holds(s_11255_jpg, statue).
holds(s_11255_jpg, pipe).
holds(s_11255_jpg, machine).

sample(s_11383_jpg).
holds(s_11383_jpg, building).
holds(s_11383_jpg, feature).
holds(s_11383_jpg, watertreatment).
holds(s_11383_jpg, door).
holds(s_11383_jpg, billboard).
holds(s_11383_jpg, porch).
holds(s_11383_jpg, sign).
holds(s_11383_jpg, tiledroof).
holds(s_11383_jpg, wallsign).
holds(s_11383_jpg, industrial).

sample(s_7806_jpg).
holds(s_7806_jpg, building).
holds(s_7806_jpg, feature).
holds(s_7806_jpg, hotel).
holds(s_7806_jpg, door).
holds(s_7806_jpg, billboard).
holds(s_7806_jpg, porch).
holds(s_7806_jpg, sign).
holds(s_7806_jpg, tiledroof).
holds(s_7806_jpg, tiledrooftop).
holds(s_7806_jpg, wallsign).
holds(s_7806_jpg, chimney).
holds(s_7806_jpg, pipe).
holds(s_7806_jpg, car).
holds(s_7806_jpg, commercial).

sample(s_3434_jpg).
holds(s_3434_jpg, building).
holds(s_3434_jpg, feature).
holds(s_3434_jpg, sign).
holds(s_3434_jpg, table).
holds(s_3434_jpg, tiledrooftop).
holds(s_3434_jpg, vendingmachine).
holds(s_3434_jpg, statue).
holds(s_3434_jpg, pipe).
holds(s_3434_jpg, machine).

sample(s_7648_jpg).
holds(s_7648_jpg, building).
holds(s_7648_jpg, feature).
holds(s_7648_jpg, watertreatment).
holds(s_7648_jpg, door).
holds(s_7648_jpg, billboard).
holds(s_7648_jpg, porch).
holds(s_7648_jpg, sign).
holds(s_7648_jpg, tiledroof).
holds(s_7648_jpg, wallsign).
holds(s_7648_jpg, pipe).
holds(s_7648_jpg, industrial).

sample(s_842_jpg).
holds(s_842_jpg, building).
holds(s_842_jpg, feature).
holds(s_842_jpg, sign).
holds(s_842_jpg, table).
holds(s_842_jpg, tiledrooftop).
holds(s_842_jpg, vendingmachine).
holds(s_842_jpg, statue).
holds(s_842_jpg, pipe).

sample(s_7493_jpg).
holds(s_7493_jpg, building).
holds(s_7493_jpg, feature).
holds(s_7493_jpg, sign).
holds(s_7493_jpg, table).
holds(s_7493_jpg, tiledrooftop).
holds(s_7493_jpg, vendingmachine).
holds(s_7493_jpg, statue).
holds(s_7493_jpg, pipe).

sample(s_13636_jpg).
holds(s_13636_jpg, building).
holds(s_13636_jpg, feature).
holds(s_13636_jpg, watertreatment).
holds(s_13636_jpg, door).
holds(s_13636_jpg, billboard).
holds(s_13636_jpg, porch).
holds(s_13636_jpg, sign).
holds(s_13636_jpg, tiledroof).
holds(s_13636_jpg, wallsign).
holds(s_13636_jpg, chimney).
holds(s_13636_jpg, pipe).
holds(s_13636_jpg, car).
holds(s_13636_jpg, industrial).

sample(s_8796_jpg).
holds(s_8796_jpg, building).
holds(s_8796_jpg, feature).
holds(s_8796_jpg, hotel).
holds(s_8796_jpg, billboard).
holds(s_8796_jpg, porch).
holds(s_8796_jpg, sign).
holds(s_8796_jpg, table).
holds(s_8796_jpg, tiledroof).
holds(s_8796_jpg, tiledrooftop).
holds(s_8796_jpg, vendingmachine).
holds(s_8796_jpg, statue).
holds(s_8796_jpg, chimney).
holds(s_8796_jpg, pipe).
holds(s_8796_jpg, machine).
holds(s_8796_jpg, car).
holds(s_8796_jpg, commercial).

sample(s_14045_jpg).
holds(s_14045_jpg, building).
holds(s_14045_jpg, feature).
holds(s_14045_jpg, window).
holds(s_14045_jpg, porch).
holds(s_14045_jpg, table).
holds(s_14045_jpg, tiledrooftop).
holds(s_14045_jpg, vendingmachine).
holds(s_14045_jpg, statue).

sample(s_9557_jpg).
holds(s_9557_jpg, building).
holds(s_9557_jpg, feature).
holds(s_9557_jpg, sign).
holds(s_9557_jpg, table).
holds(s_9557_jpg, tiledrooftop).
holds(s_9557_jpg, vendingmachine).
holds(s_9557_jpg, statue).
holds(s_9557_jpg, pipe).
holds(s_9557_jpg, machine).

sample(s_14930_jpg).
holds(s_14930_jpg, building).
holds(s_14930_jpg, feature).
holds(s_14930_jpg, porch).
holds(s_14930_jpg, sign).
holds(s_14930_jpg, table).
holds(s_14930_jpg, tiledrooftop).
holds(s_14930_jpg, vendingmachine).
holds(s_14930_jpg, statue).
holds(s_14930_jpg, pipe).

sample(s_11032_jpg).
holds(s_11032_jpg, building).
holds(s_11032_jpg, feature).
holds(s_11032_jpg, watertreatment).
holds(s_11032_jpg, door).
holds(s_11032_jpg, billboard).
holds(s_11032_jpg, porch).
holds(s_11032_jpg, sign).
holds(s_11032_jpg, tiledroof).
holds(s_11032_jpg, wallsign).
holds(s_11032_jpg, industrial).

sample(s_544_jpg).
holds(s_544_jpg, building).
holds(s_544_jpg, feature).
holds(s_544_jpg, watertreatment).
holds(s_544_jpg, door).
holds(s_544_jpg, billboard).
holds(s_544_jpg, porch).
holds(s_544_jpg, sign).
holds(s_544_jpg, tiledroof).
holds(s_544_jpg, tiledrooftop).
holds(s_544_jpg, wallsign).
holds(s_544_jpg, pipe).
holds(s_544_jpg, industrial).

sample(s_14495_jpg).
holds(s_14495_jpg, building).
holds(s_14495_jpg, feature).
holds(s_14495_jpg, sign).
holds(s_14495_jpg, table).
holds(s_14495_jpg, tiledrooftop).
holds(s_14495_jpg, vendingmachine).
holds(s_14495_jpg, statue).
holds(s_14495_jpg, pipe).

sample(s_4829_jpg).
holds(s_4829_jpg, building).
holds(s_4829_jpg, feature).
holds(s_4829_jpg, sign).
holds(s_4829_jpg, table).
holds(s_4829_jpg, tiledrooftop).
holds(s_4829_jpg, vendingmachine).
holds(s_4829_jpg, statue).
holds(s_4829_jpg, pipe).
holds(s_4829_jpg, machine).

sample(s_144_jpg).
holds(s_144_jpg, building).
holds(s_144_jpg, feature).
holds(s_144_jpg, billboard).
holds(s_144_jpg, porch).
holds(s_144_jpg, sign).
holds(s_144_jpg, table).
holds(s_144_jpg, tiledroof).
holds(s_144_jpg, tiledrooftop).
holds(s_144_jpg, vendingmachine).
holds(s_144_jpg, statue).
holds(s_144_jpg, pipe).
holds(s_144_jpg, commercial).

sample(s_1662_jpg).
holds(s_1662_jpg, building).
holds(s_1662_jpg, feature).
holds(s_1662_jpg, hotel).
holds(s_1662_jpg, billboard).
holds(s_1662_jpg, sign).
holds(s_1662_jpg, table).
holds(s_1662_jpg, tiledroof).
holds(s_1662_jpg, tiledrooftop).
holds(s_1662_jpg, vendingmachine).
holds(s_1662_jpg, wallsign).
holds(s_1662_jpg, chimney).
holds(s_1662_jpg, pipe).
holds(s_1662_jpg, machine).
holds(s_1662_jpg, car).
holds(s_1662_jpg, commercial).

sample(s_14912_jpg).
holds(s_14912_jpg, building).
holds(s_14912_jpg, feature).
holds(s_14912_jpg, porch).
holds(s_14912_jpg, sign).
holds(s_14912_jpg, table).
holds(s_14912_jpg, tiledrooftop).
holds(s_14912_jpg, vendingmachine).
holds(s_14912_jpg, statue).
holds(s_14912_jpg, pipe).
holds(s_14912_jpg, machine).

sample(s_8962_jpg).
holds(s_8962_jpg, building).
holds(s_8962_jpg, feature).
holds(s_8962_jpg, watertreatment).
holds(s_8962_jpg, door).
holds(s_8962_jpg, billboard).
holds(s_8962_jpg, porch).
holds(s_8962_jpg, sign).
holds(s_8962_jpg, tiledroof).
holds(s_8962_jpg, tiledrooftop).
holds(s_8962_jpg, wallsign).
holds(s_8962_jpg, industrial).

sample(s_884_jpg).
holds(s_884_jpg, building).
holds(s_884_jpg, feature).
holds(s_884_jpg, sign).
holds(s_884_jpg, table).
holds(s_884_jpg, tiledrooftop).
holds(s_884_jpg, vendingmachine).
holds(s_884_jpg, statue).
holds(s_884_jpg, pipe).

sample(s_8322_jpg).
holds(s_8322_jpg, building).
holds(s_8322_jpg, feature).
holds(s_8322_jpg, hotel).
holds(s_8322_jpg, billboard).
holds(s_8322_jpg, sign).
holds(s_8322_jpg, tiledroof).
holds(s_8322_jpg, tiledrooftop).
holds(s_8322_jpg, wallsign).
holds(s_8322_jpg, chimney).
holds(s_8322_jpg, pipe).
holds(s_8322_jpg, machine).
holds(s_8322_jpg, car).
holds(s_8322_jpg, commercial).

sample(s_4869_jpg).
holds(s_4869_jpg, building).
holds(s_4869_jpg, feature).
holds(s_4869_jpg, hotel).
holds(s_4869_jpg, billboard).
holds(s_4869_jpg, sign).
holds(s_4869_jpg, tiledroof).
holds(s_4869_jpg, tiledrooftop).
holds(s_4869_jpg, chimney).
holds(s_4869_jpg, pipe).
holds(s_4869_jpg, machine).
holds(s_4869_jpg, car).
holds(s_4869_jpg, commercial).

sample(s_10301_jpg).
holds(s_10301_jpg, building).
holds(s_10301_jpg, feature).
holds(s_10301_jpg, sign).
holds(s_10301_jpg, table).
holds(s_10301_jpg, tiledrooftop).
holds(s_10301_jpg, vendingmachine).
holds(s_10301_jpg, statue).
holds(s_10301_jpg, pipe).
holds(s_10301_jpg, machine).

sample(s_8111_jpg).
holds(s_8111_jpg, building).
holds(s_8111_jpg, feature).
holds(s_8111_jpg, sign).
holds(s_8111_jpg, table).
holds(s_8111_jpg, tiledrooftop).
holds(s_8111_jpg, vendingmachine).
holds(s_8111_jpg, statue).
holds(s_8111_jpg, pipe).
holds(s_8111_jpg, machine).

sample(s_2322_jpg).
holds(s_2322_jpg, building).
holds(s_2322_jpg, feature).
holds(s_2322_jpg, hotel).
holds(s_2322_jpg, door).
holds(s_2322_jpg, billboard).
holds(s_2322_jpg, porch).
holds(s_2322_jpg, sign).
holds(s_2322_jpg, tiledroof).
holds(s_2322_jpg, tiledrooftop).
holds(s_2322_jpg, wallsign).
holds(s_2322_jpg, chimney).
holds(s_2322_jpg, pipe).
holds(s_2322_jpg, car).
holds(s_2322_jpg, commercial).

sample(s_6737_jpg).
holds(s_6737_jpg, building).
holds(s_6737_jpg, feature).
holds(s_6737_jpg, window).
holds(s_6737_jpg, porch).
holds(s_6737_jpg, sign).
holds(s_6737_jpg, table).
holds(s_6737_jpg, tiledrooftop).
holds(s_6737_jpg, vendingmachine).
holds(s_6737_jpg, statue).
holds(s_6737_jpg, pipe).

sample(s_13147_jpg).
holds(s_13147_jpg, building).
holds(s_13147_jpg, feature).
holds(s_13147_jpg, watertreatment).
holds(s_13147_jpg, door).
holds(s_13147_jpg, billboard).
holds(s_13147_jpg, porch).
holds(s_13147_jpg, sign).
holds(s_13147_jpg, tiledroof).
holds(s_13147_jpg, tiledrooftop).
holds(s_13147_jpg, wallsign).
holds(s_13147_jpg, industrial).

sample(s_15029_jpg).
holds(s_15029_jpg, building).
holds(s_15029_jpg, feature).
holds(s_15029_jpg, sign).
holds(s_15029_jpg, table).
holds(s_15029_jpg, tiledrooftop).
holds(s_15029_jpg, vendingmachine).
holds(s_15029_jpg, statue).
holds(s_15029_jpg, pipe).

sample(s_4845_jpg).
holds(s_4845_jpg, building).
holds(s_4845_jpg, feature).
holds(s_4845_jpg, hotel).
holds(s_4845_jpg, billboard).
holds(s_4845_jpg, porch).
holds(s_4845_jpg, sign).
holds(s_4845_jpg, tiledroof).
holds(s_4845_jpg, tiledrooftop).
holds(s_4845_jpg, wallsign).
holds(s_4845_jpg, chimney).
holds(s_4845_jpg, pipe).
holds(s_4845_jpg, car).
holds(s_4845_jpg, commercial).

sample(s_12744_jpg).
holds(s_12744_jpg, building).
holds(s_12744_jpg, feature).
holds(s_12744_jpg, hotel).
holds(s_12744_jpg, billboard).
holds(s_12744_jpg, porch).
holds(s_12744_jpg, sign).
holds(s_12744_jpg, table).
holds(s_12744_jpg, tiledroof).
holds(s_12744_jpg, tiledrooftop).
holds(s_12744_jpg, vendingmachine).
holds(s_12744_jpg, wallsign).
holds(s_12744_jpg, chimney).
holds(s_12744_jpg, pipe).
holds(s_12744_jpg, machine).
holds(s_12744_jpg, car).
holds(s_12744_jpg, commercial).

sample(s_6872_jpg).
holds(s_6872_jpg, building).
holds(s_6872_jpg, feature).
holds(s_6872_jpg, sign).
holds(s_6872_jpg, table).
holds(s_6872_jpg, tiledrooftop).
holds(s_6872_jpg, vendingmachine).
holds(s_6872_jpg, statue).
holds(s_6872_jpg, pipe).
holds(s_6872_jpg, machine).

sample(s_8307_jpg).
holds(s_8307_jpg, building).
holds(s_8307_jpg, feature).
holds(s_8307_jpg, hotel).
holds(s_8307_jpg, door).
holds(s_8307_jpg, billboard).
holds(s_8307_jpg, porch).
holds(s_8307_jpg, sign).
holds(s_8307_jpg, tiledroof).
holds(s_8307_jpg, tiledrooftop).
holds(s_8307_jpg, wallsign).
holds(s_8307_jpg, chimney).
holds(s_8307_jpg, pipe).
holds(s_8307_jpg, car).
holds(s_8307_jpg, commercial).

sample(s_1827_jpg).
holds(s_1827_jpg, building).
holds(s_1827_jpg, feature).
holds(s_1827_jpg, hotel).
holds(s_1827_jpg, door).
holds(s_1827_jpg, billboard).
holds(s_1827_jpg, sign).
holds(s_1827_jpg, tiledroof).
holds(s_1827_jpg, tiledrooftop).
holds(s_1827_jpg, wallsign).
holds(s_1827_jpg, chimney).
holds(s_1827_jpg, pipe).
holds(s_1827_jpg, car).
holds(s_1827_jpg, commercial).

sample(s_8309_jpg).
holds(s_8309_jpg, building).
holds(s_8309_jpg, feature).
holds(s_8309_jpg, billboard).
holds(s_8309_jpg, porch).
holds(s_8309_jpg, sign).
holds(s_8309_jpg, table).
holds(s_8309_jpg, tiledrooftop).
holds(s_8309_jpg, vendingmachine).
holds(s_8309_jpg, statue).
holds(s_8309_jpg, pipe).

sample(s_5610_jpg).
holds(s_5610_jpg, building).
holds(s_5610_jpg, feature).
holds(s_5610_jpg, hotel).
holds(s_5610_jpg, porch).
holds(s_5610_jpg, sign).
holds(s_5610_jpg, table).
holds(s_5610_jpg, tiledroof).
holds(s_5610_jpg, tiledrooftop).
holds(s_5610_jpg, vendingmachine).
holds(s_5610_jpg, statue).
holds(s_5610_jpg, pipe).
holds(s_5610_jpg, commercial).

sample(s_9640_jpg).
holds(s_9640_jpg, building).
holds(s_9640_jpg, feature).
holds(s_9640_jpg, watertreatment).
holds(s_9640_jpg, door).
holds(s_9640_jpg, billboard).
holds(s_9640_jpg, porch).
holds(s_9640_jpg, sign).
holds(s_9640_jpg, tiledroof).
holds(s_9640_jpg, tiledrooftop).
holds(s_9640_jpg, wallsign).
holds(s_9640_jpg, industrial).

sample(s_14118_jpg).
holds(s_14118_jpg, building).
holds(s_14118_jpg, feature).
holds(s_14118_jpg, hotel).
holds(s_14118_jpg, door).
holds(s_14118_jpg, billboard).
holds(s_14118_jpg, sign).
holds(s_14118_jpg, tiledroof).
holds(s_14118_jpg, tiledrooftop).
holds(s_14118_jpg, wallsign).
holds(s_14118_jpg, chimney).
holds(s_14118_jpg, pipe).
holds(s_14118_jpg, car).
holds(s_14118_jpg, commercial).

sample(s_3280_jpg).
holds(s_3280_jpg, building).
holds(s_3280_jpg, feature).
holds(s_3280_jpg, watertreatment).
holds(s_3280_jpg, door).
holds(s_3280_jpg, billboard).
holds(s_3280_jpg, sign).
holds(s_3280_jpg, tiledroof).
holds(s_3280_jpg, tiledrooftop).
holds(s_3280_jpg, wallsign).
holds(s_3280_jpg, chimney).
holds(s_3280_jpg, pipe).
holds(s_3280_jpg, industrial).

sample(s_4408_jpg).
holds(s_4408_jpg, building).
holds(s_4408_jpg, feature).
holds(s_4408_jpg, watertreatment).
holds(s_4408_jpg, door).
holds(s_4408_jpg, billboard).
holds(s_4408_jpg, porch).
holds(s_4408_jpg, sign).
holds(s_4408_jpg, tiledroof).
holds(s_4408_jpg, tiledrooftop).
holds(s_4408_jpg, wallsign).
holds(s_4408_jpg, pipe).
holds(s_4408_jpg, industrial).

sample(s_12610_jpg).
holds(s_12610_jpg, building).
holds(s_12610_jpg, feature).
holds(s_12610_jpg, watertreatment).
holds(s_12610_jpg, door).
holds(s_12610_jpg, billboard).
holds(s_12610_jpg, porch).
holds(s_12610_jpg, sign).
holds(s_12610_jpg, tiledroof).
holds(s_12610_jpg, wallsign).
holds(s_12610_jpg, industrial).

sample(s_15943_jpg).
holds(s_15943_jpg, building).
holds(s_15943_jpg, feature).
holds(s_15943_jpg, watertreatment).
holds(s_15943_jpg, door).
holds(s_15943_jpg, billboard).
holds(s_15943_jpg, porch).
holds(s_15943_jpg, sign).
holds(s_15943_jpg, tiledroof).
holds(s_15943_jpg, tiledrooftop).
holds(s_15943_jpg, wallsign).
holds(s_15943_jpg, pipe).
holds(s_15943_jpg, industrial).

sample(s_4257_jpg).
holds(s_4257_jpg, building).
holds(s_4257_jpg, feature).
holds(s_4257_jpg, hotel).
holds(s_4257_jpg, billboard).
holds(s_4257_jpg, porch).
holds(s_4257_jpg, sign).
holds(s_4257_jpg, table).
holds(s_4257_jpg, tiledroof).
holds(s_4257_jpg, tiledrooftop).
holds(s_4257_jpg, vendingmachine).
holds(s_4257_jpg, statue).
holds(s_4257_jpg, chimney).
holds(s_4257_jpg, pipe).
holds(s_4257_jpg, machine).
holds(s_4257_jpg, car).
holds(s_4257_jpg, commercial).

sample(s_11040_jpg).
holds(s_11040_jpg, building).
holds(s_11040_jpg, feature).
holds(s_11040_jpg, hotel).
holds(s_11040_jpg, porch).
holds(s_11040_jpg, sign).
holds(s_11040_jpg, table).
holds(s_11040_jpg, tiledroof).
holds(s_11040_jpg, tiledrooftop).
holds(s_11040_jpg, vendingmachine).
holds(s_11040_jpg, statue).
holds(s_11040_jpg, chimney).
holds(s_11040_jpg, pipe).
holds(s_11040_jpg, car).
holds(s_11040_jpg, commercial).

sample(s_1449_jpg).
holds(s_1449_jpg, building).
holds(s_1449_jpg, feature).
holds(s_1449_jpg, hotel).
holds(s_1449_jpg, billboard).
holds(s_1449_jpg, porch).
holds(s_1449_jpg, sign).
holds(s_1449_jpg, table).
holds(s_1449_jpg, tiledroof).
holds(s_1449_jpg, tiledrooftop).
holds(s_1449_jpg, vendingmachine).
holds(s_1449_jpg, wallsign).
holds(s_1449_jpg, chimney).
holds(s_1449_jpg, pipe).
holds(s_1449_jpg, machine).
holds(s_1449_jpg, car).
holds(s_1449_jpg, commercial).

sample(s_3837_jpg).
holds(s_3837_jpg, building).
holds(s_3837_jpg, feature).
holds(s_3837_jpg, hotel).
holds(s_3837_jpg, door).
holds(s_3837_jpg, billboard).
holds(s_3837_jpg, sign).
holds(s_3837_jpg, tiledroof).
holds(s_3837_jpg, tiledrooftop).
holds(s_3837_jpg, wallsign).
holds(s_3837_jpg, chimney).
holds(s_3837_jpg, pipe).
holds(s_3837_jpg, machine).
holds(s_3837_jpg, car).
holds(s_3837_jpg, commercial).

sample(s_10085_jpg).
holds(s_10085_jpg, building).
holds(s_10085_jpg, feature).
holds(s_10085_jpg, sign).
holds(s_10085_jpg, table).
holds(s_10085_jpg, tiledrooftop).
holds(s_10085_jpg, vendingmachine).
holds(s_10085_jpg, statue).
holds(s_10085_jpg, pipe).
holds(s_10085_jpg, machine).

sample(s_13124_jpg).
holds(s_13124_jpg, building).
holds(s_13124_jpg, feature).
holds(s_13124_jpg, porch).
holds(s_13124_jpg, sign).
holds(s_13124_jpg, table).
holds(s_13124_jpg, tiledrooftop).
holds(s_13124_jpg, vendingmachine).
holds(s_13124_jpg, statue).
holds(s_13124_jpg, pipe).

sample(s_9327_jpg).
holds(s_9327_jpg, building).
holds(s_9327_jpg, feature).
holds(s_9327_jpg, hotel).
holds(s_9327_jpg, door).
holds(s_9327_jpg, billboard).
holds(s_9327_jpg, porch).
holds(s_9327_jpg, sign).
holds(s_9327_jpg, tiledroof).
holds(s_9327_jpg, tiledrooftop).
holds(s_9327_jpg, vendingmachine).
holds(s_9327_jpg, wallsign).
holds(s_9327_jpg, chimney).
holds(s_9327_jpg, pipe).
holds(s_9327_jpg, car).
holds(s_9327_jpg, commercial).

sample(s_12601_jpg).
holds(s_12601_jpg, building).
holds(s_12601_jpg, feature).
holds(s_12601_jpg, watertreatment).
holds(s_12601_jpg, door).
holds(s_12601_jpg, billboard).
holds(s_12601_jpg, porch).
holds(s_12601_jpg, sign).
holds(s_12601_jpg, tiledroof).
holds(s_12601_jpg, tiledrooftop).
holds(s_12601_jpg, wallsign).
holds(s_12601_jpg, pipe).
holds(s_12601_jpg, industrial).

sample(s_558_jpg).
holds(s_558_jpg, building).
holds(s_558_jpg, feature).
holds(s_558_jpg, hotel).
holds(s_558_jpg, billboard).
holds(s_558_jpg, porch).
holds(s_558_jpg, sign).
holds(s_558_jpg, table).
holds(s_558_jpg, tiledroof).
holds(s_558_jpg, tiledrooftop).
holds(s_558_jpg, vendingmachine).
holds(s_558_jpg, statue).
holds(s_558_jpg, chimney).
holds(s_558_jpg, pipe).
holds(s_558_jpg, machine).
holds(s_558_jpg, car).
holds(s_558_jpg, commercial).

sample(s_5630_jpg).
holds(s_5630_jpg, building).
holds(s_5630_jpg, feature).
holds(s_5630_jpg, sign).
holds(s_5630_jpg, table).
holds(s_5630_jpg, tiledrooftop).
holds(s_5630_jpg, vendingmachine).
holds(s_5630_jpg, statue).
holds(s_5630_jpg, pipe).
holds(s_5630_jpg, machine).

sample(s_6125_jpg).
holds(s_6125_jpg, building).
holds(s_6125_jpg, feature).
holds(s_6125_jpg, sign).
holds(s_6125_jpg, table).
holds(s_6125_jpg, tiledrooftop).
holds(s_6125_jpg, vendingmachine).
holds(s_6125_jpg, statue).
holds(s_6125_jpg, pipe).
holds(s_6125_jpg, machine).

sample(s_2760_jpg).
holds(s_2760_jpg, building).
holds(s_2760_jpg, feature).
holds(s_2760_jpg, hotel).
holds(s_2760_jpg, billboard).
holds(s_2760_jpg, sign).
holds(s_2760_jpg, table).
holds(s_2760_jpg, tiledroof).
holds(s_2760_jpg, tiledrooftop).
holds(s_2760_jpg, vendingmachine).
holds(s_2760_jpg, wallsign).
holds(s_2760_jpg, chimney).
holds(s_2760_jpg, pipe).
holds(s_2760_jpg, machine).
holds(s_2760_jpg, car).
holds(s_2760_jpg, commercial).

sample(s_15228_jpg).
holds(s_15228_jpg, building).
holds(s_15228_jpg, feature).
holds(s_15228_jpg, hotel).
holds(s_15228_jpg, door).
holds(s_15228_jpg, billboard).
holds(s_15228_jpg, porch).
holds(s_15228_jpg, sign).
holds(s_15228_jpg, tiledroof).
holds(s_15228_jpg, tiledrooftop).
holds(s_15228_jpg, wallsign).
holds(s_15228_jpg, chimney).
holds(s_15228_jpg, pipe).
holds(s_15228_jpg, car).
holds(s_15228_jpg, commercial).

sample(s_988_jpg).
holds(s_988_jpg, building).
holds(s_988_jpg, feature).
holds(s_988_jpg, watertreatment).
holds(s_988_jpg, door).
holds(s_988_jpg, billboard).
holds(s_988_jpg, porch).
holds(s_988_jpg, sign).
holds(s_988_jpg, tiledroof).
holds(s_988_jpg, tiledrooftop).
holds(s_988_jpg, wallsign).
holds(s_988_jpg, industrial).

sample(s_14145_jpg).
holds(s_14145_jpg, building).
holds(s_14145_jpg, feature).
holds(s_14145_jpg, hotel).
holds(s_14145_jpg, door).
holds(s_14145_jpg, billboard).
holds(s_14145_jpg, porch).
holds(s_14145_jpg, sign).
holds(s_14145_jpg, tiledroof).
holds(s_14145_jpg, tiledrooftop).
holds(s_14145_jpg, vendingmachine).
holds(s_14145_jpg, wallsign).
holds(s_14145_jpg, chimney).
holds(s_14145_jpg, pipe).
holds(s_14145_jpg, machine).
holds(s_14145_jpg, car).
holds(s_14145_jpg, commercial).

sample(s_1304_jpg).
holds(s_1304_jpg, building).
holds(s_1304_jpg, feature).
holds(s_1304_jpg, sign).
holds(s_1304_jpg, table).
holds(s_1304_jpg, tiledrooftop).
holds(s_1304_jpg, vendingmachine).
holds(s_1304_jpg, statue).
holds(s_1304_jpg, pipe).

sample(s_7814_jpg).
holds(s_7814_jpg, building).
holds(s_7814_jpg, feature).
holds(s_7814_jpg, sign).
holds(s_7814_jpg, table).
holds(s_7814_jpg, tiledrooftop).
holds(s_7814_jpg, vendingmachine).
holds(s_7814_jpg, statue).
holds(s_7814_jpg, pipe).
holds(s_7814_jpg, machine).

sample(s_11004_jpg).
holds(s_11004_jpg, building).
holds(s_11004_jpg, feature).
holds(s_11004_jpg, hotel).
holds(s_11004_jpg, door).
holds(s_11004_jpg, billboard).
holds(s_11004_jpg, porch).
holds(s_11004_jpg, sign).
holds(s_11004_jpg, tiledroof).
holds(s_11004_jpg, tiledrooftop).
holds(s_11004_jpg, wallsign).
holds(s_11004_jpg, chimney).
holds(s_11004_jpg, pipe).
holds(s_11004_jpg, car).
holds(s_11004_jpg, commercial).

sample(s_13848_jpg).
holds(s_13848_jpg, building).
holds(s_13848_jpg, feature).
holds(s_13848_jpg, hotel).
holds(s_13848_jpg, door).
holds(s_13848_jpg, billboard).
holds(s_13848_jpg, porch).
holds(s_13848_jpg, sign).
holds(s_13848_jpg, tiledroof).
holds(s_13848_jpg, tiledrooftop).
holds(s_13848_jpg, vendingmachine).
holds(s_13848_jpg, wallsign).
holds(s_13848_jpg, chimney).
holds(s_13848_jpg, pipe).
holds(s_13848_jpg, machine).
holds(s_13848_jpg, car).
holds(s_13848_jpg, commercial).

sample(s_15851_jpg).
holds(s_15851_jpg, building).
holds(s_15851_jpg, feature).
holds(s_15851_jpg, porch).
holds(s_15851_jpg, sign).
holds(s_15851_jpg, table).
holds(s_15851_jpg, tiledrooftop).
holds(s_15851_jpg, vendingmachine).
holds(s_15851_jpg, statue).
holds(s_15851_jpg, pipe).
holds(s_15851_jpg, machine).

sample(s_806_jpg).
holds(s_806_jpg, building).
holds(s_806_jpg, feature).
holds(s_806_jpg, porch).
holds(s_806_jpg, sign).
holds(s_806_jpg, table).
holds(s_806_jpg, tiledrooftop).
holds(s_806_jpg, vendingmachine).
holds(s_806_jpg, statue).
holds(s_806_jpg, pipe).
holds(s_806_jpg, machine).

sample(s_5902_jpg).
holds(s_5902_jpg, building).
holds(s_5902_jpg, feature).
holds(s_5902_jpg, watertreatment).
holds(s_5902_jpg, door).
holds(s_5902_jpg, billboard).
holds(s_5902_jpg, porch).
holds(s_5902_jpg, sign).
holds(s_5902_jpg, tiledroof).
holds(s_5902_jpg, tiledrooftop).
holds(s_5902_jpg, wallsign).
holds(s_5902_jpg, pipe).
holds(s_5902_jpg, industrial).

sample(s_8662_jpg).
holds(s_8662_jpg, building).
holds(s_8662_jpg, feature).
holds(s_8662_jpg, watertreatment).
holds(s_8662_jpg, door).
holds(s_8662_jpg, billboard).
holds(s_8662_jpg, porch).
holds(s_8662_jpg, sign).
holds(s_8662_jpg, tiledroof).
holds(s_8662_jpg, tiledrooftop).
holds(s_8662_jpg, wallsign).
holds(s_8662_jpg, pipe).
holds(s_8662_jpg, industrial).

sample(s_8009_jpg).
holds(s_8009_jpg, building).
holds(s_8009_jpg, feature).
holds(s_8009_jpg, sign).
holds(s_8009_jpg, table).
holds(s_8009_jpg, tiledrooftop).
holds(s_8009_jpg, vendingmachine).
holds(s_8009_jpg, statue).
holds(s_8009_jpg, pipe).
holds(s_8009_jpg, machine).

sample(s_7167_jpg).
holds(s_7167_jpg, building).
holds(s_7167_jpg, feature).
holds(s_7167_jpg, hotel).
holds(s_7167_jpg, billboard).
holds(s_7167_jpg, porch).
holds(s_7167_jpg, sign).
holds(s_7167_jpg, table).
holds(s_7167_jpg, tiledroof).
holds(s_7167_jpg, tiledrooftop).
holds(s_7167_jpg, vendingmachine).
holds(s_7167_jpg, statue).
holds(s_7167_jpg, chimney).
holds(s_7167_jpg, pipe).
holds(s_7167_jpg, machine).
holds(s_7167_jpg, car).
holds(s_7167_jpg, commercial).

sample(s_12834_jpg).
holds(s_12834_jpg, building).
holds(s_12834_jpg, feature).
holds(s_12834_jpg, hotel).
holds(s_12834_jpg, door).
holds(s_12834_jpg, billboard).
holds(s_12834_jpg, porch).
holds(s_12834_jpg, sign).
holds(s_12834_jpg, tiledroof).
holds(s_12834_jpg, tiledrooftop).
holds(s_12834_jpg, wallsign).
holds(s_12834_jpg, chimney).
holds(s_12834_jpg, pipe).
holds(s_12834_jpg, car).
holds(s_12834_jpg, commercial).

sample(s_8763_jpg).
holds(s_8763_jpg, building).
holds(s_8763_jpg, feature).
holds(s_8763_jpg, hotel).
holds(s_8763_jpg, billboard).
holds(s_8763_jpg, porch).
holds(s_8763_jpg, sign).
holds(s_8763_jpg, table).
holds(s_8763_jpg, tiledroof).
holds(s_8763_jpg, tiledrooftop).
holds(s_8763_jpg, vendingmachine).
holds(s_8763_jpg, wallsign).
holds(s_8763_jpg, chimney).
holds(s_8763_jpg, pipe).
holds(s_8763_jpg, machine).
holds(s_8763_jpg, car).
holds(s_8763_jpg, commercial).

sample(s_4238_jpg).
holds(s_4238_jpg, building).
holds(s_4238_jpg, feature).
holds(s_4238_jpg, sign).
holds(s_4238_jpg, table).
holds(s_4238_jpg, tiledrooftop).
holds(s_4238_jpg, vendingmachine).
holds(s_4238_jpg, statue).
holds(s_4238_jpg, pipe).
holds(s_4238_jpg, machine).

sample(s_14465_jpg).
holds(s_14465_jpg, building).
holds(s_14465_jpg, feature).
holds(s_14465_jpg, billboard).
holds(s_14465_jpg, sign).
holds(s_14465_jpg, table).
holds(s_14465_jpg, tiledrooftop).
holds(s_14465_jpg, vendingmachine).
holds(s_14465_jpg, statue).
holds(s_14465_jpg, pipe).
holds(s_14465_jpg, machine).

sample(s_10410_jpg).
holds(s_10410_jpg, building).
holds(s_10410_jpg, feature).
holds(s_10410_jpg, hotel).
holds(s_10410_jpg, door).
holds(s_10410_jpg, billboard).
holds(s_10410_jpg, porch).
holds(s_10410_jpg, sign).
holds(s_10410_jpg, tiledroof).
holds(s_10410_jpg, tiledrooftop).
holds(s_10410_jpg, vendingmachine).
holds(s_10410_jpg, wallsign).
holds(s_10410_jpg, chimney).
holds(s_10410_jpg, pipe).
holds(s_10410_jpg, car).
holds(s_10410_jpg, commercial).

sample(s_8817_jpg).
holds(s_8817_jpg, building).
holds(s_8817_jpg, feature).
holds(s_8817_jpg, hotel).
holds(s_8817_jpg, billboard).
holds(s_8817_jpg, sign).
holds(s_8817_jpg, table).
holds(s_8817_jpg, tiledroof).
holds(s_8817_jpg, tiledrooftop).
holds(s_8817_jpg, vendingmachine).
holds(s_8817_jpg, statue).
holds(s_8817_jpg, chimney).
holds(s_8817_jpg, pipe).
holds(s_8817_jpg, machine).
holds(s_8817_jpg, car).
holds(s_8817_jpg, commercial).

sample(s_15949_jpg).
holds(s_15949_jpg, building).
holds(s_15949_jpg, feature).
holds(s_15949_jpg, watertreatment).
holds(s_15949_jpg, door).
holds(s_15949_jpg, billboard).
holds(s_15949_jpg, porch).
holds(s_15949_jpg, sign).
holds(s_15949_jpg, tiledroof).
holds(s_15949_jpg, wallsign).
holds(s_15949_jpg, industrial).

sample(s_13050_jpg).
holds(s_13050_jpg, building).
holds(s_13050_jpg, feature).
holds(s_13050_jpg, hotel).
holds(s_13050_jpg, billboard).
holds(s_13050_jpg, porch).
holds(s_13050_jpg, sign).
holds(s_13050_jpg, table).
holds(s_13050_jpg, tiledroof).
holds(s_13050_jpg, tiledrooftop).
holds(s_13050_jpg, vendingmachine).
holds(s_13050_jpg, wallsign).
holds(s_13050_jpg, chimney).
holds(s_13050_jpg, pipe).
holds(s_13050_jpg, machine).
holds(s_13050_jpg, car).
holds(s_13050_jpg, commercial).

sample(s_11491_jpg).
holds(s_11491_jpg, building).
holds(s_11491_jpg, feature).
holds(s_11491_jpg, watertreatment).
holds(s_11491_jpg, door).
holds(s_11491_jpg, billboard).
holds(s_11491_jpg, porch).
holds(s_11491_jpg, sign).
holds(s_11491_jpg, tiledroof).
holds(s_11491_jpg, wallsign).
holds(s_11491_jpg, chimney).
holds(s_11491_jpg, pipe).
holds(s_11491_jpg, industrial).

sample(s_6140_jpg).
holds(s_6140_jpg, building).
holds(s_6140_jpg, feature).
holds(s_6140_jpg, sign).
holds(s_6140_jpg, table).
holds(s_6140_jpg, tiledrooftop).
holds(s_6140_jpg, vendingmachine).
holds(s_6140_jpg, statue).
holds(s_6140_jpg, pipe).
holds(s_6140_jpg, machine).

sample(s_15509_jpg).
holds(s_15509_jpg, building).
holds(s_15509_jpg, feature).
holds(s_15509_jpg, porch).
holds(s_15509_jpg, sign).
holds(s_15509_jpg, table).
holds(s_15509_jpg, tiledrooftop).
holds(s_15509_jpg, vendingmachine).
holds(s_15509_jpg, statue).
holds(s_15509_jpg, pipe).

sample(s_1515_jpg).
holds(s_1515_jpg, building).
holds(s_1515_jpg, feature).
holds(s_1515_jpg, hotel).
holds(s_1515_jpg, billboard).
holds(s_1515_jpg, porch).
holds(s_1515_jpg, sign).
holds(s_1515_jpg, table).
holds(s_1515_jpg, tiledroof).
holds(s_1515_jpg, tiledrooftop).
holds(s_1515_jpg, vendingmachine).
holds(s_1515_jpg, wallsign).
holds(s_1515_jpg, chimney).
holds(s_1515_jpg, pipe).
holds(s_1515_jpg, machine).
holds(s_1515_jpg, car).
holds(s_1515_jpg, commercial).

sample(s_3673_jpg).
holds(s_3673_jpg, building).
holds(s_3673_jpg, feature).
holds(s_3673_jpg, watertreatment).
holds(s_3673_jpg, door).
holds(s_3673_jpg, billboard).
holds(s_3673_jpg, porch).
holds(s_3673_jpg, sign).
holds(s_3673_jpg, tiledroof).
holds(s_3673_jpg, tiledrooftop).
holds(s_3673_jpg, wallsign).
holds(s_3673_jpg, industrial).

sample(s_14832_jpg).
holds(s_14832_jpg, building).
holds(s_14832_jpg, feature).
holds(s_14832_jpg, hotel).
holds(s_14832_jpg, billboard).
holds(s_14832_jpg, sign).
holds(s_14832_jpg, tiledroof).
holds(s_14832_jpg, tiledrooftop).
holds(s_14832_jpg, chimney).
holds(s_14832_jpg, pipe).
holds(s_14832_jpg, machine).
holds(s_14832_jpg, car).
holds(s_14832_jpg, commercial).

sample(s_15273_jpg).
holds(s_15273_jpg, building).
holds(s_15273_jpg, feature).
holds(s_15273_jpg, hotel).
holds(s_15273_jpg, billboard).
holds(s_15273_jpg, sign).
holds(s_15273_jpg, table).
holds(s_15273_jpg, tiledrooftop).
holds(s_15273_jpg, vendingmachine).
holds(s_15273_jpg, statue).
holds(s_15273_jpg, chimney).
holds(s_15273_jpg, pipe).
holds(s_15273_jpg, machine).
holds(s_15273_jpg, car).
holds(s_15273_jpg, commercial).

sample(s_1931_jpg).
holds(s_1931_jpg, building).
holds(s_1931_jpg, feature).
holds(s_1931_jpg, window).
holds(s_1931_jpg, porch).
holds(s_1931_jpg, sign).
holds(s_1931_jpg, table).
holds(s_1931_jpg, tiledrooftop).
holds(s_1931_jpg, vendingmachine).
holds(s_1931_jpg, statue).
holds(s_1931_jpg, pipe).

sample(s_178_jpg).
holds(s_178_jpg, building).
holds(s_178_jpg, feature).
holds(s_178_jpg, watertreatment).
holds(s_178_jpg, door).
holds(s_178_jpg, billboard).
holds(s_178_jpg, porch).
holds(s_178_jpg, sign).
holds(s_178_jpg, tiledroof).
holds(s_178_jpg, wallsign).
holds(s_178_jpg, chimney).
holds(s_178_jpg, pipe).
holds(s_178_jpg, industrial).

sample(s_7540_jpg).
holds(s_7540_jpg, building).
holds(s_7540_jpg, feature).
holds(s_7540_jpg, watertreatment).
holds(s_7540_jpg, door).
holds(s_7540_jpg, billboard).
holds(s_7540_jpg, porch).
holds(s_7540_jpg, sign).
holds(s_7540_jpg, tiledroof).
holds(s_7540_jpg, tiledrooftop).
holds(s_7540_jpg, wallsign).
holds(s_7540_jpg, industrial).

sample(s_9308_jpg).
holds(s_9308_jpg, building).
holds(s_9308_jpg, feature).
holds(s_9308_jpg, window).
holds(s_9308_jpg, porch).
holds(s_9308_jpg, sign).
holds(s_9308_jpg, table).
holds(s_9308_jpg, tiledrooftop).
holds(s_9308_jpg, vendingmachine).
holds(s_9308_jpg, statue).
holds(s_9308_jpg, pipe).

sample(s_1156_jpg).
holds(s_1156_jpg, building).
holds(s_1156_jpg, feature).
holds(s_1156_jpg, watertreatment).
holds(s_1156_jpg, door).
holds(s_1156_jpg, billboard).
holds(s_1156_jpg, porch).
holds(s_1156_jpg, sign).
holds(s_1156_jpg, tiledroof).
holds(s_1156_jpg, tiledrooftop).
holds(s_1156_jpg, wallsign).
holds(s_1156_jpg, pipe).
holds(s_1156_jpg, industrial).

sample(s_12943_jpg).
holds(s_12943_jpg, building).
holds(s_12943_jpg, feature).
holds(s_12943_jpg, watertreatment).
holds(s_12943_jpg, door).
holds(s_12943_jpg, billboard).
holds(s_12943_jpg, porch).
holds(s_12943_jpg, sign).
holds(s_12943_jpg, tiledroof).
holds(s_12943_jpg, tiledrooftop).
holds(s_12943_jpg, wallsign).
holds(s_12943_jpg, industrial).

sample(s_12495_jpg).
holds(s_12495_jpg, building).
holds(s_12495_jpg, feature).
holds(s_12495_jpg, hotel).
holds(s_12495_jpg, billboard).
holds(s_12495_jpg, porch).
holds(s_12495_jpg, sign).
holds(s_12495_jpg, table).
holds(s_12495_jpg, tiledroof).
holds(s_12495_jpg, tiledrooftop).
holds(s_12495_jpg, vendingmachine).
holds(s_12495_jpg, wallsign).
holds(s_12495_jpg, statue).
holds(s_12495_jpg, chimney).
holds(s_12495_jpg, pipe).
holds(s_12495_jpg, car).
holds(s_12495_jpg, commercial).

sample(s_13603_jpg).
holds(s_13603_jpg, building).
holds(s_13603_jpg, feature).
holds(s_13603_jpg, watertreatment).
holds(s_13603_jpg, door).
holds(s_13603_jpg, billboard).
holds(s_13603_jpg, porch).
holds(s_13603_jpg, sign).
holds(s_13603_jpg, tiledroof).
holds(s_13603_jpg, wallsign).
holds(s_13603_jpg, industrial).

sample(s_11137_jpg).
holds(s_11137_jpg, building).
holds(s_11137_jpg, feature).
holds(s_11137_jpg, watertreatment).
holds(s_11137_jpg, door).
holds(s_11137_jpg, billboard).
holds(s_11137_jpg, porch).
holds(s_11137_jpg, sign).
holds(s_11137_jpg, tiledroof).
holds(s_11137_jpg, tiledrooftop).
holds(s_11137_jpg, wallsign).
holds(s_11137_jpg, pipe).
holds(s_11137_jpg, industrial).

sample(s_1085_jpg).
holds(s_1085_jpg, building).
holds(s_1085_jpg, feature).
holds(s_1085_jpg, porch).
holds(s_1085_jpg, sign).
holds(s_1085_jpg, table).
holds(s_1085_jpg, tiledrooftop).
holds(s_1085_jpg, vendingmachine).
holds(s_1085_jpg, statue).
holds(s_1085_jpg, pipe).
holds(s_1085_jpg, machine).

sample(s_15107_jpg).
holds(s_15107_jpg, building).
holds(s_15107_jpg, feature).
holds(s_15107_jpg, sign).
holds(s_15107_jpg, table).
holds(s_15107_jpg, tiledrooftop).
holds(s_15107_jpg, vendingmachine).
holds(s_15107_jpg, statue).
holds(s_15107_jpg, pipe).
holds(s_15107_jpg, machine).

sample(s_8543_jpg).
holds(s_8543_jpg, building).
holds(s_8543_jpg, feature).
holds(s_8543_jpg, sign).
holds(s_8543_jpg, table).
holds(s_8543_jpg, tiledrooftop).
holds(s_8543_jpg, vendingmachine).
holds(s_8543_jpg, statue).
holds(s_8543_jpg, pipe).

sample(s_15374_jpg).
holds(s_15374_jpg, building).
holds(s_15374_jpg, feature).
holds(s_15374_jpg, porch).
holds(s_15374_jpg, sign).
holds(s_15374_jpg, table).
holds(s_15374_jpg, tiledrooftop).
holds(s_15374_jpg, vendingmachine).
holds(s_15374_jpg, statue).
holds(s_15374_jpg, pipe).

sample(s_3326_jpg).
holds(s_3326_jpg, building).
holds(s_3326_jpg, feature).
holds(s_3326_jpg, sign).
holds(s_3326_jpg, table).
holds(s_3326_jpg, tiledrooftop).
holds(s_3326_jpg, vendingmachine).
holds(s_3326_jpg, statue).
holds(s_3326_jpg, pipe).
holds(s_3326_jpg, machine).

sample(s_13786_jpg).
holds(s_13786_jpg, building).
holds(s_13786_jpg, feature).
holds(s_13786_jpg, watertreatment).
holds(s_13786_jpg, door).
holds(s_13786_jpg, billboard).
holds(s_13786_jpg, porch).
holds(s_13786_jpg, sign).
holds(s_13786_jpg, tiledroof).
holds(s_13786_jpg, wallsign).
holds(s_13786_jpg, chimney).
holds(s_13786_jpg, pipe).
holds(s_13786_jpg, industrial).

sample(s_14167_jpg).
holds(s_14167_jpg, building).
holds(s_14167_jpg, feature).
holds(s_14167_jpg, watertreatment).
holds(s_14167_jpg, door).
holds(s_14167_jpg, billboard).
holds(s_14167_jpg, porch).
holds(s_14167_jpg, sign).
holds(s_14167_jpg, tiledroof).
holds(s_14167_jpg, wallsign).
holds(s_14167_jpg, industrial).

sample(s_1626_jpg).
holds(s_1626_jpg, building).
holds(s_1626_jpg, feature).
holds(s_1626_jpg, hotel).
holds(s_1626_jpg, porch).
holds(s_1626_jpg, sign).
holds(s_1626_jpg, table).
holds(s_1626_jpg, tiledroof).
holds(s_1626_jpg, vendingmachine).
holds(s_1626_jpg, statue).
holds(s_1626_jpg, pipe).
holds(s_1626_jpg, commercial).

sample(s_6346_jpg).
holds(s_6346_jpg, building).
holds(s_6346_jpg, feature).
holds(s_6346_jpg, watertreatment).
holds(s_6346_jpg, door).
holds(s_6346_jpg, billboard).
holds(s_6346_jpg, porch).
holds(s_6346_jpg, sign).
holds(s_6346_jpg, tiledroof).
holds(s_6346_jpg, tiledrooftop).
holds(s_6346_jpg, wallsign).
holds(s_6346_jpg, pipe).
holds(s_6346_jpg, industrial).

sample(s_15892_jpg).
holds(s_15892_jpg, building).
holds(s_15892_jpg, feature).
holds(s_15892_jpg, watertreatment).
holds(s_15892_jpg, door).
holds(s_15892_jpg, billboard).
holds(s_15892_jpg, porch).
holds(s_15892_jpg, sign).
holds(s_15892_jpg, tiledroof).
holds(s_15892_jpg, tiledrooftop).
holds(s_15892_jpg, wallsign).
holds(s_15892_jpg, chimney).
holds(s_15892_jpg, pipe).
holds(s_15892_jpg, industrial).

sample(s_15803_jpg).
holds(s_15803_jpg, building).
holds(s_15803_jpg, feature).
holds(s_15803_jpg, sign).
holds(s_15803_jpg, table).
holds(s_15803_jpg, tiledrooftop).
holds(s_15803_jpg, vendingmachine).
holds(s_15803_jpg, statue).
holds(s_15803_jpg, pipe).
holds(s_15803_jpg, machine).

sample(s_5715_jpg).
holds(s_5715_jpg, building).
holds(s_5715_jpg, feature).
holds(s_5715_jpg, hotel).
holds(s_5715_jpg, billboard).
holds(s_5715_jpg, sign).
holds(s_5715_jpg, tiledroof).
holds(s_5715_jpg, tiledrooftop).
holds(s_5715_jpg, wallsign).
holds(s_5715_jpg, chimney).
holds(s_5715_jpg, pipe).
holds(s_5715_jpg, car).
holds(s_5715_jpg, commercial).

sample(s_7105_jpg).
holds(s_7105_jpg, building).
holds(s_7105_jpg, feature).
holds(s_7105_jpg, watertreatment).
holds(s_7105_jpg, door).
holds(s_7105_jpg, billboard).
holds(s_7105_jpg, porch).
holds(s_7105_jpg, sign).
holds(s_7105_jpg, tiledroof).
holds(s_7105_jpg, tiledrooftop).
holds(s_7105_jpg, wallsign).
holds(s_7105_jpg, pipe).
holds(s_7105_jpg, industrial).

sample(s_10581_jpg).
holds(s_10581_jpg, building).
holds(s_10581_jpg, feature).
holds(s_10581_jpg, hotel).
holds(s_10581_jpg, billboard).
holds(s_10581_jpg, porch).
holds(s_10581_jpg, sign).
holds(s_10581_jpg, table).
holds(s_10581_jpg, tiledroof).
holds(s_10581_jpg, tiledrooftop).
holds(s_10581_jpg, vendingmachine).
holds(s_10581_jpg, statue).
holds(s_10581_jpg, chimney).
holds(s_10581_jpg, pipe).
holds(s_10581_jpg, car).
holds(s_10581_jpg, commercial).

sample(s_13513_jpg).
holds(s_13513_jpg, building).
holds(s_13513_jpg, feature).
holds(s_13513_jpg, watertreatment).
holds(s_13513_jpg, door).
holds(s_13513_jpg, billboard).
holds(s_13513_jpg, porch).
holds(s_13513_jpg, sign).
holds(s_13513_jpg, tiledroof).
holds(s_13513_jpg, tiledrooftop).
holds(s_13513_jpg, wallsign).
holds(s_13513_jpg, pipe).
holds(s_13513_jpg, industrial).

sample(s_10096_jpg).
holds(s_10096_jpg, building).
holds(s_10096_jpg, feature).
holds(s_10096_jpg, watertreatment).
holds(s_10096_jpg, door).
holds(s_10096_jpg, billboard).
holds(s_10096_jpg, porch).
holds(s_10096_jpg, sign).
holds(s_10096_jpg, tiledroof).
holds(s_10096_jpg, tiledrooftop).
holds(s_10096_jpg, wallsign).
holds(s_10096_jpg, pipe).
holds(s_10096_jpg, industrial).

sample(s_7974_jpg).
holds(s_7974_jpg, building).
holds(s_7974_jpg, feature).
holds(s_7974_jpg, hotel).
holds(s_7974_jpg, billboard).
holds(s_7974_jpg, sign).
holds(s_7974_jpg, tiledroof).
holds(s_7974_jpg, tiledrooftop).
holds(s_7974_jpg, chimney).
holds(s_7974_jpg, pipe).
holds(s_7974_jpg, car).
holds(s_7974_jpg, commercial).

sample(s_7940_jpg).
holds(s_7940_jpg, building).
holds(s_7940_jpg, feature).
holds(s_7940_jpg, sign).
holds(s_7940_jpg, table).
holds(s_7940_jpg, tiledrooftop).
holds(s_7940_jpg, vendingmachine).
holds(s_7940_jpg, statue).
holds(s_7940_jpg, pipe).
holds(s_7940_jpg, machine).

sample(s_724_jpg).
holds(s_724_jpg, building).
holds(s_724_jpg, feature).
holds(s_724_jpg, watertreatment).
holds(s_724_jpg, door).
holds(s_724_jpg, billboard).
holds(s_724_jpg, porch).
holds(s_724_jpg, sign).
holds(s_724_jpg, tiledroof).
holds(s_724_jpg, wallsign).
holds(s_724_jpg, pipe).
holds(s_724_jpg, industrial).

sample(s_9819_jpg).
holds(s_9819_jpg, building).
holds(s_9819_jpg, feature).
holds(s_9819_jpg, hotel).
holds(s_9819_jpg, door).
holds(s_9819_jpg, billboard).
holds(s_9819_jpg, sign).
holds(s_9819_jpg, tiledroof).
holds(s_9819_jpg, tiledrooftop).
holds(s_9819_jpg, wallsign).
holds(s_9819_jpg, chimney).
holds(s_9819_jpg, pipe).
holds(s_9819_jpg, commercial).

sample(s_1491_jpg).
holds(s_1491_jpg, building).
holds(s_1491_jpg, feature).
holds(s_1491_jpg, hotel).
holds(s_1491_jpg, billboard).
holds(s_1491_jpg, porch).
holds(s_1491_jpg, sign).
holds(s_1491_jpg, table).
holds(s_1491_jpg, tiledroof).
holds(s_1491_jpg, tiledrooftop).
holds(s_1491_jpg, vendingmachine).
holds(s_1491_jpg, wallsign).
holds(s_1491_jpg, chimney).
holds(s_1491_jpg, pipe).
holds(s_1491_jpg, machine).
holds(s_1491_jpg, car).
holds(s_1491_jpg, commercial).

sample(s_6633_jpg).
holds(s_6633_jpg, building).
holds(s_6633_jpg, feature).
holds(s_6633_jpg, porch).
holds(s_6633_jpg, sign).
holds(s_6633_jpg, table).
holds(s_6633_jpg, tiledrooftop).
holds(s_6633_jpg, vendingmachine).
holds(s_6633_jpg, statue).
holds(s_6633_jpg, pipe).
holds(s_6633_jpg, machine).

sample(s_12183_jpg).
holds(s_12183_jpg, building).
holds(s_12183_jpg, feature).
holds(s_12183_jpg, hotel).
holds(s_12183_jpg, billboard).
holds(s_12183_jpg, porch).
holds(s_12183_jpg, sign).
holds(s_12183_jpg, table).
holds(s_12183_jpg, tiledroof).
holds(s_12183_jpg, tiledrooftop).
holds(s_12183_jpg, vendingmachine).
holds(s_12183_jpg, statue).
holds(s_12183_jpg, chimney).
holds(s_12183_jpg, pipe).
holds(s_12183_jpg, machine).
holds(s_12183_jpg, car).
holds(s_12183_jpg, commercial).

sample(s_2673_jpg).
holds(s_2673_jpg, building).
holds(s_2673_jpg, feature).
holds(s_2673_jpg, hotel).
holds(s_2673_jpg, door).
holds(s_2673_jpg, billboard).
holds(s_2673_jpg, porch).
holds(s_2673_jpg, sign).
holds(s_2673_jpg, tiledroof).
holds(s_2673_jpg, tiledrooftop).
holds(s_2673_jpg, vendingmachine).
holds(s_2673_jpg, wallsign).
holds(s_2673_jpg, chimney).
holds(s_2673_jpg, pipe).
holds(s_2673_jpg, car).
holds(s_2673_jpg, commercial).

sample(s_11134_jpg).
holds(s_11134_jpg, building).
holds(s_11134_jpg, feature).
holds(s_11134_jpg, watertreatment).
holds(s_11134_jpg, door).
holds(s_11134_jpg, billboard).
holds(s_11134_jpg, porch).
holds(s_11134_jpg, sign).
holds(s_11134_jpg, tiledroof).
holds(s_11134_jpg, tiledrooftop).
holds(s_11134_jpg, wallsign).
holds(s_11134_jpg, chimney).
holds(s_11134_jpg, pipe).
holds(s_11134_jpg, car).
holds(s_11134_jpg, industrial).

sample(s_11689_jpg).
holds(s_11689_jpg, building).
holds(s_11689_jpg, feature).
holds(s_11689_jpg, watertreatment).
holds(s_11689_jpg, door).
holds(s_11689_jpg, billboard).
holds(s_11689_jpg, porch).
holds(s_11689_jpg, sign).
holds(s_11689_jpg, tiledroof).
holds(s_11689_jpg, tiledrooftop).
holds(s_11689_jpg, wallsign).
holds(s_11689_jpg, industrial).

sample(s_13371_jpg).
holds(s_13371_jpg, building).
holds(s_13371_jpg, feature).
holds(s_13371_jpg, hotel).
holds(s_13371_jpg, door).
holds(s_13371_jpg, billboard).
holds(s_13371_jpg, porch).
holds(s_13371_jpg, sign).
holds(s_13371_jpg, table).
holds(s_13371_jpg, tiledroof).
holds(s_13371_jpg, tiledrooftop).
holds(s_13371_jpg, wallsign).
holds(s_13371_jpg, chimney).
holds(s_13371_jpg, pipe).
holds(s_13371_jpg, car).
holds(s_13371_jpg, commercial).

sample(s_14323_jpg).
holds(s_14323_jpg, building).
holds(s_14323_jpg, feature).
holds(s_14323_jpg, watertreatment).
holds(s_14323_jpg, door).
holds(s_14323_jpg, billboard).
holds(s_14323_jpg, porch).
holds(s_14323_jpg, sign).
holds(s_14323_jpg, tiledroof).
holds(s_14323_jpg, tiledrooftop).
holds(s_14323_jpg, wallsign).
holds(s_14323_jpg, pipe).
holds(s_14323_jpg, industrial).

sample(s_11530_jpg).
holds(s_11530_jpg, building).
holds(s_11530_jpg, feature).
holds(s_11530_jpg, watertreatment).
holds(s_11530_jpg, door).
holds(s_11530_jpg, billboard).
holds(s_11530_jpg, porch).
holds(s_11530_jpg, sign).
holds(s_11530_jpg, tiledroof).
holds(s_11530_jpg, tiledrooftop).
holds(s_11530_jpg, wallsign).
holds(s_11530_jpg, chimney).
holds(s_11530_jpg, pipe).
holds(s_11530_jpg, industrial).

sample(s_12543_jpg).
holds(s_12543_jpg, building).
holds(s_12543_jpg, feature).
holds(s_12543_jpg, hotel).
holds(s_12543_jpg, billboard).
holds(s_12543_jpg, sign).
holds(s_12543_jpg, tiledroof).
holds(s_12543_jpg, tiledrooftop).
holds(s_12543_jpg, chimney).
holds(s_12543_jpg, pipe).
holds(s_12543_jpg, machine).
holds(s_12543_jpg, car).
holds(s_12543_jpg, commercial).

sample(s_3074_jpg).
holds(s_3074_jpg, building).
holds(s_3074_jpg, feature).
holds(s_3074_jpg, billboard).
holds(s_3074_jpg, porch).
holds(s_3074_jpg, sign).
holds(s_3074_jpg, table).
holds(s_3074_jpg, tiledrooftop).
holds(s_3074_jpg, vendingmachine).
holds(s_3074_jpg, statue).
holds(s_3074_jpg, pipe).
holds(s_3074_jpg, machine).

sample(s_9329_jpg).
holds(s_9329_jpg, building).
holds(s_9329_jpg, feature).
holds(s_9329_jpg, billboard).
holds(s_9329_jpg, porch).
holds(s_9329_jpg, sign).
holds(s_9329_jpg, table).
holds(s_9329_jpg, tiledrooftop).
holds(s_9329_jpg, vendingmachine).
holds(s_9329_jpg, statue).
holds(s_9329_jpg, pipe).
holds(s_9329_jpg, machine).

sample(s_10138_jpg).
holds(s_10138_jpg, building).
holds(s_10138_jpg, feature).
holds(s_10138_jpg, watertreatment).
holds(s_10138_jpg, door).
holds(s_10138_jpg, billboard).
holds(s_10138_jpg, sign).
holds(s_10138_jpg, tiledroof).
holds(s_10138_jpg, tiledrooftop).
holds(s_10138_jpg, wallsign).
holds(s_10138_jpg, pipe).
holds(s_10138_jpg, industrial).

sample(s_1907_jpg).
holds(s_1907_jpg, building).
holds(s_1907_jpg, feature).
holds(s_1907_jpg, porch).
holds(s_1907_jpg, sign).
holds(s_1907_jpg, table).
holds(s_1907_jpg, tiledrooftop).
holds(s_1907_jpg, vendingmachine).
holds(s_1907_jpg, statue).
holds(s_1907_jpg, pipe).
holds(s_1907_jpg, machine).

sample(s_13972_jpg).
holds(s_13972_jpg, building).
holds(s_13972_jpg, feature).
holds(s_13972_jpg, watertreatment).
holds(s_13972_jpg, door).
holds(s_13972_jpg, billboard).
holds(s_13972_jpg, porch).
holds(s_13972_jpg, sign).
holds(s_13972_jpg, tiledroof).
holds(s_13972_jpg, tiledrooftop).
holds(s_13972_jpg, wallsign).
holds(s_13972_jpg, industrial).

sample(s_15981_jpg).
holds(s_15981_jpg, building).
holds(s_15981_jpg, feature).
holds(s_15981_jpg, hotel).
holds(s_15981_jpg, billboard).
holds(s_15981_jpg, sign).
holds(s_15981_jpg, table).
holds(s_15981_jpg, tiledroof).
holds(s_15981_jpg, tiledrooftop).
holds(s_15981_jpg, chimney).
holds(s_15981_jpg, pipe).
holds(s_15981_jpg, machine).
holds(s_15981_jpg, car).
holds(s_15981_jpg, commercial).

sample(s_12240_jpg).
holds(s_12240_jpg, building).
holds(s_12240_jpg, feature).
holds(s_12240_jpg, hotel).
holds(s_12240_jpg, door).
holds(s_12240_jpg, billboard).
holds(s_12240_jpg, porch).
holds(s_12240_jpg, sign).
holds(s_12240_jpg, table).
holds(s_12240_jpg, tiledroof).
holds(s_12240_jpg, tiledrooftop).
holds(s_12240_jpg, vendingmachine).
holds(s_12240_jpg, wallsign).
holds(s_12240_jpg, chimney).
holds(s_12240_jpg, pipe).
holds(s_12240_jpg, machine).
holds(s_12240_jpg, car).
holds(s_12240_jpg, commercial).

sample(s_6197_jpg).
holds(s_6197_jpg, building).
holds(s_6197_jpg, feature).
holds(s_6197_jpg, sign).
holds(s_6197_jpg, table).
holds(s_6197_jpg, tiledrooftop).
holds(s_6197_jpg, vendingmachine).
holds(s_6197_jpg, statue).
holds(s_6197_jpg, pipe).
holds(s_6197_jpg, machine).

sample(s_5116_jpg).
holds(s_5116_jpg, building).
holds(s_5116_jpg, feature).
holds(s_5116_jpg, watertreatment).
holds(s_5116_jpg, door).
holds(s_5116_jpg, billboard).
holds(s_5116_jpg, porch).
holds(s_5116_jpg, sign).
holds(s_5116_jpg, tiledroof).
holds(s_5116_jpg, wallsign).
holds(s_5116_jpg, industrial).

sample(s_12597_jpg).
holds(s_12597_jpg, building).
holds(s_12597_jpg, feature).
holds(s_12597_jpg, hotel).
holds(s_12597_jpg, door).
holds(s_12597_jpg, billboard).
holds(s_12597_jpg, porch).
holds(s_12597_jpg, sign).
holds(s_12597_jpg, table).
holds(s_12597_jpg, tiledroof).
holds(s_12597_jpg, tiledrooftop).
holds(s_12597_jpg, vendingmachine).
holds(s_12597_jpg, wallsign).
holds(s_12597_jpg, chimney).
holds(s_12597_jpg, pipe).
holds(s_12597_jpg, machine).
holds(s_12597_jpg, car).
holds(s_12597_jpg, commercial).

sample(s_6303_jpg).
holds(s_6303_jpg, building).
holds(s_6303_jpg, feature).
holds(s_6303_jpg, hotel).
holds(s_6303_jpg, door).
holds(s_6303_jpg, billboard).
holds(s_6303_jpg, porch).
holds(s_6303_jpg, sign).
holds(s_6303_jpg, tiledroof).
holds(s_6303_jpg, tiledrooftop).
holds(s_6303_jpg, wallsign).
holds(s_6303_jpg, chimney).
holds(s_6303_jpg, pipe).
holds(s_6303_jpg, car).
holds(s_6303_jpg, commercial).

sample(s_11354_jpg).
holds(s_11354_jpg, building).
holds(s_11354_jpg, feature).
holds(s_11354_jpg, sign).
holds(s_11354_jpg, table).
holds(s_11354_jpg, tiledrooftop).
holds(s_11354_jpg, vendingmachine).
holds(s_11354_jpg, statue).
holds(s_11354_jpg, pipe).

sample(s_3094_jpg).
holds(s_3094_jpg, building).
holds(s_3094_jpg, feature).
holds(s_3094_jpg, watertreatment).
holds(s_3094_jpg, door).
holds(s_3094_jpg, billboard).
holds(s_3094_jpg, porch).
holds(s_3094_jpg, sign).
holds(s_3094_jpg, tiledroof).
holds(s_3094_jpg, tiledrooftop).
holds(s_3094_jpg, wallsign).
holds(s_3094_jpg, industrial).

sample(s_5994_jpg).
holds(s_5994_jpg, building).
holds(s_5994_jpg, feature).
holds(s_5994_jpg, hotel).
holds(s_5994_jpg, billboard).
holds(s_5994_jpg, porch).
holds(s_5994_jpg, sign).
holds(s_5994_jpg, table).
holds(s_5994_jpg, tiledroof).
holds(s_5994_jpg, tiledrooftop).
holds(s_5994_jpg, vendingmachine).
holds(s_5994_jpg, wallsign).
holds(s_5994_jpg, chimney).
holds(s_5994_jpg, pipe).
holds(s_5994_jpg, car).
holds(s_5994_jpg, commercial).

sample(s_15365_jpg).
holds(s_15365_jpg, building).
holds(s_15365_jpg, feature).
holds(s_15365_jpg, sign).
holds(s_15365_jpg, table).
holds(s_15365_jpg, tiledrooftop).
holds(s_15365_jpg, vendingmachine).
holds(s_15365_jpg, statue).
holds(s_15365_jpg, pipe).
holds(s_15365_jpg, machine).

sample(s_9339_jpg).
holds(s_9339_jpg, building).
holds(s_9339_jpg, feature).
holds(s_9339_jpg, billboard).
holds(s_9339_jpg, sign).
holds(s_9339_jpg, table).
holds(s_9339_jpg, tiledroof).
holds(s_9339_jpg, tiledrooftop).
holds(s_9339_jpg, vendingmachine).
holds(s_9339_jpg, pipe).

sample(s_12371_jpg).
holds(s_12371_jpg, building).
holds(s_12371_jpg, feature).
holds(s_12371_jpg, sign).
holds(s_12371_jpg, table).
holds(s_12371_jpg, tiledrooftop).
holds(s_12371_jpg, vendingmachine).
holds(s_12371_jpg, statue).
holds(s_12371_jpg, pipe).

sample(s_7497_jpg).
holds(s_7497_jpg, building).
holds(s_7497_jpg, feature).
holds(s_7497_jpg, hotel).
holds(s_7497_jpg, door).
holds(s_7497_jpg, billboard).
holds(s_7497_jpg, porch).
holds(s_7497_jpg, sign).
holds(s_7497_jpg, table).
holds(s_7497_jpg, tiledroof).
holds(s_7497_jpg, tiledrooftop).
holds(s_7497_jpg, vendingmachine).
holds(s_7497_jpg, wallsign).
holds(s_7497_jpg, chimney).
holds(s_7497_jpg, pipe).
holds(s_7497_jpg, machine).
holds(s_7497_jpg, car).
holds(s_7497_jpg, commercial).

sample(s_6523_jpg).
holds(s_6523_jpg, building).
holds(s_6523_jpg, feature).
holds(s_6523_jpg, watertreatment).
holds(s_6523_jpg, door).
holds(s_6523_jpg, billboard).
holds(s_6523_jpg, porch).
holds(s_6523_jpg, sign).
holds(s_6523_jpg, tiledroof).
holds(s_6523_jpg, wallsign).
holds(s_6523_jpg, industrial).

sample(s_9899_jpg).
holds(s_9899_jpg, building).
holds(s_9899_jpg, feature).
holds(s_9899_jpg, sign).
holds(s_9899_jpg, table).
holds(s_9899_jpg, tiledrooftop).
holds(s_9899_jpg, vendingmachine).
holds(s_9899_jpg, statue).
holds(s_9899_jpg, pipe).
holds(s_9899_jpg, machine).

sample(s_6712_jpg).
holds(s_6712_jpg, building).
holds(s_6712_jpg, feature).
holds(s_6712_jpg, watertreatment).
holds(s_6712_jpg, door).
holds(s_6712_jpg, billboard).
holds(s_6712_jpg, porch).
holds(s_6712_jpg, sign).
holds(s_6712_jpg, tiledroof).
holds(s_6712_jpg, tiledrooftop).
holds(s_6712_jpg, wallsign).
holds(s_6712_jpg, chimney).
holds(s_6712_jpg, pipe).
holds(s_6712_jpg, industrial).

sample(s_3922_jpg).
holds(s_3922_jpg, building).
holds(s_3922_jpg, feature).
holds(s_3922_jpg, watertreatment).
holds(s_3922_jpg, door).
holds(s_3922_jpg, billboard).
holds(s_3922_jpg, porch).
holds(s_3922_jpg, sign).
holds(s_3922_jpg, tiledroof).
holds(s_3922_jpg, wallsign).
holds(s_3922_jpg, industrial).

sample(s_14867_jpg).
holds(s_14867_jpg, building).
holds(s_14867_jpg, feature).
holds(s_14867_jpg, sign).
holds(s_14867_jpg, table).
holds(s_14867_jpg, tiledrooftop).
holds(s_14867_jpg, vendingmachine).
holds(s_14867_jpg, statue).
holds(s_14867_jpg, pipe).

sample(s_8671_jpg).
holds(s_8671_jpg, building).
holds(s_8671_jpg, feature).
holds(s_8671_jpg, watertreatment).
holds(s_8671_jpg, door).
holds(s_8671_jpg, billboard).
holds(s_8671_jpg, porch).
holds(s_8671_jpg, sign).
holds(s_8671_jpg, tiledroof).
holds(s_8671_jpg, wallsign).
holds(s_8671_jpg, pipe).
holds(s_8671_jpg, industrial).

sample(s_1807_jpg).
holds(s_1807_jpg, building).
holds(s_1807_jpg, feature).
holds(s_1807_jpg, watertreatment).
holds(s_1807_jpg, door).
holds(s_1807_jpg, billboard).
holds(s_1807_jpg, porch).
holds(s_1807_jpg, sign).
holds(s_1807_jpg, tiledroof).
holds(s_1807_jpg, tiledrooftop).
holds(s_1807_jpg, wallsign).
holds(s_1807_jpg, industrial).

sample(s_121_jpg).
holds(s_121_jpg, building).
holds(s_121_jpg, feature).
holds(s_121_jpg, watertreatment).
holds(s_121_jpg, door).
holds(s_121_jpg, billboard).
holds(s_121_jpg, porch).
holds(s_121_jpg, sign).
holds(s_121_jpg, tiledroof).
holds(s_121_jpg, tiledrooftop).
holds(s_121_jpg, wallsign).
holds(s_121_jpg, pipe).
holds(s_121_jpg, industrial).

sample(s_7461_jpg).
holds(s_7461_jpg, building).
holds(s_7461_jpg, feature).
holds(s_7461_jpg, hotel).
holds(s_7461_jpg, door).
holds(s_7461_jpg, billboard).
holds(s_7461_jpg, sign).
holds(s_7461_jpg, tiledroof).
holds(s_7461_jpg, tiledrooftop).
holds(s_7461_jpg, vendingmachine).
holds(s_7461_jpg, wallsign).
holds(s_7461_jpg, chimney).
holds(s_7461_jpg, pipe).
holds(s_7461_jpg, machine).
holds(s_7461_jpg, car).
holds(s_7461_jpg, commercial).

sample(s_497_jpg).
holds(s_497_jpg, building).
holds(s_497_jpg, feature).
holds(s_497_jpg, sign).
holds(s_497_jpg, table).
holds(s_497_jpg, tiledrooftop).
holds(s_497_jpg, vendingmachine).
holds(s_497_jpg, statue).
holds(s_497_jpg, pipe).
holds(s_497_jpg, machine).

sample(s_12184_jpg).
holds(s_12184_jpg, building).
holds(s_12184_jpg, feature).
holds(s_12184_jpg, watertreatment).
holds(s_12184_jpg, door).
holds(s_12184_jpg, billboard).
holds(s_12184_jpg, porch).
holds(s_12184_jpg, sign).
holds(s_12184_jpg, tiledroof).
holds(s_12184_jpg, tiledrooftop).
holds(s_12184_jpg, wallsign).
holds(s_12184_jpg, industrial).

sample(s_7144_jpg).
holds(s_7144_jpg, building).
holds(s_7144_jpg, feature).
holds(s_7144_jpg, watertreatment).
holds(s_7144_jpg, door).
holds(s_7144_jpg, billboard).
holds(s_7144_jpg, porch).
holds(s_7144_jpg, sign).
holds(s_7144_jpg, tiledroof).
holds(s_7144_jpg, tiledrooftop).
holds(s_7144_jpg, wallsign).
holds(s_7144_jpg, pipe).
holds(s_7144_jpg, industrial).

sample(s_9097_jpg).
holds(s_9097_jpg, building).
holds(s_9097_jpg, feature).
holds(s_9097_jpg, watertreatment).
holds(s_9097_jpg, door).
holds(s_9097_jpg, billboard).
holds(s_9097_jpg, porch).
holds(s_9097_jpg, sign).
holds(s_9097_jpg, tiledroof).
holds(s_9097_jpg, tiledrooftop).
holds(s_9097_jpg, wallsign).
holds(s_9097_jpg, pipe).
holds(s_9097_jpg, industrial).

sample(s_15504_jpg).
holds(s_15504_jpg, building).
holds(s_15504_jpg, feature).
holds(s_15504_jpg, billboard).
holds(s_15504_jpg, sign).
holds(s_15504_jpg, table).
holds(s_15504_jpg, tiledrooftop).
holds(s_15504_jpg, vendingmachine).
holds(s_15504_jpg, statue).
holds(s_15504_jpg, chimney).
holds(s_15504_jpg, pipe).
holds(s_15504_jpg, machine).

sample(s_7763_jpg).
holds(s_7763_jpg, building).
holds(s_7763_jpg, feature).
holds(s_7763_jpg, billboard).
holds(s_7763_jpg, sign).
holds(s_7763_jpg, table).
holds(s_7763_jpg, tiledrooftop).
holds(s_7763_jpg, vendingmachine).
holds(s_7763_jpg, statue).
holds(s_7763_jpg, pipe).
holds(s_7763_jpg, machine).

sample(s_2133_jpg).
holds(s_2133_jpg, building).
holds(s_2133_jpg, feature).
holds(s_2133_jpg, hotel).
holds(s_2133_jpg, porch).
holds(s_2133_jpg, sign).
holds(s_2133_jpg, table).
holds(s_2133_jpg, tiledroof).
holds(s_2133_jpg, tiledrooftop).
holds(s_2133_jpg, vendingmachine).
holds(s_2133_jpg, statue).
holds(s_2133_jpg, pipe).
holds(s_2133_jpg, machine).
holds(s_2133_jpg, commercial).

sample(s_8176_jpg).
holds(s_8176_jpg, building).
holds(s_8176_jpg, feature).
holds(s_8176_jpg, watertreatment).
holds(s_8176_jpg, door).
holds(s_8176_jpg, billboard).
holds(s_8176_jpg, porch).
holds(s_8176_jpg, sign).
holds(s_8176_jpg, tiledroof).
holds(s_8176_jpg, tiledrooftop).
holds(s_8176_jpg, wallsign).
holds(s_8176_jpg, chimney).
holds(s_8176_jpg, pipe).
holds(s_8176_jpg, industrial).

sample(s_11182_jpg).
holds(s_11182_jpg, building).
holds(s_11182_jpg, feature).
holds(s_11182_jpg, watertreatment).
holds(s_11182_jpg, door).
holds(s_11182_jpg, billboard).
holds(s_11182_jpg, porch).
holds(s_11182_jpg, sign).
holds(s_11182_jpg, tiledroof).
holds(s_11182_jpg, wallsign).
holds(s_11182_jpg, industrial).

sample(s_6433_jpg).
holds(s_6433_jpg, building).
holds(s_6433_jpg, feature).
holds(s_6433_jpg, watertreatment).
holds(s_6433_jpg, door).
holds(s_6433_jpg, billboard).
holds(s_6433_jpg, porch).
holds(s_6433_jpg, sign).
holds(s_6433_jpg, tiledroof).
holds(s_6433_jpg, wallsign).
holds(s_6433_jpg, industrial).

sample(s_14083_jpg).
holds(s_14083_jpg, building).
holds(s_14083_jpg, feature).
holds(s_14083_jpg, watertreatment).
holds(s_14083_jpg, door).
holds(s_14083_jpg, billboard).
holds(s_14083_jpg, porch).
holds(s_14083_jpg, sign).
holds(s_14083_jpg, tiledroof).
holds(s_14083_jpg, tiledrooftop).
holds(s_14083_jpg, wallsign).
holds(s_14083_jpg, industrial).

sample(s_13970_jpg).
holds(s_13970_jpg, building).
holds(s_13970_jpg, feature).
holds(s_13970_jpg, hotel).
holds(s_13970_jpg, porch).
holds(s_13970_jpg, sign).
holds(s_13970_jpg, table).
holds(s_13970_jpg, tiledroof).
holds(s_13970_jpg, tiledrooftop).
holds(s_13970_jpg, vendingmachine).
holds(s_13970_jpg, statue).
holds(s_13970_jpg, pipe).
holds(s_13970_jpg, machine).
holds(s_13970_jpg, commercial).

sample(s_6685_jpg).
holds(s_6685_jpg, building).
holds(s_6685_jpg, feature).
holds(s_6685_jpg, watertreatment).
holds(s_6685_jpg, door).
holds(s_6685_jpg, billboard).
holds(s_6685_jpg, porch).
holds(s_6685_jpg, sign).
holds(s_6685_jpg, tiledroof).
holds(s_6685_jpg, wallsign).
holds(s_6685_jpg, industrial).

sample(s_1095_jpg).
holds(s_1095_jpg, building).
holds(s_1095_jpg, feature).
holds(s_1095_jpg, hotel).
holds(s_1095_jpg, door).
holds(s_1095_jpg, billboard).
holds(s_1095_jpg, porch).
holds(s_1095_jpg, sign).
holds(s_1095_jpg, tiledroof).
holds(s_1095_jpg, tiledrooftop).
holds(s_1095_jpg, wallsign).
holds(s_1095_jpg, chimney).
holds(s_1095_jpg, pipe).
holds(s_1095_jpg, car).
holds(s_1095_jpg, commercial).

sample(s_10919_jpg).
holds(s_10919_jpg, building).
holds(s_10919_jpg, feature).
holds(s_10919_jpg, porch).
holds(s_10919_jpg, sign).
holds(s_10919_jpg, table).
holds(s_10919_jpg, tiledrooftop).
holds(s_10919_jpg, vendingmachine).
holds(s_10919_jpg, statue).
holds(s_10919_jpg, pipe).

sample(s_10847_jpg).
holds(s_10847_jpg, building).
holds(s_10847_jpg, feature).
holds(s_10847_jpg, window).
holds(s_10847_jpg, porch).
holds(s_10847_jpg, sign).
holds(s_10847_jpg, table).
holds(s_10847_jpg, tiledrooftop).
holds(s_10847_jpg, vendingmachine).
holds(s_10847_jpg, statue).
holds(s_10847_jpg, pipe).

sample(s_30_jpg).
holds(s_30_jpg, building).
holds(s_30_jpg, feature).
holds(s_30_jpg, hotel).
holds(s_30_jpg, door).
holds(s_30_jpg, billboard).
holds(s_30_jpg, porch).
holds(s_30_jpg, sign).
holds(s_30_jpg, tiledroof).
holds(s_30_jpg, tiledrooftop).
holds(s_30_jpg, wallsign).
holds(s_30_jpg, chimney).
holds(s_30_jpg, pipe).
holds(s_30_jpg, car).
holds(s_30_jpg, commercial).

sample(s_13027_jpg).
holds(s_13027_jpg, building).
holds(s_13027_jpg, feature).
holds(s_13027_jpg, watertreatment).
holds(s_13027_jpg, door).
holds(s_13027_jpg, billboard).
holds(s_13027_jpg, porch).
holds(s_13027_jpg, sign).
holds(s_13027_jpg, tiledroof).
holds(s_13027_jpg, tiledrooftop).
holds(s_13027_jpg, wallsign).
holds(s_13027_jpg, chimney).
holds(s_13027_jpg, pipe).
holds(s_13027_jpg, industrial).

sample(s_2302_jpg).
holds(s_2302_jpg, building).
holds(s_2302_jpg, feature).
holds(s_2302_jpg, watertreatment).
holds(s_2302_jpg, door).
holds(s_2302_jpg, billboard).
holds(s_2302_jpg, porch).
holds(s_2302_jpg, sign).
holds(s_2302_jpg, tiledroof).
holds(s_2302_jpg, wallsign).
holds(s_2302_jpg, pipe).
holds(s_2302_jpg, industrial).

sample(s_13518_jpg).
holds(s_13518_jpg, building).
holds(s_13518_jpg, feature).
holds(s_13518_jpg, hotel).
holds(s_13518_jpg, door).
holds(s_13518_jpg, billboard).
holds(s_13518_jpg, sign).
holds(s_13518_jpg, tiledroof).
holds(s_13518_jpg, tiledrooftop).
holds(s_13518_jpg, wallsign).
holds(s_13518_jpg, chimney).
holds(s_13518_jpg, pipe).
holds(s_13518_jpg, car).
holds(s_13518_jpg, commercial).

sample(s_15186_jpg).
holds(s_15186_jpg, building).
holds(s_15186_jpg, feature).
holds(s_15186_jpg, hotel).
holds(s_15186_jpg, billboard).
holds(s_15186_jpg, porch).
holds(s_15186_jpg, sign).
holds(s_15186_jpg, table).
holds(s_15186_jpg, tiledroof).
holds(s_15186_jpg, tiledrooftop).
holds(s_15186_jpg, vendingmachine).
holds(s_15186_jpg, statue).
holds(s_15186_jpg, chimney).
holds(s_15186_jpg, pipe).
holds(s_15186_jpg, machine).
holds(s_15186_jpg, car).
holds(s_15186_jpg, commercial).

sample(s_8150_jpg).
holds(s_8150_jpg, building).
holds(s_8150_jpg, feature).
holds(s_8150_jpg, window).
holds(s_8150_jpg, porch).
holds(s_8150_jpg, sign).
holds(s_8150_jpg, table).
holds(s_8150_jpg, tiledrooftop).
holds(s_8150_jpg, vendingmachine).
holds(s_8150_jpg, statue).
holds(s_8150_jpg, pipe).

sample(s_500_jpg).
holds(s_500_jpg, building).
holds(s_500_jpg, feature).
holds(s_500_jpg, sign).
holds(s_500_jpg, table).
holds(s_500_jpg, tiledrooftop).
holds(s_500_jpg, vendingmachine).
holds(s_500_jpg, statue).
holds(s_500_jpg, pipe).
holds(s_500_jpg, machine).

sample(s_14671_jpg).
holds(s_14671_jpg, building).
holds(s_14671_jpg, feature).
holds(s_14671_jpg, watertreatment).
holds(s_14671_jpg, door).
holds(s_14671_jpg, billboard).
holds(s_14671_jpg, porch).
holds(s_14671_jpg, sign).
holds(s_14671_jpg, tiledroof).
holds(s_14671_jpg, wallsign).
holds(s_14671_jpg, industrial).

sample(s_414_jpg).
holds(s_414_jpg, building).
holds(s_414_jpg, feature).
holds(s_414_jpg, hotel).
holds(s_414_jpg, door).
holds(s_414_jpg, billboard).
holds(s_414_jpg, porch).
holds(s_414_jpg, sign).
holds(s_414_jpg, tiledroof).
holds(s_414_jpg, tiledrooftop).
holds(s_414_jpg, wallsign).
holds(s_414_jpg, chimney).
holds(s_414_jpg, pipe).
holds(s_414_jpg, car).
holds(s_414_jpg, commercial).

sample(s_8435_jpg).
holds(s_8435_jpg, building).
holds(s_8435_jpg, feature).
holds(s_8435_jpg, sign).
holds(s_8435_jpg, table).
holds(s_8435_jpg, tiledrooftop).
holds(s_8435_jpg, vendingmachine).
holds(s_8435_jpg, statue).
holds(s_8435_jpg, pipe).
holds(s_8435_jpg, machine).

sample(s_7264_jpg).
holds(s_7264_jpg, building).
holds(s_7264_jpg, feature).
holds(s_7264_jpg, watertreatment).
holds(s_7264_jpg, door).
holds(s_7264_jpg, billboard).
holds(s_7264_jpg, porch).
holds(s_7264_jpg, sign).
holds(s_7264_jpg, tiledroof).
holds(s_7264_jpg, wallsign).
holds(s_7264_jpg, chimney).
holds(s_7264_jpg, pipe).
holds(s_7264_jpg, industrial).

sample(s_8395_jpg).
holds(s_8395_jpg, building).
holds(s_8395_jpg, feature).
holds(s_8395_jpg, watertreatment).
holds(s_8395_jpg, door).
holds(s_8395_jpg, billboard).
holds(s_8395_jpg, porch).
holds(s_8395_jpg, sign).
holds(s_8395_jpg, tiledroof).
holds(s_8395_jpg, wallsign).
holds(s_8395_jpg, chimney).
holds(s_8395_jpg, pipe).
holds(s_8395_jpg, industrial).

sample(s_639_jpg).
holds(s_639_jpg, building).
holds(s_639_jpg, feature).
holds(s_639_jpg, hotel).
holds(s_639_jpg, door).
holds(s_639_jpg, billboard).
holds(s_639_jpg, porch).
holds(s_639_jpg, sign).
holds(s_639_jpg, tiledroof).
holds(s_639_jpg, tiledrooftop).
holds(s_639_jpg, wallsign).
holds(s_639_jpg, chimney).
holds(s_639_jpg, pipe).
holds(s_639_jpg, car).
holds(s_639_jpg, commercial).

sample(s_7420_jpg).
holds(s_7420_jpg, building).
holds(s_7420_jpg, feature).
holds(s_7420_jpg, watertreatment).
holds(s_7420_jpg, door).
holds(s_7420_jpg, billboard).
holds(s_7420_jpg, porch).
holds(s_7420_jpg, sign).
holds(s_7420_jpg, tiledroof).
holds(s_7420_jpg, tiledrooftop).
holds(s_7420_jpg, wallsign).
holds(s_7420_jpg, chimney).
holds(s_7420_jpg, pipe).
holds(s_7420_jpg, industrial).

sample(s_5239_jpg).
holds(s_5239_jpg, building).
holds(s_5239_jpg, feature).
holds(s_5239_jpg, watertreatment).
holds(s_5239_jpg, door).
holds(s_5239_jpg, billboard).
holds(s_5239_jpg, porch).
holds(s_5239_jpg, sign).
holds(s_5239_jpg, tiledroof).
holds(s_5239_jpg, tiledrooftop).
holds(s_5239_jpg, wallsign).
holds(s_5239_jpg, industrial).

sample(s_10838_jpg).
holds(s_10838_jpg, building).
holds(s_10838_jpg, feature).
holds(s_10838_jpg, sign).
holds(s_10838_jpg, table).
holds(s_10838_jpg, tiledrooftop).
holds(s_10838_jpg, vendingmachine).
holds(s_10838_jpg, statue).
holds(s_10838_jpg, pipe).

sample(s_1961_jpg).
holds(s_1961_jpg, building).
holds(s_1961_jpg, feature).
holds(s_1961_jpg, sign).
holds(s_1961_jpg, table).
holds(s_1961_jpg, tiledrooftop).
holds(s_1961_jpg, vendingmachine).
holds(s_1961_jpg, statue).
holds(s_1961_jpg, pipe).
holds(s_1961_jpg, machine).

sample(s_15802_jpg).
holds(s_15802_jpg, building).
holds(s_15802_jpg, feature).
holds(s_15802_jpg, watertreatment).
holds(s_15802_jpg, door).
holds(s_15802_jpg, billboard).
holds(s_15802_jpg, sign).
holds(s_15802_jpg, tiledroof).
holds(s_15802_jpg, tiledrooftop).
holds(s_15802_jpg, wallsign).
holds(s_15802_jpg, chimney).
holds(s_15802_jpg, pipe).
holds(s_15802_jpg, industrial).

sample(s_9960_jpg).
holds(s_9960_jpg, building).
holds(s_9960_jpg, feature).
holds(s_9960_jpg, hotel).
holds(s_9960_jpg, billboard).
holds(s_9960_jpg, porch).
holds(s_9960_jpg, sign).
holds(s_9960_jpg, table).
holds(s_9960_jpg, tiledroof).
holds(s_9960_jpg, tiledrooftop).
holds(s_9960_jpg, vendingmachine).
holds(s_9960_jpg, statue).
holds(s_9960_jpg, chimney).
holds(s_9960_jpg, pipe).
holds(s_9960_jpg, machine).
holds(s_9960_jpg, car).
holds(s_9960_jpg, commercial).

sample(s_9180_jpg).
holds(s_9180_jpg, building).
holds(s_9180_jpg, feature).
holds(s_9180_jpg, hotel).
holds(s_9180_jpg, door).
holds(s_9180_jpg, billboard).
holds(s_9180_jpg, porch).
holds(s_9180_jpg, sign).
holds(s_9180_jpg, tiledroof).
holds(s_9180_jpg, tiledrooftop).
holds(s_9180_jpg, vendingmachine).
holds(s_9180_jpg, wallsign).
holds(s_9180_jpg, chimney).
holds(s_9180_jpg, pipe).
holds(s_9180_jpg, car).
holds(s_9180_jpg, commercial).

sample(s_5606_jpg).
holds(s_5606_jpg, building).
holds(s_5606_jpg, feature).
holds(s_5606_jpg, sign).
holds(s_5606_jpg, table).
holds(s_5606_jpg, tiledrooftop).
holds(s_5606_jpg, vendingmachine).
holds(s_5606_jpg, statue).
holds(s_5606_jpg, pipe).
holds(s_5606_jpg, machine).

sample(s_3559_jpg).
holds(s_3559_jpg, building).
holds(s_3559_jpg, feature).
holds(s_3559_jpg, watertreatment).
holds(s_3559_jpg, door).
holds(s_3559_jpg, billboard).
holds(s_3559_jpg, porch).
holds(s_3559_jpg, sign).
holds(s_3559_jpg, tiledroof).
holds(s_3559_jpg, wallsign).
holds(s_3559_jpg, chimney).
holds(s_3559_jpg, pipe).
holds(s_3559_jpg, car).
holds(s_3559_jpg, industrial).

sample(s_2745_jpg).
holds(s_2745_jpg, building).
holds(s_2745_jpg, feature).
holds(s_2745_jpg, hotel).
holds(s_2745_jpg, billboard).
holds(s_2745_jpg, sign).
holds(s_2745_jpg, tiledroof).
holds(s_2745_jpg, tiledrooftop).
holds(s_2745_jpg, chimney).
holds(s_2745_jpg, pipe).
holds(s_2745_jpg, car).
holds(s_2745_jpg, commercial).

sample(s_2146_jpg).
holds(s_2146_jpg, building).
holds(s_2146_jpg, feature).
holds(s_2146_jpg, watertreatment).
holds(s_2146_jpg, door).
holds(s_2146_jpg, billboard).
holds(s_2146_jpg, porch).
holds(s_2146_jpg, sign).
holds(s_2146_jpg, tiledroof).
holds(s_2146_jpg, wallsign).
holds(s_2146_jpg, pipe).
holds(s_2146_jpg, industrial).

sample(s_8352_jpg).
holds(s_8352_jpg, building).
holds(s_8352_jpg, feature).
holds(s_8352_jpg, hotel).
holds(s_8352_jpg, billboard).
holds(s_8352_jpg, sign).
holds(s_8352_jpg, table).
holds(s_8352_jpg, tiledroof).
holds(s_8352_jpg, tiledrooftop).
holds(s_8352_jpg, chimney).
holds(s_8352_jpg, pipe).
holds(s_8352_jpg, machine).
holds(s_8352_jpg, car).
holds(s_8352_jpg, commercial).

sample(s_14877_jpg).
holds(s_14877_jpg, building).
holds(s_14877_jpg, feature).
holds(s_14877_jpg, hotel).
holds(s_14877_jpg, billboard).
holds(s_14877_jpg, porch).
holds(s_14877_jpg, sign).
holds(s_14877_jpg, table).
holds(s_14877_jpg, tiledroof).
holds(s_14877_jpg, tiledrooftop).
holds(s_14877_jpg, vendingmachine).
holds(s_14877_jpg, statue).
holds(s_14877_jpg, chimney).
holds(s_14877_jpg, pipe).
holds(s_14877_jpg, machine).
holds(s_14877_jpg, car).
holds(s_14877_jpg, commercial).

sample(s_15042_jpg).
holds(s_15042_jpg, building).
holds(s_15042_jpg, feature).
holds(s_15042_jpg, hotel).
holds(s_15042_jpg, billboard).
holds(s_15042_jpg, porch).
holds(s_15042_jpg, sign).
holds(s_15042_jpg, table).
holds(s_15042_jpg, tiledroof).
holds(s_15042_jpg, tiledrooftop).
holds(s_15042_jpg, vendingmachine).
holds(s_15042_jpg, wallsign).
holds(s_15042_jpg, chimney).
holds(s_15042_jpg, pipe).
holds(s_15042_jpg, machine).
holds(s_15042_jpg, car).
holds(s_15042_jpg, commercial).

sample(s_15711_jpg).
holds(s_15711_jpg, building).
holds(s_15711_jpg, feature).
holds(s_15711_jpg, hotel).
holds(s_15711_jpg, billboard).
holds(s_15711_jpg, sign).
holds(s_15711_jpg, table).
holds(s_15711_jpg, tiledroof).
holds(s_15711_jpg, tiledrooftop).
holds(s_15711_jpg, vendingmachine).
holds(s_15711_jpg, chimney).
holds(s_15711_jpg, pipe).
holds(s_15711_jpg, machine).
holds(s_15711_jpg, car).
holds(s_15711_jpg, commercial).

sample(s_13506_jpg).
holds(s_13506_jpg, building).
holds(s_13506_jpg, feature).
holds(s_13506_jpg, hotel).
holds(s_13506_jpg, door).
holds(s_13506_jpg, billboard).
holds(s_13506_jpg, porch).
holds(s_13506_jpg, sign).
holds(s_13506_jpg, tiledroof).
holds(s_13506_jpg, tiledrooftop).
holds(s_13506_jpg, vendingmachine).
holds(s_13506_jpg, wallsign).
holds(s_13506_jpg, chimney).
holds(s_13506_jpg, pipe).
holds(s_13506_jpg, car).
holds(s_13506_jpg, commercial).

sample(s_4652_jpg).
holds(s_4652_jpg, building).
holds(s_4652_jpg, feature).
holds(s_4652_jpg, sign).
holds(s_4652_jpg, table).
holds(s_4652_jpg, tiledrooftop).
holds(s_4652_jpg, vendingmachine).
holds(s_4652_jpg, statue).
holds(s_4652_jpg, pipe).

sample(s_12969_jpg).
holds(s_12969_jpg, building).
holds(s_12969_jpg, feature).
holds(s_12969_jpg, hotel).
holds(s_12969_jpg, door).
holds(s_12969_jpg, billboard).
holds(s_12969_jpg, porch).
holds(s_12969_jpg, sign).
holds(s_12969_jpg, tiledroof).
holds(s_12969_jpg, tiledrooftop).
holds(s_12969_jpg, vendingmachine).
holds(s_12969_jpg, wallsign).
holds(s_12969_jpg, chimney).
holds(s_12969_jpg, pipe).
holds(s_12969_jpg, car).
holds(s_12969_jpg, commercial).

sample(s_2975_jpg).
holds(s_2975_jpg, building).
holds(s_2975_jpg, feature).
holds(s_2975_jpg, porch).
holds(s_2975_jpg, sign).
holds(s_2975_jpg, table).
holds(s_2975_jpg, tiledrooftop).
holds(s_2975_jpg, vendingmachine).
holds(s_2975_jpg, statue).
holds(s_2975_jpg, pipe).

sample(s_3699_jpg).
holds(s_3699_jpg, building).
holds(s_3699_jpg, feature).
holds(s_3699_jpg, hotel).
holds(s_3699_jpg, billboard).
holds(s_3699_jpg, sign).
holds(s_3699_jpg, table).
holds(s_3699_jpg, tiledroof).
holds(s_3699_jpg, tiledrooftop).
holds(s_3699_jpg, vendingmachine).
holds(s_3699_jpg, wallsign).
holds(s_3699_jpg, chimney).
holds(s_3699_jpg, pipe).
holds(s_3699_jpg, machine).
holds(s_3699_jpg, car).
holds(s_3699_jpg, commercial).

sample(s_10757_jpg).
holds(s_10757_jpg, building).
holds(s_10757_jpg, feature).
holds(s_10757_jpg, sign).
holds(s_10757_jpg, table).
holds(s_10757_jpg, tiledrooftop).
holds(s_10757_jpg, vendingmachine).
holds(s_10757_jpg, statue).
holds(s_10757_jpg, pipe).
holds(s_10757_jpg, machine).

sample(s_8779_jpg).
holds(s_8779_jpg, building).
holds(s_8779_jpg, feature).
holds(s_8779_jpg, watertreatment).
holds(s_8779_jpg, door).
holds(s_8779_jpg, billboard).
holds(s_8779_jpg, porch).
holds(s_8779_jpg, sign).
holds(s_8779_jpg, tiledroof).
holds(s_8779_jpg, wallsign).
holds(s_8779_jpg, industrial).

sample(s_9541_jpg).
holds(s_9541_jpg, building).
holds(s_9541_jpg, feature).
holds(s_9541_jpg, watertreatment).
holds(s_9541_jpg, door).
holds(s_9541_jpg, billboard).
holds(s_9541_jpg, porch).
holds(s_9541_jpg, sign).
holds(s_9541_jpg, tiledroof).
holds(s_9541_jpg, wallsign).
holds(s_9541_jpg, chimney).
holds(s_9541_jpg, pipe).
holds(s_9541_jpg, industrial).

sample(s_3950_jpg).
holds(s_3950_jpg, building).
holds(s_3950_jpg, feature).
holds(s_3950_jpg, porch).
holds(s_3950_jpg, sign).
holds(s_3950_jpg, table).
holds(s_3950_jpg, tiledrooftop).
holds(s_3950_jpg, vendingmachine).
holds(s_3950_jpg, statue).

sample(s_2242_jpg).
holds(s_2242_jpg, building).
holds(s_2242_jpg, feature).
holds(s_2242_jpg, watertreatment).
holds(s_2242_jpg, door).
holds(s_2242_jpg, billboard).
holds(s_2242_jpg, porch).
holds(s_2242_jpg, sign).
holds(s_2242_jpg, tiledroof).
holds(s_2242_jpg, tiledrooftop).
holds(s_2242_jpg, wallsign).
holds(s_2242_jpg, industrial).

sample(s_9859_jpg).
holds(s_9859_jpg, building).
holds(s_9859_jpg, feature).
holds(s_9859_jpg, watertreatment).
holds(s_9859_jpg, door).
holds(s_9859_jpg, billboard).
holds(s_9859_jpg, porch).
holds(s_9859_jpg, sign).
holds(s_9859_jpg, tiledroof).
holds(s_9859_jpg, tiledrooftop).
holds(s_9859_jpg, wallsign).
holds(s_9859_jpg, industrial).

sample(s_3597_jpg).
holds(s_3597_jpg, building).
holds(s_3597_jpg, feature).
holds(s_3597_jpg, hotel).
holds(s_3597_jpg, billboard).
holds(s_3597_jpg, porch).
holds(s_3597_jpg, sign).
holds(s_3597_jpg, table).
holds(s_3597_jpg, tiledroof).
holds(s_3597_jpg, tiledrooftop).
holds(s_3597_jpg, vendingmachine).
holds(s_3597_jpg, chimney).
holds(s_3597_jpg, pipe).
holds(s_3597_jpg, machine).
holds(s_3597_jpg, car).
holds(s_3597_jpg, commercial).

sample(s_7964_jpg).
holds(s_7964_jpg, building).
holds(s_7964_jpg, feature).
holds(s_7964_jpg, sign).
holds(s_7964_jpg, table).
holds(s_7964_jpg, tiledrooftop).
holds(s_7964_jpg, vendingmachine).
holds(s_7964_jpg, statue).
holds(s_7964_jpg, pipe).

sample(s_2392_jpg).
holds(s_2392_jpg, building).
holds(s_2392_jpg, feature).
holds(s_2392_jpg, watertreatment).
holds(s_2392_jpg, door).
holds(s_2392_jpg, billboard).
holds(s_2392_jpg, porch).
holds(s_2392_jpg, sign).
holds(s_2392_jpg, tiledroof).
holds(s_2392_jpg, wallsign).
holds(s_2392_jpg, industrial).

sample(s_1824_jpg).
holds(s_1824_jpg, building).
holds(s_1824_jpg, feature).
holds(s_1824_jpg, hotel).
holds(s_1824_jpg, door).
holds(s_1824_jpg, billboard).
holds(s_1824_jpg, porch).
holds(s_1824_jpg, sign).
holds(s_1824_jpg, tiledroof).
holds(s_1824_jpg, tiledrooftop).
holds(s_1824_jpg, vendingmachine).
holds(s_1824_jpg, wallsign).
holds(s_1824_jpg, chimney).
holds(s_1824_jpg, pipe).
holds(s_1824_jpg, car).
holds(s_1824_jpg, commercial).

sample(s_13355_jpg).
holds(s_13355_jpg, building).
holds(s_13355_jpg, feature).
holds(s_13355_jpg, sign).
holds(s_13355_jpg, table).
holds(s_13355_jpg, tiledrooftop).
holds(s_13355_jpg, vendingmachine).
holds(s_13355_jpg, statue).
holds(s_13355_jpg, pipe).

sample(s_10759_jpg).
holds(s_10759_jpg, building).
holds(s_10759_jpg, feature).
holds(s_10759_jpg, watertreatment).
holds(s_10759_jpg, door).
holds(s_10759_jpg, billboard).
holds(s_10759_jpg, porch).
holds(s_10759_jpg, sign).
holds(s_10759_jpg, tiledroof).
holds(s_10759_jpg, wallsign).
holds(s_10759_jpg, chimney).
holds(s_10759_jpg, pipe).
holds(s_10759_jpg, industrial).

sample(s_9729_jpg).
holds(s_9729_jpg, building).
holds(s_9729_jpg, feature).
holds(s_9729_jpg, hotel).
holds(s_9729_jpg, door).
holds(s_9729_jpg, billboard).
holds(s_9729_jpg, porch).
holds(s_9729_jpg, sign).
holds(s_9729_jpg, tiledroof).
holds(s_9729_jpg, tiledrooftop).
holds(s_9729_jpg, wallsign).
holds(s_9729_jpg, chimney).
holds(s_9729_jpg, pipe).
holds(s_9729_jpg, car).
holds(s_9729_jpg, commercial).

sample(s_271_jpg).
holds(s_271_jpg, building).
holds(s_271_jpg, feature).
holds(s_271_jpg, watertreatment).
holds(s_271_jpg, door).
holds(s_271_jpg, billboard).
holds(s_271_jpg, porch).
holds(s_271_jpg, sign).
holds(s_271_jpg, tiledroof).
holds(s_271_jpg, tiledrooftop).
holds(s_271_jpg, wallsign).
holds(s_271_jpg, chimney).
holds(s_271_jpg, pipe).
holds(s_271_jpg, industrial).

sample(s_9536_jpg).
holds(s_9536_jpg, building).
holds(s_9536_jpg, feature).
holds(s_9536_jpg, window).
holds(s_9536_jpg, porch).
holds(s_9536_jpg, sign).
holds(s_9536_jpg, table).
holds(s_9536_jpg, tiledrooftop).
holds(s_9536_jpg, vendingmachine).
holds(s_9536_jpg, statue).
holds(s_9536_jpg, pipe).

sample(s_1951_jpg).
holds(s_1951_jpg, building).
holds(s_1951_jpg, feature).
holds(s_1951_jpg, watertreatment).
holds(s_1951_jpg, door).
holds(s_1951_jpg, billboard).
holds(s_1951_jpg, porch).
holds(s_1951_jpg, sign).
holds(s_1951_jpg, tiledroof).
holds(s_1951_jpg, wallsign).
holds(s_1951_jpg, pipe).
holds(s_1951_jpg, industrial).

sample(s_8520_jpg).
holds(s_8520_jpg, building).
holds(s_8520_jpg, feature).
holds(s_8520_jpg, hotel).
holds(s_8520_jpg, door).
holds(s_8520_jpg, billboard).
holds(s_8520_jpg, porch).
holds(s_8520_jpg, sign).
holds(s_8520_jpg, tiledroof).
holds(s_8520_jpg, tiledrooftop).
holds(s_8520_jpg, wallsign).
holds(s_8520_jpg, chimney).
holds(s_8520_jpg, pipe).
holds(s_8520_jpg, car).
holds(s_8520_jpg, commercial).

sample(s_3138_jpg).
holds(s_3138_jpg, building).
holds(s_3138_jpg, feature).
holds(s_3138_jpg, hotel).
holds(s_3138_jpg, door).
holds(s_3138_jpg, billboard).
holds(s_3138_jpg, porch).
holds(s_3138_jpg, sign).
holds(s_3138_jpg, tiledroof).
holds(s_3138_jpg, tiledrooftop).
holds(s_3138_jpg, wallsign).
holds(s_3138_jpg, chimney).
holds(s_3138_jpg, pipe).
holds(s_3138_jpg, car).
holds(s_3138_jpg, commercial).

sample(s_2742_jpg).
holds(s_2742_jpg, building).
holds(s_2742_jpg, feature).
holds(s_2742_jpg, hotel).
holds(s_2742_jpg, door).
holds(s_2742_jpg, billboard).
holds(s_2742_jpg, porch).
holds(s_2742_jpg, sign).
holds(s_2742_jpg, tiledroof).
holds(s_2742_jpg, tiledrooftop).
holds(s_2742_jpg, wallsign).
holds(s_2742_jpg, chimney).
holds(s_2742_jpg, pipe).
holds(s_2742_jpg, car).
holds(s_2742_jpg, commercial).

sample(s_1344_jpg).
holds(s_1344_jpg, building).
holds(s_1344_jpg, feature).
holds(s_1344_jpg, hotel).
holds(s_1344_jpg, door).
holds(s_1344_jpg, billboard).
holds(s_1344_jpg, porch).
holds(s_1344_jpg, sign).
holds(s_1344_jpg, tiledroof).
holds(s_1344_jpg, tiledrooftop).
holds(s_1344_jpg, vendingmachine).
holds(s_1344_jpg, wallsign).
holds(s_1344_jpg, chimney).
holds(s_1344_jpg, pipe).
holds(s_1344_jpg, car).
holds(s_1344_jpg, commercial).

sample(s_885_jpg).
holds(s_885_jpg, building).
holds(s_885_jpg, feature).
holds(s_885_jpg, hotel).
holds(s_885_jpg, door).
holds(s_885_jpg, billboard).
holds(s_885_jpg, porch).
holds(s_885_jpg, sign).
holds(s_885_jpg, tiledroof).
holds(s_885_jpg, tiledrooftop).
holds(s_885_jpg, wallsign).
holds(s_885_jpg, chimney).
holds(s_885_jpg, pipe).
holds(s_885_jpg, car).
holds(s_885_jpg, commercial).

sample(s_4623_jpg).
holds(s_4623_jpg, building).
holds(s_4623_jpg, feature).
holds(s_4623_jpg, hotel).
holds(s_4623_jpg, billboard).
holds(s_4623_jpg, sign).
holds(s_4623_jpg, tiledroof).
holds(s_4623_jpg, tiledrooftop).
holds(s_4623_jpg, wallsign).
holds(s_4623_jpg, chimney).
holds(s_4623_jpg, pipe).
holds(s_4623_jpg, machine).
holds(s_4623_jpg, car).
holds(s_4623_jpg, commercial).

sample(s_4683_jpg).
holds(s_4683_jpg, building).
holds(s_4683_jpg, feature).
holds(s_4683_jpg, hotel).
holds(s_4683_jpg, billboard).
holds(s_4683_jpg, porch).
holds(s_4683_jpg, sign).
holds(s_4683_jpg, table).
holds(s_4683_jpg, tiledroof).
holds(s_4683_jpg, tiledrooftop).
holds(s_4683_jpg, vendingmachine).
holds(s_4683_jpg, wallsign).
holds(s_4683_jpg, chimney).
holds(s_4683_jpg, pipe).
holds(s_4683_jpg, machine).
holds(s_4683_jpg, car).
holds(s_4683_jpg, commercial).

sample(s_8059_jpg).
holds(s_8059_jpg, building).
holds(s_8059_jpg, feature).
holds(s_8059_jpg, watertreatment).
holds(s_8059_jpg, door).
holds(s_8059_jpg, billboard).
holds(s_8059_jpg, porch).
holds(s_8059_jpg, sign).
holds(s_8059_jpg, tiledroof).
holds(s_8059_jpg, tiledrooftop).
holds(s_8059_jpg, wallsign).
holds(s_8059_jpg, industrial).

sample(s_9639_jpg).
holds(s_9639_jpg, building).
holds(s_9639_jpg, feature).
holds(s_9639_jpg, hotel).
holds(s_9639_jpg, door).
holds(s_9639_jpg, billboard).
holds(s_9639_jpg, porch).
holds(s_9639_jpg, sign).
holds(s_9639_jpg, tiledroof).
holds(s_9639_jpg, tiledrooftop).
holds(s_9639_jpg, wallsign).
holds(s_9639_jpg, chimney).
holds(s_9639_jpg, pipe).
holds(s_9639_jpg, car).
holds(s_9639_jpg, commercial).

sample(s_7906_jpg).
holds(s_7906_jpg, building).
holds(s_7906_jpg, feature).
holds(s_7906_jpg, watertreatment).
holds(s_7906_jpg, door).
holds(s_7906_jpg, billboard).
holds(s_7906_jpg, porch).
holds(s_7906_jpg, sign).
holds(s_7906_jpg, tiledroof).
holds(s_7906_jpg, wallsign).
holds(s_7906_jpg, industrial).

sample(s_6506_jpg).
holds(s_6506_jpg, building).
holds(s_6506_jpg, feature).
holds(s_6506_jpg, porch).
holds(s_6506_jpg, sign).
holds(s_6506_jpg, table).
holds(s_6506_jpg, tiledrooftop).
holds(s_6506_jpg, vendingmachine).
holds(s_6506_jpg, statue).
holds(s_6506_jpg, pipe).
holds(s_6506_jpg, machine).

sample(s_6183_jpg).
holds(s_6183_jpg, building).
holds(s_6183_jpg, feature).
holds(s_6183_jpg, hotel).
holds(s_6183_jpg, door).
holds(s_6183_jpg, billboard).
holds(s_6183_jpg, porch).
holds(s_6183_jpg, sign).
holds(s_6183_jpg, tiledroof).
holds(s_6183_jpg, tiledrooftop).
holds(s_6183_jpg, wallsign).
holds(s_6183_jpg, chimney).
holds(s_6183_jpg, pipe).
holds(s_6183_jpg, car).
holds(s_6183_jpg, commercial).

sample(s_14828_jpg).
holds(s_14828_jpg, building).
holds(s_14828_jpg, feature).
holds(s_14828_jpg, porch).
holds(s_14828_jpg, sign).
holds(s_14828_jpg, table).
holds(s_14828_jpg, tiledrooftop).
holds(s_14828_jpg, vendingmachine).
holds(s_14828_jpg, statue).

sample(s_7787_jpg).
holds(s_7787_jpg, building).
holds(s_7787_jpg, feature).
holds(s_7787_jpg, sign).
holds(s_7787_jpg, table).
holds(s_7787_jpg, tiledrooftop).
holds(s_7787_jpg, vendingmachine).
holds(s_7787_jpg, statue).
holds(s_7787_jpg, pipe).

sample(s_2060_jpg).
holds(s_2060_jpg, building).
holds(s_2060_jpg, feature).
holds(s_2060_jpg, sign).
holds(s_2060_jpg, table).
holds(s_2060_jpg, tiledrooftop).
holds(s_2060_jpg, vendingmachine).
holds(s_2060_jpg, statue).
holds(s_2060_jpg, pipe).
holds(s_2060_jpg, machine).

sample(s_11466_jpg).
holds(s_11466_jpg, building).
holds(s_11466_jpg, feature).
holds(s_11466_jpg, hotel).
holds(s_11466_jpg, door).
holds(s_11466_jpg, billboard).
holds(s_11466_jpg, porch).
holds(s_11466_jpg, sign).
holds(s_11466_jpg, tiledroof).
holds(s_11466_jpg, tiledrooftop).
holds(s_11466_jpg, wallsign).
holds(s_11466_jpg, chimney).
holds(s_11466_jpg, pipe).
holds(s_11466_jpg, car).
holds(s_11466_jpg, commercial).

sample(s_10526_jpg).
holds(s_10526_jpg, building).
holds(s_10526_jpg, feature).
holds(s_10526_jpg, porch).
holds(s_10526_jpg, sign).
holds(s_10526_jpg, table).
holds(s_10526_jpg, tiledrooftop).
holds(s_10526_jpg, vendingmachine).
holds(s_10526_jpg, statue).

sample(s_13876_jpg).
holds(s_13876_jpg, building).
holds(s_13876_jpg, feature).
holds(s_13876_jpg, watertreatment).
holds(s_13876_jpg, door).
holds(s_13876_jpg, billboard).
holds(s_13876_jpg, porch).
holds(s_13876_jpg, sign).
holds(s_13876_jpg, tiledroof).
holds(s_13876_jpg, tiledrooftop).
holds(s_13876_jpg, wallsign).
holds(s_13876_jpg, pipe).
holds(s_13876_jpg, industrial).

sample(s_14515_jpg).
holds(s_14515_jpg, building).
holds(s_14515_jpg, feature).
holds(s_14515_jpg, watertreatment).
holds(s_14515_jpg, door).
holds(s_14515_jpg, billboard).
holds(s_14515_jpg, porch).
holds(s_14515_jpg, sign).
holds(s_14515_jpg, tiledroof).
holds(s_14515_jpg, tiledrooftop).
holds(s_14515_jpg, wallsign).
holds(s_14515_jpg, chimney).
holds(s_14515_jpg, pipe).
holds(s_14515_jpg, industrial).

sample(s_810_jpg).
holds(s_810_jpg, building).
holds(s_810_jpg, feature).
holds(s_810_jpg, hotel).
holds(s_810_jpg, door).
holds(s_810_jpg, billboard).
holds(s_810_jpg, porch).
holds(s_810_jpg, sign).
holds(s_810_jpg, tiledroof).
holds(s_810_jpg, tiledrooftop).
holds(s_810_jpg, wallsign).
holds(s_810_jpg, chimney).
holds(s_810_jpg, pipe).
holds(s_810_jpg, car).
holds(s_810_jpg, commercial).

sample(s_4082_jpg).
holds(s_4082_jpg, building).
holds(s_4082_jpg, feature).
holds(s_4082_jpg, porch).
holds(s_4082_jpg, sign).
holds(s_4082_jpg, table).
holds(s_4082_jpg, tiledrooftop).
holds(s_4082_jpg, vendingmachine).
holds(s_4082_jpg, statue).
holds(s_4082_jpg, pipe).
holds(s_4082_jpg, machine).

sample(s_12098_jpg).
holds(s_12098_jpg, building).
holds(s_12098_jpg, feature).
holds(s_12098_jpg, sign).
holds(s_12098_jpg, table).
holds(s_12098_jpg, tiledrooftop).
holds(s_12098_jpg, vendingmachine).
holds(s_12098_jpg, statue).
holds(s_12098_jpg, pipe).

sample(s_9860_jpg).
holds(s_9860_jpg, building).
holds(s_9860_jpg, feature).
holds(s_9860_jpg, sign).
holds(s_9860_jpg, table).
holds(s_9860_jpg, tiledrooftop).
holds(s_9860_jpg, vendingmachine).
holds(s_9860_jpg, statue).
holds(s_9860_jpg, pipe).
holds(s_9860_jpg, machine).

sample(s_1710_jpg).
holds(s_1710_jpg, building).
holds(s_1710_jpg, feature).
holds(s_1710_jpg, hotel).
holds(s_1710_jpg, billboard).
holds(s_1710_jpg, sign).
holds(s_1710_jpg, tiledroof).
holds(s_1710_jpg, tiledrooftop).
holds(s_1710_jpg, vendingmachine).
holds(s_1710_jpg, wallsign).
holds(s_1710_jpg, chimney).
holds(s_1710_jpg, pipe).
holds(s_1710_jpg, machine).
holds(s_1710_jpg, car).
holds(s_1710_jpg, commercial).

sample(s_5014_jpg).
holds(s_5014_jpg, building).
holds(s_5014_jpg, feature).
holds(s_5014_jpg, watertreatment).
holds(s_5014_jpg, door).
holds(s_5014_jpg, billboard).
holds(s_5014_jpg, porch).
holds(s_5014_jpg, sign).
holds(s_5014_jpg, tiledroof).
holds(s_5014_jpg, wallsign).
holds(s_5014_jpg, chimney).
holds(s_5014_jpg, pipe).
holds(s_5014_jpg, industrial).

sample(s_12241_jpg).
holds(s_12241_jpg, building).
holds(s_12241_jpg, feature).
holds(s_12241_jpg, watertreatment).
holds(s_12241_jpg, door).
holds(s_12241_jpg, billboard).
holds(s_12241_jpg, porch).
holds(s_12241_jpg, sign).
holds(s_12241_jpg, tiledroof).
holds(s_12241_jpg, tiledrooftop).
holds(s_12241_jpg, wallsign).
holds(s_12241_jpg, industrial).

sample(s_9902_jpg).
holds(s_9902_jpg, building).
holds(s_9902_jpg, feature).
holds(s_9902_jpg, billboard).
holds(s_9902_jpg, sign).
holds(s_9902_jpg, table).
holds(s_9902_jpg, tiledrooftop).
holds(s_9902_jpg, vendingmachine).
holds(s_9902_jpg, statue).
holds(s_9902_jpg, chimney).
holds(s_9902_jpg, pipe).
holds(s_9902_jpg, machine).

sample(s_15518_jpg).
holds(s_15518_jpg, building).
holds(s_15518_jpg, feature).
holds(s_15518_jpg, porch).
holds(s_15518_jpg, sign).
holds(s_15518_jpg, table).
holds(s_15518_jpg, tiledrooftop).
holds(s_15518_jpg, vendingmachine).
holds(s_15518_jpg, statue).

sample(s_6789_jpg).
holds(s_6789_jpg, building).
holds(s_6789_jpg, feature).
holds(s_6789_jpg, hotel).
holds(s_6789_jpg, billboard).
holds(s_6789_jpg, porch).
holds(s_6789_jpg, sign).
holds(s_6789_jpg, table).
holds(s_6789_jpg, tiledroof).
holds(s_6789_jpg, tiledrooftop).
holds(s_6789_jpg, vendingmachine).
holds(s_6789_jpg, statue).
holds(s_6789_jpg, chimney).
holds(s_6789_jpg, pipe).
holds(s_6789_jpg, machine).
holds(s_6789_jpg, car).
holds(s_6789_jpg, commercial).

sample(s_6671_jpg).
holds(s_6671_jpg, building).
holds(s_6671_jpg, feature).
holds(s_6671_jpg, sign).
holds(s_6671_jpg, table).
holds(s_6671_jpg, tiledrooftop).
holds(s_6671_jpg, vendingmachine).
holds(s_6671_jpg, statue).
holds(s_6671_jpg, pipe).

sample(s_12201_jpg).
holds(s_12201_jpg, building).
holds(s_12201_jpg, feature).
holds(s_12201_jpg, hotel).
holds(s_12201_jpg, door).
holds(s_12201_jpg, billboard).
holds(s_12201_jpg, sign).
holds(s_12201_jpg, tiledroof).
holds(s_12201_jpg, tiledrooftop).
holds(s_12201_jpg, wallsign).
holds(s_12201_jpg, chimney).
holds(s_12201_jpg, pipe).
holds(s_12201_jpg, car).
holds(s_12201_jpg, commercial).

sample(s_15288_jpg).
holds(s_15288_jpg, building).
holds(s_15288_jpg, feature).
holds(s_15288_jpg, hotel).
holds(s_15288_jpg, door).
holds(s_15288_jpg, billboard).
holds(s_15288_jpg, porch).
holds(s_15288_jpg, sign).
holds(s_15288_jpg, tiledroof).
holds(s_15288_jpg, tiledrooftop).
holds(s_15288_jpg, wallsign).
holds(s_15288_jpg, chimney).
holds(s_15288_jpg, pipe).
holds(s_15288_jpg, car).
holds(s_15288_jpg, commercial).

sample(s_11292_jpg).
holds(s_11292_jpg, building).
holds(s_11292_jpg, feature).
holds(s_11292_jpg, hotel).
holds(s_11292_jpg, door).
holds(s_11292_jpg, billboard).
holds(s_11292_jpg, porch).
holds(s_11292_jpg, sign).
holds(s_11292_jpg, tiledroof).
holds(s_11292_jpg, tiledrooftop).
holds(s_11292_jpg, wallsign).
holds(s_11292_jpg, chimney).
holds(s_11292_jpg, pipe).
holds(s_11292_jpg, car).
holds(s_11292_jpg, commercial).

sample(s_14591_jpg).
holds(s_14591_jpg, building).
holds(s_14591_jpg, feature).
holds(s_14591_jpg, sign).
holds(s_14591_jpg, table).
holds(s_14591_jpg, tiledrooftop).
holds(s_14591_jpg, vendingmachine).
holds(s_14591_jpg, statue).
holds(s_14591_jpg, pipe).

sample(s_1558_jpg).
holds(s_1558_jpg, building).
holds(s_1558_jpg, feature).
holds(s_1558_jpg, watertreatment).
holds(s_1558_jpg, door).
holds(s_1558_jpg, billboard).
holds(s_1558_jpg, porch).
holds(s_1558_jpg, sign).
holds(s_1558_jpg, tiledroof).
holds(s_1558_jpg, tiledrooftop).
holds(s_1558_jpg, wallsign).
holds(s_1558_jpg, pipe).
holds(s_1558_jpg, industrial).

sample(s_2407_jpg).
holds(s_2407_jpg, building).
holds(s_2407_jpg, feature).
holds(s_2407_jpg, watertreatment).
holds(s_2407_jpg, door).
holds(s_2407_jpg, billboard).
holds(s_2407_jpg, porch).
holds(s_2407_jpg, sign).
holds(s_2407_jpg, tiledroof).
holds(s_2407_jpg, wallsign).
holds(s_2407_jpg, industrial).

sample(s_2755_jpg).
holds(s_2755_jpg, building).
holds(s_2755_jpg, feature).
holds(s_2755_jpg, watertreatment).
holds(s_2755_jpg, door).
holds(s_2755_jpg, billboard).
holds(s_2755_jpg, porch).
holds(s_2755_jpg, sign).
holds(s_2755_jpg, tiledroof).
holds(s_2755_jpg, tiledrooftop).
holds(s_2755_jpg, wallsign).
holds(s_2755_jpg, chimney).
holds(s_2755_jpg, pipe).
holds(s_2755_jpg, industrial).

sample(s_6182_jpg).
holds(s_6182_jpg, building).
holds(s_6182_jpg, feature).
holds(s_6182_jpg, sign).
holds(s_6182_jpg, table).
holds(s_6182_jpg, tiledrooftop).
holds(s_6182_jpg, vendingmachine).
holds(s_6182_jpg, statue).
holds(s_6182_jpg, pipe).
holds(s_6182_jpg, machine).

sample(s_3570_jpg).
holds(s_3570_jpg, building).
holds(s_3570_jpg, feature).
holds(s_3570_jpg, hotel).
holds(s_3570_jpg, door).
holds(s_3570_jpg, billboard).
holds(s_3570_jpg, sign).
holds(s_3570_jpg, tiledroof).
holds(s_3570_jpg, tiledrooftop).
holds(s_3570_jpg, wallsign).
holds(s_3570_jpg, chimney).
holds(s_3570_jpg, pipe).
holds(s_3570_jpg, car).
holds(s_3570_jpg, commercial).

sample(s_8389_jpg).
holds(s_8389_jpg, building).
holds(s_8389_jpg, feature).
holds(s_8389_jpg, watertreatment).
holds(s_8389_jpg, door).
holds(s_8389_jpg, billboard).
holds(s_8389_jpg, sign).
holds(s_8389_jpg, tiledroof).
holds(s_8389_jpg, tiledrooftop).
holds(s_8389_jpg, wallsign).
holds(s_8389_jpg, pipe).
holds(s_8389_jpg, industrial).

sample(s_9765_jpg).
holds(s_9765_jpg, building).
holds(s_9765_jpg, feature).
holds(s_9765_jpg, hotel).
holds(s_9765_jpg, porch).
holds(s_9765_jpg, sign).
holds(s_9765_jpg, table).
holds(s_9765_jpg, tiledroof).
holds(s_9765_jpg, tiledrooftop).
holds(s_9765_jpg, vendingmachine).
holds(s_9765_jpg, statue).
holds(s_9765_jpg, chimney).
holds(s_9765_jpg, pipe).
holds(s_9765_jpg, car).
holds(s_9765_jpg, commercial).

sample(s_9605_jpg).
holds(s_9605_jpg, building).
holds(s_9605_jpg, feature).
holds(s_9605_jpg, sign).
holds(s_9605_jpg, table).
holds(s_9605_jpg, tiledrooftop).
holds(s_9605_jpg, vendingmachine).
holds(s_9605_jpg, statue).
holds(s_9605_jpg, pipe).
holds(s_9605_jpg, machine).

sample(s_1384_jpg).
holds(s_1384_jpg, building).
holds(s_1384_jpg, feature).
holds(s_1384_jpg, watertreatment).
holds(s_1384_jpg, door).
holds(s_1384_jpg, billboard).
holds(s_1384_jpg, porch).
holds(s_1384_jpg, sign).
holds(s_1384_jpg, tiledroof).
holds(s_1384_jpg, wallsign).
holds(s_1384_jpg, industrial).

sample(s_2569_jpg).
holds(s_2569_jpg, building).
holds(s_2569_jpg, feature).
holds(s_2569_jpg, watertreatment).
holds(s_2569_jpg, door).
holds(s_2569_jpg, billboard).
holds(s_2569_jpg, porch).
holds(s_2569_jpg, sign).
holds(s_2569_jpg, tiledroof).
holds(s_2569_jpg, wallsign).
holds(s_2569_jpg, industrial).

sample(s_6521_jpg).
holds(s_6521_jpg, building).
holds(s_6521_jpg, feature).
holds(s_6521_jpg, sign).
holds(s_6521_jpg, table).
holds(s_6521_jpg, tiledrooftop).
holds(s_6521_jpg, vendingmachine).
holds(s_6521_jpg, statue).
holds(s_6521_jpg, pipe).

sample(s_4540_jpg).
holds(s_4540_jpg, building).
holds(s_4540_jpg, feature).
holds(s_4540_jpg, watertreatment).
holds(s_4540_jpg, door).
holds(s_4540_jpg, billboard).
holds(s_4540_jpg, porch).
holds(s_4540_jpg, sign).
holds(s_4540_jpg, tiledroof).
holds(s_4540_jpg, wallsign).
holds(s_4540_jpg, pipe).
holds(s_4540_jpg, industrial).

sample(s_15202_jpg).
holds(s_15202_jpg, building).
holds(s_15202_jpg, feature).
holds(s_15202_jpg, watertreatment).
holds(s_15202_jpg, door).
holds(s_15202_jpg, billboard).
holds(s_15202_jpg, porch).
holds(s_15202_jpg, sign).
holds(s_15202_jpg, tiledroof).
holds(s_15202_jpg, wallsign).
holds(s_15202_jpg, pipe).
holds(s_15202_jpg, industrial).

sample(s_5104_jpg).
holds(s_5104_jpg, building).
holds(s_5104_jpg, feature).
holds(s_5104_jpg, watertreatment).
holds(s_5104_jpg, door).
holds(s_5104_jpg, billboard).
holds(s_5104_jpg, porch).
holds(s_5104_jpg, sign).
holds(s_5104_jpg, tiledroof).
holds(s_5104_jpg, wallsign).
holds(s_5104_jpg, pipe).
holds(s_5104_jpg, industrial).

sample(s_6965_jpg).
holds(s_6965_jpg, building).
holds(s_6965_jpg, feature).
holds(s_6965_jpg, sign).
holds(s_6965_jpg, table).
holds(s_6965_jpg, tiledrooftop).
holds(s_6965_jpg, vendingmachine).
holds(s_6965_jpg, statue).
holds(s_6965_jpg, pipe).
holds(s_6965_jpg, machine).

sample(s_10629_jpg).
holds(s_10629_jpg, building).
holds(s_10629_jpg, feature).
holds(s_10629_jpg, hotel).
holds(s_10629_jpg, billboard).
holds(s_10629_jpg, sign).
holds(s_10629_jpg, table).
holds(s_10629_jpg, tiledroof).
holds(s_10629_jpg, tiledrooftop).
holds(s_10629_jpg, vendingmachine).
holds(s_10629_jpg, chimney).
holds(s_10629_jpg, pipe).
holds(s_10629_jpg, machine).
holds(s_10629_jpg, car).
holds(s_10629_jpg, commercial).

sample(s_3608_jpg).
holds(s_3608_jpg, building).
holds(s_3608_jpg, feature).
holds(s_3608_jpg, sign).
holds(s_3608_jpg, table).
holds(s_3608_jpg, tiledrooftop).
holds(s_3608_jpg, vendingmachine).
holds(s_3608_jpg, statue).
holds(s_3608_jpg, pipe).
holds(s_3608_jpg, machine).

sample(s_12461_jpg).
holds(s_12461_jpg, building).
holds(s_12461_jpg, feature).
holds(s_12461_jpg, sign).
holds(s_12461_jpg, table).
holds(s_12461_jpg, tiledrooftop).
holds(s_12461_jpg, vendingmachine).
holds(s_12461_jpg, statue).
holds(s_12461_jpg, pipe).

sample(s_15595_jpg).
holds(s_15595_jpg, building).
holds(s_15595_jpg, feature).
holds(s_15595_jpg, watertreatment).
holds(s_15595_jpg, door).
holds(s_15595_jpg, billboard).
holds(s_15595_jpg, porch).
holds(s_15595_jpg, sign).
holds(s_15595_jpg, table).
holds(s_15595_jpg, tiledroof).
holds(s_15595_jpg, tiledrooftop).
holds(s_15595_jpg, wallsign).
holds(s_15595_jpg, industrial).

sample(s_2258_jpg).
holds(s_2258_jpg, building).
holds(s_2258_jpg, feature).
holds(s_2258_jpg, sign).
holds(s_2258_jpg, table).
holds(s_2258_jpg, tiledrooftop).
holds(s_2258_jpg, vendingmachine).
holds(s_2258_jpg, statue).
holds(s_2258_jpg, pipe).

sample(s_4684_jpg).
holds(s_4684_jpg, building).
holds(s_4684_jpg, feature).
holds(s_4684_jpg, watertreatment).
holds(s_4684_jpg, door).
holds(s_4684_jpg, billboard).
holds(s_4684_jpg, porch).
holds(s_4684_jpg, sign).
holds(s_4684_jpg, tiledroof).
holds(s_4684_jpg, tiledrooftop).
holds(s_4684_jpg, wallsign).
holds(s_4684_jpg, industrial).

sample(s_2149_jpg).
holds(s_2149_jpg, building).
holds(s_2149_jpg, feature).
holds(s_2149_jpg, watertreatment).
holds(s_2149_jpg, door).
holds(s_2149_jpg, billboard).
holds(s_2149_jpg, porch).
holds(s_2149_jpg, sign).
holds(s_2149_jpg, tiledroof).
holds(s_2149_jpg, tiledrooftop).
holds(s_2149_jpg, wallsign).
holds(s_2149_jpg, pipe).
holds(s_2149_jpg, industrial).

sample(s_15702_jpg).
holds(s_15702_jpg, building).
holds(s_15702_jpg, feature).
holds(s_15702_jpg, hotel).
holds(s_15702_jpg, door).
holds(s_15702_jpg, billboard).
holds(s_15702_jpg, porch).
holds(s_15702_jpg, sign).
holds(s_15702_jpg, tiledroof).
holds(s_15702_jpg, tiledrooftop).
holds(s_15702_jpg, vendingmachine).
holds(s_15702_jpg, wallsign).
holds(s_15702_jpg, chimney).
holds(s_15702_jpg, pipe).
holds(s_15702_jpg, car).
holds(s_15702_jpg, commercial).

sample(s_4856_jpg).
holds(s_4856_jpg, building).
holds(s_4856_jpg, feature).
holds(s_4856_jpg, porch).
holds(s_4856_jpg, sign).
holds(s_4856_jpg, table).
holds(s_4856_jpg, tiledrooftop).
holds(s_4856_jpg, vendingmachine).
holds(s_4856_jpg, statue).

sample(s_14318_jpg).
holds(s_14318_jpg, building).
holds(s_14318_jpg, feature).
holds(s_14318_jpg, sign).
holds(s_14318_jpg, table).
holds(s_14318_jpg, tiledrooftop).
holds(s_14318_jpg, vendingmachine).
holds(s_14318_jpg, statue).
holds(s_14318_jpg, pipe).
holds(s_14318_jpg, machine).

sample(s_130_jpg).
holds(s_130_jpg, building).
holds(s_130_jpg, feature).
holds(s_130_jpg, watertreatment).
holds(s_130_jpg, door).
holds(s_130_jpg, billboard).
holds(s_130_jpg, porch).
holds(s_130_jpg, sign).
holds(s_130_jpg, tiledroof).
holds(s_130_jpg, wallsign).
holds(s_130_jpg, industrial).

sample(s_206_jpg).
holds(s_206_jpg, building).
holds(s_206_jpg, feature).
holds(s_206_jpg, sign).
holds(s_206_jpg, table).
holds(s_206_jpg, tiledrooftop).
holds(s_206_jpg, vendingmachine).
holds(s_206_jpg, statue).
holds(s_206_jpg, pipe).
holds(s_206_jpg, machine).

sample(s_13215_jpg).
holds(s_13215_jpg, building).
holds(s_13215_jpg, feature).
holds(s_13215_jpg, hotel).
holds(s_13215_jpg, billboard).
holds(s_13215_jpg, sign).
holds(s_13215_jpg, tiledroof).
holds(s_13215_jpg, tiledrooftop).
holds(s_13215_jpg, wallsign).
holds(s_13215_jpg, chimney).
holds(s_13215_jpg, pipe).
holds(s_13215_jpg, machine).
holds(s_13215_jpg, car).
holds(s_13215_jpg, commercial).

sample(s_1066_jpg).
holds(s_1066_jpg, building).
holds(s_1066_jpg, feature).
holds(s_1066_jpg, watertreatment).
holds(s_1066_jpg, door).
holds(s_1066_jpg, billboard).
holds(s_1066_jpg, porch).
holds(s_1066_jpg, sign).
holds(s_1066_jpg, tiledroof).
holds(s_1066_jpg, wallsign).
holds(s_1066_jpg, industrial).

sample(s_13888_jpg).
holds(s_13888_jpg, building).
holds(s_13888_jpg, feature).
holds(s_13888_jpg, watertreatment).
holds(s_13888_jpg, door).
holds(s_13888_jpg, billboard).
holds(s_13888_jpg, porch).
holds(s_13888_jpg, sign).
holds(s_13888_jpg, tiledroof).
holds(s_13888_jpg, tiledrooftop).
holds(s_13888_jpg, wallsign).
holds(s_13888_jpg, industrial).

sample(s_11545_jpg).
holds(s_11545_jpg, building).
holds(s_11545_jpg, feature).
holds(s_11545_jpg, watertreatment).
holds(s_11545_jpg, door).
holds(s_11545_jpg, billboard).
holds(s_11545_jpg, porch).
holds(s_11545_jpg, sign).
holds(s_11545_jpg, tiledroof).
holds(s_11545_jpg, wallsign).
holds(s_11545_jpg, pipe).
holds(s_11545_jpg, industrial).

sample(s_8127_jpg).
holds(s_8127_jpg, building).
holds(s_8127_jpg, feature).
holds(s_8127_jpg, hotel).
holds(s_8127_jpg, billboard).
holds(s_8127_jpg, sign).
holds(s_8127_jpg, table).
holds(s_8127_jpg, tiledroof).
holds(s_8127_jpg, tiledrooftop).
holds(s_8127_jpg, vendingmachine).
holds(s_8127_jpg, statue).
holds(s_8127_jpg, chimney).
holds(s_8127_jpg, pipe).
holds(s_8127_jpg, machine).
holds(s_8127_jpg, car).
holds(s_8127_jpg, commercial).

sample(s_11704_jpg).
holds(s_11704_jpg, building).
holds(s_11704_jpg, feature).
holds(s_11704_jpg, watertreatment).
holds(s_11704_jpg, door).
holds(s_11704_jpg, billboard).
holds(s_11704_jpg, porch).
holds(s_11704_jpg, sign).
holds(s_11704_jpg, tiledroof).
holds(s_11704_jpg, wallsign).
holds(s_11704_jpg, industrial).

sample(s_10735_jpg).
holds(s_10735_jpg, building).
holds(s_10735_jpg, feature).
holds(s_10735_jpg, watertreatment).
holds(s_10735_jpg, door).
holds(s_10735_jpg, billboard).
holds(s_10735_jpg, porch).
holds(s_10735_jpg, sign).
holds(s_10735_jpg, tiledroof).
holds(s_10735_jpg, tiledrooftop).
holds(s_10735_jpg, wallsign).
holds(s_10735_jpg, industrial).

sample(s_5978_jpg).
holds(s_5978_jpg, building).
holds(s_5978_jpg, feature).
holds(s_5978_jpg, sign).
holds(s_5978_jpg, table).
holds(s_5978_jpg, tiledrooftop).
holds(s_5978_jpg, vendingmachine).
holds(s_5978_jpg, statue).
holds(s_5978_jpg, pipe).
holds(s_5978_jpg, machine).

sample(s_3650_jpg).
holds(s_3650_jpg, building).
holds(s_3650_jpg, feature).
holds(s_3650_jpg, billboard).
holds(s_3650_jpg, sign).
holds(s_3650_jpg, table).
holds(s_3650_jpg, tiledrooftop).
holds(s_3650_jpg, vendingmachine).
holds(s_3650_jpg, statue).
holds(s_3650_jpg, pipe).
holds(s_3650_jpg, machine).

sample(s_13836_jpg).
holds(s_13836_jpg, building).
holds(s_13836_jpg, feature).
holds(s_13836_jpg, hotel).
holds(s_13836_jpg, billboard).
holds(s_13836_jpg, sign).
holds(s_13836_jpg, table).
holds(s_13836_jpg, tiledroof).
holds(s_13836_jpg, tiledrooftop).
holds(s_13836_jpg, vendingmachine).
holds(s_13836_jpg, statue).
holds(s_13836_jpg, chimney).
holds(s_13836_jpg, pipe).
holds(s_13836_jpg, machine).
holds(s_13836_jpg, car).
holds(s_13836_jpg, commercial).

sample(s_5068_jpg).
holds(s_5068_jpg, building).
holds(s_5068_jpg, feature).
holds(s_5068_jpg, watertreatment).
holds(s_5068_jpg, door).
holds(s_5068_jpg, billboard).
holds(s_5068_jpg, porch).
holds(s_5068_jpg, sign).
holds(s_5068_jpg, table).
holds(s_5068_jpg, tiledroof).
holds(s_5068_jpg, tiledrooftop).
holds(s_5068_jpg, wallsign).
holds(s_5068_jpg, pipe).
holds(s_5068_jpg, industrial).

sample(s_14526_jpg).
holds(s_14526_jpg, building).
holds(s_14526_jpg, feature).
holds(s_14526_jpg, hotel).
holds(s_14526_jpg, door).
holds(s_14526_jpg, billboard).
holds(s_14526_jpg, porch).
holds(s_14526_jpg, sign).
holds(s_14526_jpg, table).
holds(s_14526_jpg, tiledroof).
holds(s_14526_jpg, tiledrooftop).
holds(s_14526_jpg, vendingmachine).
holds(s_14526_jpg, wallsign).
holds(s_14526_jpg, chimney).
holds(s_14526_jpg, pipe).
holds(s_14526_jpg, car).
holds(s_14526_jpg, commercial).

sample(s_12843_jpg).
holds(s_12843_jpg, building).
holds(s_12843_jpg, feature).
holds(s_12843_jpg, hotel).
holds(s_12843_jpg, billboard).
holds(s_12843_jpg, porch).
holds(s_12843_jpg, sign).
holds(s_12843_jpg, table).
holds(s_12843_jpg, tiledroof).
holds(s_12843_jpg, tiledrooftop).
holds(s_12843_jpg, vendingmachine).
holds(s_12843_jpg, statue).
holds(s_12843_jpg, chimney).
holds(s_12843_jpg, pipe).
holds(s_12843_jpg, machine).
holds(s_12843_jpg, car).
holds(s_12843_jpg, commercial).

sample(s_955_jpg).
holds(s_955_jpg, building).
holds(s_955_jpg, feature).
holds(s_955_jpg, watertreatment).
holds(s_955_jpg, door).
holds(s_955_jpg, billboard).
holds(s_955_jpg, porch).
holds(s_955_jpg, sign).
holds(s_955_jpg, tiledroof).
holds(s_955_jpg, tiledrooftop).
holds(s_955_jpg, wallsign).
holds(s_955_jpg, industrial).

sample(s_4618_jpg).
holds(s_4618_jpg, building).
holds(s_4618_jpg, feature).
holds(s_4618_jpg, watertreatment).
holds(s_4618_jpg, door).
holds(s_4618_jpg, billboard).
holds(s_4618_jpg, porch).
holds(s_4618_jpg, sign).
holds(s_4618_jpg, tiledroof).
holds(s_4618_jpg, tiledrooftop).
holds(s_4618_jpg, wallsign).
holds(s_4618_jpg, industrial).

sample(s_3732_jpg).
holds(s_3732_jpg, building).
holds(s_3732_jpg, feature).
holds(s_3732_jpg, hotel).
holds(s_3732_jpg, door).
holds(s_3732_jpg, billboard).
holds(s_3732_jpg, sign).
holds(s_3732_jpg, tiledroof).
holds(s_3732_jpg, tiledrooftop).
holds(s_3732_jpg, wallsign).
holds(s_3732_jpg, chimney).
holds(s_3732_jpg, pipe).
holds(s_3732_jpg, car).
holds(s_3732_jpg, commercial).

sample(s_2377_jpg).
holds(s_2377_jpg, building).
holds(s_2377_jpg, feature).
holds(s_2377_jpg, watertreatment).
holds(s_2377_jpg, door).
holds(s_2377_jpg, billboard).
holds(s_2377_jpg, porch).
holds(s_2377_jpg, sign).
holds(s_2377_jpg, tiledroof).
holds(s_2377_jpg, wallsign).
holds(s_2377_jpg, industrial).

sample(s_8911_jpg).
holds(s_8911_jpg, building).
holds(s_8911_jpg, feature).
holds(s_8911_jpg, watertreatment).
holds(s_8911_jpg, door).
holds(s_8911_jpg, billboard).
holds(s_8911_jpg, sign).
holds(s_8911_jpg, tiledroof).
holds(s_8911_jpg, tiledrooftop).
holds(s_8911_jpg, wallsign).
holds(s_8911_jpg, pipe).
holds(s_8911_jpg, industrial).

sample(s_744_jpg).
holds(s_744_jpg, building).
holds(s_744_jpg, feature).
holds(s_744_jpg, hotel).
holds(s_744_jpg, door).
holds(s_744_jpg, billboard).
holds(s_744_jpg, porch).
holds(s_744_jpg, sign).
holds(s_744_jpg, tiledroof).
holds(s_744_jpg, tiledrooftop).
holds(s_744_jpg, vendingmachine).
holds(s_744_jpg, wallsign).
holds(s_744_jpg, chimney).
holds(s_744_jpg, pipe).
holds(s_744_jpg, car).
holds(s_744_jpg, commercial).

sample(s_14596_jpg).
holds(s_14596_jpg, building).
holds(s_14596_jpg, feature).
holds(s_14596_jpg, watertreatment).
holds(s_14596_jpg, door).
holds(s_14596_jpg, billboard).
holds(s_14596_jpg, porch).
holds(s_14596_jpg, sign).
holds(s_14596_jpg, tiledroof).
holds(s_14596_jpg, wallsign).
holds(s_14596_jpg, chimney).
holds(s_14596_jpg, pipe).
holds(s_14596_jpg, industrial).

sample(s_14015_jpg).
holds(s_14015_jpg, building).
holds(s_14015_jpg, feature).
holds(s_14015_jpg, billboard).
holds(s_14015_jpg, sign).
holds(s_14015_jpg, table).
holds(s_14015_jpg, tiledrooftop).
holds(s_14015_jpg, vendingmachine).
holds(s_14015_jpg, statue).
holds(s_14015_jpg, pipe).
holds(s_14015_jpg, machine).

sample(s_13183_jpg).
holds(s_13183_jpg, building).
holds(s_13183_jpg, feature).
holds(s_13183_jpg, watertreatment).
holds(s_13183_jpg, door).
holds(s_13183_jpg, billboard).
holds(s_13183_jpg, porch).
holds(s_13183_jpg, sign).
holds(s_13183_jpg, tiledroof).
holds(s_13183_jpg, tiledrooftop).
holds(s_13183_jpg, wallsign).
holds(s_13183_jpg, pipe).
holds(s_13183_jpg, industrial).

sample(s_7844_jpg).
holds(s_7844_jpg, building).
holds(s_7844_jpg, feature).
holds(s_7844_jpg, sign).
holds(s_7844_jpg, table).
holds(s_7844_jpg, tiledrooftop).
holds(s_7844_jpg, vendingmachine).
holds(s_7844_jpg, statue).
holds(s_7844_jpg, pipe).

sample(s_3460_jpg).
holds(s_3460_jpg, building).
holds(s_3460_jpg, feature).
holds(s_3460_jpg, watertreatment).
holds(s_3460_jpg, door).
holds(s_3460_jpg, billboard).
holds(s_3460_jpg, porch).
holds(s_3460_jpg, sign).
holds(s_3460_jpg, tiledroof).
holds(s_3460_jpg, wallsign).
holds(s_3460_jpg, chimney).
holds(s_3460_jpg, pipe).
holds(s_3460_jpg, industrial).

sample(s_2515_jpg).
holds(s_2515_jpg, building).
holds(s_2515_jpg, feature).
holds(s_2515_jpg, watertreatment).
holds(s_2515_jpg, door).
holds(s_2515_jpg, billboard).
holds(s_2515_jpg, porch).
holds(s_2515_jpg, sign).
holds(s_2515_jpg, tiledroof).
holds(s_2515_jpg, wallsign).
holds(s_2515_jpg, industrial).

sample(s_5559_jpg).
holds(s_5559_jpg, building).
holds(s_5559_jpg, feature).
holds(s_5559_jpg, hotel).
holds(s_5559_jpg, door).
holds(s_5559_jpg, billboard).
holds(s_5559_jpg, porch).
holds(s_5559_jpg, sign).
holds(s_5559_jpg, tiledroof).
holds(s_5559_jpg, tiledrooftop).
holds(s_5559_jpg, wallsign).
holds(s_5559_jpg, chimney).
holds(s_5559_jpg, pipe).
holds(s_5559_jpg, car).
holds(s_5559_jpg, commercial).

sample(s_9602_jpg).
holds(s_9602_jpg, building).
holds(s_9602_jpg, feature).
holds(s_9602_jpg, sign).
holds(s_9602_jpg, table).
holds(s_9602_jpg, tiledrooftop).
holds(s_9602_jpg, vendingmachine).
holds(s_9602_jpg, statue).
holds(s_9602_jpg, pipe).
holds(s_9602_jpg, machine).

sample(s_14608_jpg).
holds(s_14608_jpg, building).
holds(s_14608_jpg, feature).
holds(s_14608_jpg, watertreatment).
holds(s_14608_jpg, door).
holds(s_14608_jpg, billboard).
holds(s_14608_jpg, porch).
holds(s_14608_jpg, sign).
holds(s_14608_jpg, tiledroof).
holds(s_14608_jpg, tiledrooftop).
holds(s_14608_jpg, wallsign).
holds(s_14608_jpg, pipe).
holds(s_14608_jpg, industrial).

sample(s_4932_jpg).
holds(s_4932_jpg, building).
holds(s_4932_jpg, feature).
holds(s_4932_jpg, hotel).
holds(s_4932_jpg, billboard).
holds(s_4932_jpg, sign).
holds(s_4932_jpg, table).
holds(s_4932_jpg, tiledroof).
holds(s_4932_jpg, tiledrooftop).
holds(s_4932_jpg, vendingmachine).
holds(s_4932_jpg, wallsign).
holds(s_4932_jpg, chimney).
holds(s_4932_jpg, pipe).
holds(s_4932_jpg, machine).
holds(s_4932_jpg, car).
holds(s_4932_jpg, commercial).

sample(s_1498_jpg).
holds(s_1498_jpg, building).
holds(s_1498_jpg, feature).
holds(s_1498_jpg, watertreatment).
holds(s_1498_jpg, door).
holds(s_1498_jpg, billboard).
holds(s_1498_jpg, sign).
holds(s_1498_jpg, tiledroof).
holds(s_1498_jpg, tiledrooftop).
holds(s_1498_jpg, wallsign).
holds(s_1498_jpg, chimney).
holds(s_1498_jpg, pipe).
holds(s_1498_jpg, industrial).

sample(s_14706_jpg).
holds(s_14706_jpg, building).
holds(s_14706_jpg, feature).
holds(s_14706_jpg, hotel).
holds(s_14706_jpg, door).
holds(s_14706_jpg, billboard).
holds(s_14706_jpg, porch).
holds(s_14706_jpg, sign).
holds(s_14706_jpg, tiledroof).
holds(s_14706_jpg, tiledrooftop).
holds(s_14706_jpg, wallsign).
holds(s_14706_jpg, chimney).
holds(s_14706_jpg, pipe).
holds(s_14706_jpg, car).
holds(s_14706_jpg, commercial).

sample(s_15417_jpg).
holds(s_15417_jpg, building).
holds(s_15417_jpg, feature).
holds(s_15417_jpg, hotel).
holds(s_15417_jpg, door).
holds(s_15417_jpg, billboard).
holds(s_15417_jpg, porch).
holds(s_15417_jpg, sign).
holds(s_15417_jpg, table).
holds(s_15417_jpg, tiledroof).
holds(s_15417_jpg, tiledrooftop).
holds(s_15417_jpg, vendingmachine).
holds(s_15417_jpg, wallsign).
holds(s_15417_jpg, chimney).
holds(s_15417_jpg, pipe).
holds(s_15417_jpg, car).
holds(s_15417_jpg, commercial).

sample(s_14234_jpg).
holds(s_14234_jpg, building).
holds(s_14234_jpg, feature).
holds(s_14234_jpg, billboard).
holds(s_14234_jpg, sign).
holds(s_14234_jpg, table).
holds(s_14234_jpg, tiledrooftop).
holds(s_14234_jpg, vendingmachine).
holds(s_14234_jpg, statue).
holds(s_14234_jpg, pipe).
holds(s_14234_jpg, machine).

sample(s_490_jpg).
holds(s_490_jpg, building).
holds(s_490_jpg, feature).
holds(s_490_jpg, watertreatment).
holds(s_490_jpg, door).
holds(s_490_jpg, billboard).
holds(s_490_jpg, porch).
holds(s_490_jpg, sign).
holds(s_490_jpg, tiledroof).
holds(s_490_jpg, tiledrooftop).
holds(s_490_jpg, wallsign).
holds(s_490_jpg, chimney).
holds(s_490_jpg, pipe).
holds(s_490_jpg, industrial).

sample(s_14616_jpg).
holds(s_14616_jpg, building).
holds(s_14616_jpg, feature).
holds(s_14616_jpg, hotel).
holds(s_14616_jpg, billboard).
holds(s_14616_jpg, sign).
holds(s_14616_jpg, table).
holds(s_14616_jpg, tiledroof).
holds(s_14616_jpg, tiledrooftop).
holds(s_14616_jpg, vendingmachine).
holds(s_14616_jpg, statue).
holds(s_14616_jpg, chimney).
holds(s_14616_jpg, pipe).
holds(s_14616_jpg, machine).
holds(s_14616_jpg, car).
holds(s_14616_jpg, commercial).

sample(s_14649_jpg).
holds(s_14649_jpg, building).
holds(s_14649_jpg, feature).
holds(s_14649_jpg, hotel).
holds(s_14649_jpg, door).
holds(s_14649_jpg, billboard).
holds(s_14649_jpg, porch).
holds(s_14649_jpg, sign).
holds(s_14649_jpg, tiledroof).
holds(s_14649_jpg, tiledrooftop).
holds(s_14649_jpg, vendingmachine).
holds(s_14649_jpg, wallsign).
holds(s_14649_jpg, chimney).
holds(s_14649_jpg, pipe).
holds(s_14649_jpg, machine).
holds(s_14649_jpg, car).
holds(s_14649_jpg, commercial).

sample(s_12964_jpg).
holds(s_12964_jpg, building).
holds(s_12964_jpg, feature).
holds(s_12964_jpg, watertreatment).
holds(s_12964_jpg, door).
holds(s_12964_jpg, billboard).
holds(s_12964_jpg, porch).
holds(s_12964_jpg, sign).
holds(s_12964_jpg, tiledroof).
holds(s_12964_jpg, tiledrooftop).
holds(s_12964_jpg, wallsign).
holds(s_12964_jpg, pipe).
holds(s_12964_jpg, industrial).

sample(s_7573_jpg).
holds(s_7573_jpg, building).
holds(s_7573_jpg, feature).
holds(s_7573_jpg, watertreatment).
holds(s_7573_jpg, door).
holds(s_7573_jpg, billboard).
holds(s_7573_jpg, porch).
holds(s_7573_jpg, sign).
holds(s_7573_jpg, tiledroof).
holds(s_7573_jpg, tiledrooftop).
holds(s_7573_jpg, wallsign).
holds(s_7573_jpg, pipe).
holds(s_7573_jpg, industrial).

sample(s_7737_jpg).
holds(s_7737_jpg, building).
holds(s_7737_jpg, feature).
holds(s_7737_jpg, hotel).
holds(s_7737_jpg, billboard).
holds(s_7737_jpg, porch).
holds(s_7737_jpg, sign).
holds(s_7737_jpg, table).
holds(s_7737_jpg, tiledroof).
holds(s_7737_jpg, tiledrooftop).
holds(s_7737_jpg, vendingmachine).
holds(s_7737_jpg, statue).
holds(s_7737_jpg, chimney).
holds(s_7737_jpg, pipe).
holds(s_7737_jpg, machine).
holds(s_7737_jpg, car).
holds(s_7737_jpg, commercial).

sample(s_5200_jpg).
holds(s_5200_jpg, building).
holds(s_5200_jpg, feature).
holds(s_5200_jpg, watertreatment).
holds(s_5200_jpg, door).
holds(s_5200_jpg, billboard).
holds(s_5200_jpg, porch).
holds(s_5200_jpg, sign).
holds(s_5200_jpg, tiledroof).
holds(s_5200_jpg, wallsign).
holds(s_5200_jpg, chimney).
holds(s_5200_jpg, pipe).
holds(s_5200_jpg, industrial).

sample(s_15178_jpg).
holds(s_15178_jpg, building).
holds(s_15178_jpg, feature).
holds(s_15178_jpg, watertreatment).
holds(s_15178_jpg, door).
holds(s_15178_jpg, billboard).
holds(s_15178_jpg, porch).
holds(s_15178_jpg, sign).
holds(s_15178_jpg, tiledroof).
holds(s_15178_jpg, wallsign).
holds(s_15178_jpg, chimney).
holds(s_15178_jpg, pipe).
holds(s_15178_jpg, industrial).

sample(s_615_jpg).
holds(s_615_jpg, building).
holds(s_615_jpg, feature).
holds(s_615_jpg, hotel).
holds(s_615_jpg, door).
holds(s_615_jpg, billboard).
holds(s_615_jpg, sign).
holds(s_615_jpg, tiledroof).
holds(s_615_jpg, tiledrooftop).
holds(s_615_jpg, wallsign).
holds(s_615_jpg, chimney).
holds(s_615_jpg, pipe).
holds(s_615_jpg, car).
holds(s_615_jpg, commercial).

sample(s_10798_jpg).
holds(s_10798_jpg, building).
holds(s_10798_jpg, feature).
holds(s_10798_jpg, watertreatment).
holds(s_10798_jpg, door).
holds(s_10798_jpg, billboard).
holds(s_10798_jpg, porch).
holds(s_10798_jpg, sign).
holds(s_10798_jpg, tiledroof).
holds(s_10798_jpg, wallsign).
holds(s_10798_jpg, industrial).

sample(s_15074_jpg).
holds(s_15074_jpg, building).
holds(s_15074_jpg, feature).
holds(s_15074_jpg, sign).
holds(s_15074_jpg, table).
holds(s_15074_jpg, tiledrooftop).
holds(s_15074_jpg, vendingmachine).
holds(s_15074_jpg, statue).
holds(s_15074_jpg, pipe).

sample(s_3433_jpg).
holds(s_3433_jpg, building).
holds(s_3433_jpg, feature).
holds(s_3433_jpg, watertreatment).
holds(s_3433_jpg, door).
holds(s_3433_jpg, billboard).
holds(s_3433_jpg, porch).
holds(s_3433_jpg, sign).
holds(s_3433_jpg, tiledroof).
holds(s_3433_jpg, tiledrooftop).
holds(s_3433_jpg, wallsign).
holds(s_3433_jpg, industrial).

sample(s_10394_jpg).
holds(s_10394_jpg, building).
holds(s_10394_jpg, feature).
holds(s_10394_jpg, sign).
holds(s_10394_jpg, table).
holds(s_10394_jpg, tiledrooftop).
holds(s_10394_jpg, vendingmachine).
holds(s_10394_jpg, statue).
holds(s_10394_jpg, pipe).

sample(s_625_jpg).
holds(s_625_jpg, building).
holds(s_625_jpg, feature).
holds(s_625_jpg, watertreatment).
holds(s_625_jpg, door).
holds(s_625_jpg, billboard).
holds(s_625_jpg, porch).
holds(s_625_jpg, sign).
holds(s_625_jpg, tiledroof).
holds(s_625_jpg, tiledrooftop).
holds(s_625_jpg, wallsign).
holds(s_625_jpg, industrial).

sample(s_1797_jpg).
holds(s_1797_jpg, building).
holds(s_1797_jpg, feature).
holds(s_1797_jpg, hotel).
holds(s_1797_jpg, door).
holds(s_1797_jpg, billboard).
holds(s_1797_jpg, porch).
holds(s_1797_jpg, sign).
holds(s_1797_jpg, tiledroof).
holds(s_1797_jpg, tiledrooftop).
holds(s_1797_jpg, wallsign).
holds(s_1797_jpg, chimney).
holds(s_1797_jpg, pipe).
holds(s_1797_jpg, car).
holds(s_1797_jpg, commercial).

sample(s_14254_jpg).
holds(s_14254_jpg, building).
holds(s_14254_jpg, feature).
holds(s_14254_jpg, watertreatment).
holds(s_14254_jpg, door).
holds(s_14254_jpg, billboard).
holds(s_14254_jpg, porch).
holds(s_14254_jpg, sign).
holds(s_14254_jpg, tiledroof).
holds(s_14254_jpg, wallsign).
holds(s_14254_jpg, chimney).
holds(s_14254_jpg, pipe).
holds(s_14254_jpg, industrial).

sample(s_721_jpg).
holds(s_721_jpg, building).
holds(s_721_jpg, feature).
holds(s_721_jpg, watertreatment).
holds(s_721_jpg, door).
holds(s_721_jpg, billboard).
holds(s_721_jpg, porch).
holds(s_721_jpg, sign).
holds(s_721_jpg, tiledroof).
holds(s_721_jpg, wallsign).
holds(s_721_jpg, industrial).

sample(s_11519_jpg).
holds(s_11519_jpg, building).
holds(s_11519_jpg, feature).
holds(s_11519_jpg, billboard).
holds(s_11519_jpg, sign).
holds(s_11519_jpg, table).
holds(s_11519_jpg, tiledrooftop).
holds(s_11519_jpg, vendingmachine).
holds(s_11519_jpg, statue).
holds(s_11519_jpg, pipe).
holds(s_11519_jpg, machine).

sample(s_10904_jpg).
holds(s_10904_jpg, building).
holds(s_10904_jpg, feature).
holds(s_10904_jpg, sign).
holds(s_10904_jpg, table).
holds(s_10904_jpg, tiledrooftop).
holds(s_10904_jpg, vendingmachine).
holds(s_10904_jpg, statue).
holds(s_10904_jpg, pipe).

sample(s_13522_jpg).
holds(s_13522_jpg, building).
holds(s_13522_jpg, feature).
holds(s_13522_jpg, watertreatment).
holds(s_13522_jpg, door).
holds(s_13522_jpg, billboard).
holds(s_13522_jpg, porch).
holds(s_13522_jpg, sign).
holds(s_13522_jpg, tiledroof).
holds(s_13522_jpg, tiledrooftop).
holds(s_13522_jpg, wallsign).
holds(s_13522_jpg, industrial).

sample(s_1047_jpg).
holds(s_1047_jpg, building).
holds(s_1047_jpg, feature).
holds(s_1047_jpg, hotel).
holds(s_1047_jpg, door).
holds(s_1047_jpg, billboard).
holds(s_1047_jpg, porch).
holds(s_1047_jpg, sign).
holds(s_1047_jpg, tiledroof).
holds(s_1047_jpg, tiledrooftop).
holds(s_1047_jpg, wallsign).
holds(s_1047_jpg, chimney).
holds(s_1047_jpg, pipe).
holds(s_1047_jpg, car).
holds(s_1047_jpg, commercial).

sample(s_6984_jpg).
holds(s_6984_jpg, building).
holds(s_6984_jpg, feature).
holds(s_6984_jpg, hotel).
holds(s_6984_jpg, door).
holds(s_6984_jpg, billboard).
holds(s_6984_jpg, sign).
holds(s_6984_jpg, tiledroof).
holds(s_6984_jpg, tiledrooftop).
holds(s_6984_jpg, wallsign).
holds(s_6984_jpg, chimney).
holds(s_6984_jpg, pipe).
holds(s_6984_jpg, machine).
holds(s_6984_jpg, car).
holds(s_6984_jpg, commercial).

sample(s_13478_jpg).
holds(s_13478_jpg, building).
holds(s_13478_jpg, feature).
holds(s_13478_jpg, porch).
holds(s_13478_jpg, sign).
holds(s_13478_jpg, table).
holds(s_13478_jpg, tiledrooftop).
holds(s_13478_jpg, vendingmachine).
holds(s_13478_jpg, statue).
holds(s_13478_jpg, pipe).

sample(s_1040_jpg).
holds(s_1040_jpg, building).
holds(s_1040_jpg, feature).
holds(s_1040_jpg, window).
holds(s_1040_jpg, porch).
holds(s_1040_jpg, table).
holds(s_1040_jpg, tiledrooftop).
holds(s_1040_jpg, vendingmachine).
holds(s_1040_jpg, statue).

sample(s_701_jpg).
holds(s_701_jpg, building).
holds(s_701_jpg, feature).
holds(s_701_jpg, window).
holds(s_701_jpg, porch).
holds(s_701_jpg, sign).
holds(s_701_jpg, table).
holds(s_701_jpg, tiledrooftop).
holds(s_701_jpg, vendingmachine).
holds(s_701_jpg, statue).
holds(s_701_jpg, pipe).

sample(s_13204_jpg).
holds(s_13204_jpg, building).
holds(s_13204_jpg, feature).
holds(s_13204_jpg, watertreatment).
holds(s_13204_jpg, door).
holds(s_13204_jpg, billboard).
holds(s_13204_jpg, porch).
holds(s_13204_jpg, sign).
holds(s_13204_jpg, tiledroof).
holds(s_13204_jpg, wallsign).
holds(s_13204_jpg, chimney).
holds(s_13204_jpg, pipe).
holds(s_13204_jpg, industrial).

sample(s_7963_jpg).
holds(s_7963_jpg, building).
holds(s_7963_jpg, feature).
holds(s_7963_jpg, watertreatment).
holds(s_7963_jpg, door).
holds(s_7963_jpg, billboard).
holds(s_7963_jpg, porch).
holds(s_7963_jpg, sign).
holds(s_7963_jpg, tiledroof).
holds(s_7963_jpg, tiledrooftop).
holds(s_7963_jpg, wallsign).
holds(s_7963_jpg, industrial).

sample(s_7859_jpg).
holds(s_7859_jpg, building).
holds(s_7859_jpg, feature).
holds(s_7859_jpg, porch).
holds(s_7859_jpg, sign).
holds(s_7859_jpg, table).
holds(s_7859_jpg, tiledrooftop).
holds(s_7859_jpg, vendingmachine).
holds(s_7859_jpg, statue).
holds(s_7859_jpg, pipe).
holds(s_7859_jpg, machine).

sample(s_15206_jpg).
holds(s_15206_jpg, building).
holds(s_15206_jpg, feature).
holds(s_15206_jpg, sign).
holds(s_15206_jpg, table).
holds(s_15206_jpg, tiledrooftop).
holds(s_15206_jpg, vendingmachine).
holds(s_15206_jpg, statue).
holds(s_15206_jpg, pipe).

sample(s_9112_jpg).
holds(s_9112_jpg, building).
holds(s_9112_jpg, feature).
holds(s_9112_jpg, watertreatment).
holds(s_9112_jpg, door).
holds(s_9112_jpg, billboard).
holds(s_9112_jpg, porch).
holds(s_9112_jpg, sign).
holds(s_9112_jpg, tiledroof).
holds(s_9112_jpg, wallsign).
holds(s_9112_jpg, industrial).

sample(s_14715_jpg).
holds(s_14715_jpg, building).
holds(s_14715_jpg, feature).
holds(s_14715_jpg, hotel).
holds(s_14715_jpg, door).
holds(s_14715_jpg, billboard).
holds(s_14715_jpg, porch).
holds(s_14715_jpg, sign).
holds(s_14715_jpg, tiledroof).
holds(s_14715_jpg, tiledrooftop).
holds(s_14715_jpg, wallsign).
holds(s_14715_jpg, chimney).
holds(s_14715_jpg, pipe).
holds(s_14715_jpg, car).
holds(s_14715_jpg, commercial).

sample(s_15476_jpg).
holds(s_15476_jpg, building).
holds(s_15476_jpg, feature).
holds(s_15476_jpg, sign).
holds(s_15476_jpg, table).
holds(s_15476_jpg, tiledrooftop).
holds(s_15476_jpg, vendingmachine).
holds(s_15476_jpg, statue).
holds(s_15476_jpg, pipe).

sample(s_2747_jpg).
holds(s_2747_jpg, building).
holds(s_2747_jpg, feature).
holds(s_2747_jpg, sign).
holds(s_2747_jpg, table).
holds(s_2747_jpg, tiledrooftop).
holds(s_2747_jpg, vendingmachine).
holds(s_2747_jpg, statue).
holds(s_2747_jpg, pipe).
holds(s_2747_jpg, machine).

sample(s_317_jpg).
holds(s_317_jpg, building).
holds(s_317_jpg, feature).
holds(s_317_jpg, window).
holds(s_317_jpg, porch).
holds(s_317_jpg, table).
holds(s_317_jpg, tiledrooftop).
holds(s_317_jpg, vendingmachine).
holds(s_317_jpg, statue).
holds(s_317_jpg, pipe).

sample(s_6884_jpg).
holds(s_6884_jpg, building).
holds(s_6884_jpg, feature).
holds(s_6884_jpg, sign).
holds(s_6884_jpg, table).
holds(s_6884_jpg, tiledrooftop).
holds(s_6884_jpg, vendingmachine).
holds(s_6884_jpg, statue).
holds(s_6884_jpg, pipe).

sample(s_10545_jpg).
holds(s_10545_jpg, building).
holds(s_10545_jpg, feature).
holds(s_10545_jpg, hotel).
holds(s_10545_jpg, door).
holds(s_10545_jpg, billboard).
holds(s_10545_jpg, porch).
holds(s_10545_jpg, sign).
holds(s_10545_jpg, tiledroof).
holds(s_10545_jpg, tiledrooftop).
holds(s_10545_jpg, vendingmachine).
holds(s_10545_jpg, wallsign).
holds(s_10545_jpg, chimney).
holds(s_10545_jpg, pipe).
holds(s_10545_jpg, car).
holds(s_10545_jpg, commercial).

sample(s_699_jpg).
holds(s_699_jpg, building).
holds(s_699_jpg, feature).
holds(s_699_jpg, hotel).
holds(s_699_jpg, billboard).
holds(s_699_jpg, sign).
holds(s_699_jpg, table).
holds(s_699_jpg, tiledroof).
holds(s_699_jpg, tiledrooftop).
holds(s_699_jpg, vendingmachine).
holds(s_699_jpg, wallsign).
holds(s_699_jpg, chimney).
holds(s_699_jpg, pipe).
holds(s_699_jpg, machine).
holds(s_699_jpg, car).
holds(s_699_jpg, commercial).

sample(s_12200_jpg).
holds(s_12200_jpg, building).
holds(s_12200_jpg, feature).
holds(s_12200_jpg, sign).
holds(s_12200_jpg, table).
holds(s_12200_jpg, tiledrooftop).
holds(s_12200_jpg, vendingmachine).
holds(s_12200_jpg, statue).
holds(s_12200_jpg, pipe).
holds(s_12200_jpg, machine).

sample(s_3954_jpg).
holds(s_3954_jpg, building).
holds(s_3954_jpg, feature).
holds(s_3954_jpg, hotel).
holds(s_3954_jpg, door).
holds(s_3954_jpg, billboard).
holds(s_3954_jpg, porch).
holds(s_3954_jpg, sign).
holds(s_3954_jpg, tiledroof).
holds(s_3954_jpg, tiledrooftop).
holds(s_3954_jpg, vendingmachine).
holds(s_3954_jpg, wallsign).
holds(s_3954_jpg, chimney).
holds(s_3954_jpg, pipe).
holds(s_3954_jpg, car).
holds(s_3954_jpg, commercial).

sample(s_7592_jpg).
holds(s_7592_jpg, building).
holds(s_7592_jpg, feature).
holds(s_7592_jpg, sign).
holds(s_7592_jpg, table).
holds(s_7592_jpg, tiledrooftop).
holds(s_7592_jpg, vendingmachine).
holds(s_7592_jpg, statue).
holds(s_7592_jpg, pipe).
holds(s_7592_jpg, machine).

sample(s_13439_jpg).
holds(s_13439_jpg, building).
holds(s_13439_jpg, feature).
holds(s_13439_jpg, porch).
holds(s_13439_jpg, sign).
holds(s_13439_jpg, table).
holds(s_13439_jpg, tiledrooftop).
holds(s_13439_jpg, vendingmachine).
holds(s_13439_jpg, statue).
holds(s_13439_jpg, pipe).
holds(s_13439_jpg, machine).

sample(s_9771_jpg).
holds(s_9771_jpg, building).
holds(s_9771_jpg, feature).
holds(s_9771_jpg, hotel).
holds(s_9771_jpg, door).
holds(s_9771_jpg, billboard).
holds(s_9771_jpg, porch).
holds(s_9771_jpg, sign).
holds(s_9771_jpg, tiledroof).
holds(s_9771_jpg, tiledrooftop).
holds(s_9771_jpg, wallsign).
holds(s_9771_jpg, chimney).
holds(s_9771_jpg, pipe).
holds(s_9771_jpg, car).
holds(s_9771_jpg, commercial).

sample(s_12941_jpg).
holds(s_12941_jpg, building).
holds(s_12941_jpg, feature).
holds(s_12941_jpg, porch).
holds(s_12941_jpg, sign).
holds(s_12941_jpg, table).
holds(s_12941_jpg, tiledrooftop).
holds(s_12941_jpg, vendingmachine).
holds(s_12941_jpg, statue).
holds(s_12941_jpg, pipe).
holds(s_12941_jpg, machine).

sample(s_13691_jpg).
holds(s_13691_jpg, building).
holds(s_13691_jpg, feature).
holds(s_13691_jpg, sign).
holds(s_13691_jpg, table).
holds(s_13691_jpg, tiledrooftop).
holds(s_13691_jpg, vendingmachine).
holds(s_13691_jpg, statue).
holds(s_13691_jpg, pipe).
holds(s_13691_jpg, machine).

sample(s_2067_jpg).
holds(s_2067_jpg, building).
holds(s_2067_jpg, feature).
holds(s_2067_jpg, hotel).
holds(s_2067_jpg, door).
holds(s_2067_jpg, billboard).
holds(s_2067_jpg, porch).
holds(s_2067_jpg, sign).
holds(s_2067_jpg, tiledroof).
holds(s_2067_jpg, tiledrooftop).
holds(s_2067_jpg, vendingmachine).
holds(s_2067_jpg, wallsign).
holds(s_2067_jpg, chimney).
holds(s_2067_jpg, pipe).
holds(s_2067_jpg, car).
holds(s_2067_jpg, commercial).

sample(s_1643_jpg).
holds(s_1643_jpg, building).
holds(s_1643_jpg, feature).
holds(s_1643_jpg, sign).
holds(s_1643_jpg, table).
holds(s_1643_jpg, tiledrooftop).
holds(s_1643_jpg, vendingmachine).
holds(s_1643_jpg, statue).
holds(s_1643_jpg, pipe).

sample(s_5644_jpg).
holds(s_5644_jpg, building).
holds(s_5644_jpg, feature).
holds(s_5644_jpg, watertreatment).
holds(s_5644_jpg, door).
holds(s_5644_jpg, billboard).
holds(s_5644_jpg, porch).
holds(s_5644_jpg, sign).
holds(s_5644_jpg, tiledroof).
holds(s_5644_jpg, wallsign).
holds(s_5644_jpg, industrial).

sample(s_7181_jpg).
holds(s_7181_jpg, building).
holds(s_7181_jpg, feature).
holds(s_7181_jpg, sign).
holds(s_7181_jpg, table).
holds(s_7181_jpg, tiledrooftop).
holds(s_7181_jpg, vendingmachine).
holds(s_7181_jpg, statue).
holds(s_7181_jpg, pipe).
holds(s_7181_jpg, machine).

sample(s_1480_jpg).
holds(s_1480_jpg, building).
holds(s_1480_jpg, feature).
holds(s_1480_jpg, watertreatment).
holds(s_1480_jpg, door).
holds(s_1480_jpg, billboard).
holds(s_1480_jpg, porch).
holds(s_1480_jpg, sign).
holds(s_1480_jpg, tiledroof).
holds(s_1480_jpg, tiledrooftop).
holds(s_1480_jpg, wallsign).
holds(s_1480_jpg, industrial).

sample(s_12779_jpg).
holds(s_12779_jpg, building).
holds(s_12779_jpg, feature).
holds(s_12779_jpg, sign).
holds(s_12779_jpg, table).
holds(s_12779_jpg, tiledrooftop).
holds(s_12779_jpg, vendingmachine).
holds(s_12779_jpg, statue).
holds(s_12779_jpg, pipe).

sample(s_14044_jpg).
holds(s_14044_jpg, building).
holds(s_14044_jpg, feature).
holds(s_14044_jpg, watertreatment).
holds(s_14044_jpg, door).
holds(s_14044_jpg, billboard).
holds(s_14044_jpg, porch).
holds(s_14044_jpg, sign).
holds(s_14044_jpg, tiledroof).
holds(s_14044_jpg, wallsign).
holds(s_14044_jpg, chimney).
holds(s_14044_jpg, pipe).
holds(s_14044_jpg, car).
holds(s_14044_jpg, industrial).

sample(s_4589_jpg).
holds(s_4589_jpg, building).
holds(s_4589_jpg, feature).
holds(s_4589_jpg, window).
holds(s_4589_jpg, porch).
holds(s_4589_jpg, table).
holds(s_4589_jpg, tiledrooftop).
holds(s_4589_jpg, vendingmachine).
holds(s_4589_jpg, statue).
holds(s_4589_jpg, pipe).

sample(s_6082_jpg).
holds(s_6082_jpg, building).
holds(s_6082_jpg, feature).
holds(s_6082_jpg, watertreatment).
holds(s_6082_jpg, door).
holds(s_6082_jpg, billboard).
holds(s_6082_jpg, porch).
holds(s_6082_jpg, sign).
holds(s_6082_jpg, tiledroof).
holds(s_6082_jpg, tiledrooftop).
holds(s_6082_jpg, wallsign).
holds(s_6082_jpg, pipe).
holds(s_6082_jpg, industrial).

sample(s_2200_jpg).
holds(s_2200_jpg, building).
holds(s_2200_jpg, feature).
holds(s_2200_jpg, watertreatment).
holds(s_2200_jpg, door).
holds(s_2200_jpg, billboard).
holds(s_2200_jpg, porch).
holds(s_2200_jpg, sign).
holds(s_2200_jpg, tiledroof).
holds(s_2200_jpg, tiledrooftop).
holds(s_2200_jpg, wallsign).
holds(s_2200_jpg, pipe).
holds(s_2200_jpg, industrial).

sample(s_489_jpg).
holds(s_489_jpg, building).
holds(s_489_jpg, feature).
holds(s_489_jpg, hotel).
holds(s_489_jpg, billboard).
holds(s_489_jpg, sign).
holds(s_489_jpg, table).
holds(s_489_jpg, tiledroof).
holds(s_489_jpg, tiledrooftop).
holds(s_489_jpg, vendingmachine).
holds(s_489_jpg, wallsign).
holds(s_489_jpg, chimney).
holds(s_489_jpg, pipe).
holds(s_489_jpg, machine).
holds(s_489_jpg, car).
holds(s_489_jpg, commercial).

sample(s_11711_jpg).
holds(s_11711_jpg, building).
holds(s_11711_jpg, feature).
holds(s_11711_jpg, porch).
holds(s_11711_jpg, sign).
holds(s_11711_jpg, table).
holds(s_11711_jpg, tiledrooftop).
holds(s_11711_jpg, vendingmachine).
holds(s_11711_jpg, statue).
holds(s_11711_jpg, pipe).
holds(s_11711_jpg, machine).

sample(s_10438_jpg).
holds(s_10438_jpg, building).
holds(s_10438_jpg, feature).
holds(s_10438_jpg, watertreatment).
holds(s_10438_jpg, door).
holds(s_10438_jpg, billboard).
holds(s_10438_jpg, porch).
holds(s_10438_jpg, sign).
holds(s_10438_jpg, tiledroof).
holds(s_10438_jpg, tiledrooftop).
holds(s_10438_jpg, wallsign).
holds(s_10438_jpg, pipe).
holds(s_10438_jpg, industrial).

sample(s_4571_jpg).
holds(s_4571_jpg, building).
holds(s_4571_jpg, feature).
holds(s_4571_jpg, sign).
holds(s_4571_jpg, table).
holds(s_4571_jpg, tiledrooftop).
holds(s_4571_jpg, vendingmachine).
holds(s_4571_jpg, statue).
holds(s_4571_jpg, pipe).
holds(s_4571_jpg, machine).

sample(s_3318_jpg).
holds(s_3318_jpg, building).
holds(s_3318_jpg, feature).
holds(s_3318_jpg, hotel).
holds(s_3318_jpg, door).
holds(s_3318_jpg, billboard).
holds(s_3318_jpg, porch).
holds(s_3318_jpg, sign).
holds(s_3318_jpg, table).
holds(s_3318_jpg, tiledroof).
holds(s_3318_jpg, tiledrooftop).
holds(s_3318_jpg, vendingmachine).
holds(s_3318_jpg, wallsign).
holds(s_3318_jpg, chimney).
holds(s_3318_jpg, pipe).
holds(s_3318_jpg, machine).
holds(s_3318_jpg, car).
holds(s_3318_jpg, commercial).

sample(s_7421_jpg).
holds(s_7421_jpg, building).
holds(s_7421_jpg, feature).
holds(s_7421_jpg, sign).
holds(s_7421_jpg, table).
holds(s_7421_jpg, tiledrooftop).
holds(s_7421_jpg, vendingmachine).
holds(s_7421_jpg, statue).
holds(s_7421_jpg, pipe).

sample(s_14613_jpg).
holds(s_14613_jpg, building).
holds(s_14613_jpg, feature).
holds(s_14613_jpg, hotel).
holds(s_14613_jpg, billboard).
holds(s_14613_jpg, sign).
holds(s_14613_jpg, tiledroof).
holds(s_14613_jpg, tiledrooftop).
holds(s_14613_jpg, wallsign).
holds(s_14613_jpg, chimney).
holds(s_14613_jpg, pipe).
holds(s_14613_jpg, machine).
holds(s_14613_jpg, car).
holds(s_14613_jpg, commercial).

sample(s_11873_jpg).
holds(s_11873_jpg, building).
holds(s_11873_jpg, feature).
holds(s_11873_jpg, porch).
holds(s_11873_jpg, sign).
holds(s_11873_jpg, table).
holds(s_11873_jpg, tiledrooftop).
holds(s_11873_jpg, vendingmachine).
holds(s_11873_jpg, statue).
holds(s_11873_jpg, pipe).

sample(s_14553_jpg).
holds(s_14553_jpg, building).
holds(s_14553_jpg, feature).
holds(s_14553_jpg, hotel).
holds(s_14553_jpg, billboard).
holds(s_14553_jpg, porch).
holds(s_14553_jpg, sign).
holds(s_14553_jpg, table).
holds(s_14553_jpg, tiledroof).
holds(s_14553_jpg, tiledrooftop).
holds(s_14553_jpg, vendingmachine).
holds(s_14553_jpg, wallsign).
holds(s_14553_jpg, chimney).
holds(s_14553_jpg, pipe).
holds(s_14553_jpg, machine).
holds(s_14553_jpg, car).
holds(s_14553_jpg, commercial).

sample(s_10584_jpg).
holds(s_10584_jpg, building).
holds(s_10584_jpg, feature).
holds(s_10584_jpg, hotel).
holds(s_10584_jpg, billboard).
holds(s_10584_jpg, porch).
holds(s_10584_jpg, sign).
holds(s_10584_jpg, table).
holds(s_10584_jpg, tiledroof).
holds(s_10584_jpg, tiledrooftop).
holds(s_10584_jpg, vendingmachine).
holds(s_10584_jpg, statue).
holds(s_10584_jpg, chimney).
holds(s_10584_jpg, pipe).
holds(s_10584_jpg, machine).
holds(s_10584_jpg, car).
holds(s_10584_jpg, commercial).

sample(s_5514_jpg).
holds(s_5514_jpg, building).
holds(s_5514_jpg, feature).
holds(s_5514_jpg, hotel).
holds(s_5514_jpg, door).
holds(s_5514_jpg, billboard).
holds(s_5514_jpg, porch).
holds(s_5514_jpg, sign).
holds(s_5514_jpg, tiledroof).
holds(s_5514_jpg, tiledrooftop).
holds(s_5514_jpg, wallsign).
holds(s_5514_jpg, chimney).
holds(s_5514_jpg, pipe).
holds(s_5514_jpg, car).
holds(s_5514_jpg, commercial).

sample(s_6321_jpg).
holds(s_6321_jpg, building).
holds(s_6321_jpg, feature).
holds(s_6321_jpg, hotel).
holds(s_6321_jpg, porch).
holds(s_6321_jpg, sign).
holds(s_6321_jpg, table).
holds(s_6321_jpg, tiledroof).
holds(s_6321_jpg, tiledrooftop).
holds(s_6321_jpg, vendingmachine).
holds(s_6321_jpg, statue).
holds(s_6321_jpg, pipe).
holds(s_6321_jpg, commercial).

sample(s_12938_jpg).
holds(s_12938_jpg, building).
holds(s_12938_jpg, feature).
holds(s_12938_jpg, sign).
holds(s_12938_jpg, table).
holds(s_12938_jpg, tiledrooftop).
holds(s_12938_jpg, vendingmachine).
holds(s_12938_jpg, statue).
holds(s_12938_jpg, pipe).
holds(s_12938_jpg, machine).

sample(s_1377_jpg).
holds(s_1377_jpg, building).
holds(s_1377_jpg, feature).
holds(s_1377_jpg, hotel).
holds(s_1377_jpg, billboard).
holds(s_1377_jpg, porch).
holds(s_1377_jpg, sign).
holds(s_1377_jpg, table).
holds(s_1377_jpg, tiledroof).
holds(s_1377_jpg, tiledrooftop).
holds(s_1377_jpg, vendingmachine).
holds(s_1377_jpg, wallsign).
holds(s_1377_jpg, chimney).
holds(s_1377_jpg, pipe).
holds(s_1377_jpg, machine).
holds(s_1377_jpg, car).
holds(s_1377_jpg, commercial).

sample(s_12914_jpg).
holds(s_12914_jpg, building).
holds(s_12914_jpg, feature).
holds(s_12914_jpg, porch).
holds(s_12914_jpg, sign).
holds(s_12914_jpg, table).
holds(s_12914_jpg, tiledrooftop).
holds(s_12914_jpg, vendingmachine).
holds(s_12914_jpg, statue).
holds(s_12914_jpg, machine).

sample(s_13532_jpg).
holds(s_13532_jpg, building).
holds(s_13532_jpg, feature).
holds(s_13532_jpg, sign).
holds(s_13532_jpg, table).
holds(s_13532_jpg, tiledrooftop).
holds(s_13532_jpg, vendingmachine).
holds(s_13532_jpg, statue).
holds(s_13532_jpg, pipe).
holds(s_13532_jpg, machine).

sample(s_4693_jpg).
holds(s_4693_jpg, building).
holds(s_4693_jpg, feature).
holds(s_4693_jpg, watertreatment).
holds(s_4693_jpg, door).
holds(s_4693_jpg, billboard).
holds(s_4693_jpg, porch).
holds(s_4693_jpg, sign).
holds(s_4693_jpg, tiledroof).
holds(s_4693_jpg, wallsign).
holds(s_4693_jpg, industrial).

sample(s_679_jpg).
holds(s_679_jpg, building).
holds(s_679_jpg, feature).
holds(s_679_jpg, watertreatment).
holds(s_679_jpg, door).
holds(s_679_jpg, billboard).
holds(s_679_jpg, porch).
holds(s_679_jpg, sign).
holds(s_679_jpg, tiledroof).
holds(s_679_jpg, wallsign).
holds(s_679_jpg, industrial).

sample(s_5770_jpg).
holds(s_5770_jpg, building).
holds(s_5770_jpg, feature).
holds(s_5770_jpg, watertreatment).
holds(s_5770_jpg, door).
holds(s_5770_jpg, billboard).
holds(s_5770_jpg, porch).
holds(s_5770_jpg, sign).
holds(s_5770_jpg, tiledroof).
holds(s_5770_jpg, wallsign).
holds(s_5770_jpg, industrial).

sample(s_2042_jpg).
holds(s_2042_jpg, building).
holds(s_2042_jpg, feature).
holds(s_2042_jpg, porch).
holds(s_2042_jpg, sign).
holds(s_2042_jpg, table).
holds(s_2042_jpg, tiledrooftop).
holds(s_2042_jpg, vendingmachine).
holds(s_2042_jpg, statue).

sample(s_3498_jpg).
holds(s_3498_jpg, building).
holds(s_3498_jpg, feature).
holds(s_3498_jpg, hotel).
holds(s_3498_jpg, door).
holds(s_3498_jpg, billboard).
holds(s_3498_jpg, sign).
holds(s_3498_jpg, tiledroof).
holds(s_3498_jpg, tiledrooftop).
holds(s_3498_jpg, wallsign).
holds(s_3498_jpg, chimney).
holds(s_3498_jpg, pipe).
holds(s_3498_jpg, car).
holds(s_3498_jpg, commercial).

sample(s_1447_jpg).
holds(s_1447_jpg, building).
holds(s_1447_jpg, feature).
holds(s_1447_jpg, watertreatment).
holds(s_1447_jpg, door).
holds(s_1447_jpg, billboard).
holds(s_1447_jpg, porch).
holds(s_1447_jpg, sign).
holds(s_1447_jpg, tiledroof).
holds(s_1447_jpg, wallsign).
holds(s_1447_jpg, pipe).
holds(s_1447_jpg, industrial).

sample(s_13338_jpg).
holds(s_13338_jpg, building).
holds(s_13338_jpg, feature).
holds(s_13338_jpg, hotel).
holds(s_13338_jpg, door).
holds(s_13338_jpg, billboard).
holds(s_13338_jpg, sign).
holds(s_13338_jpg, tiledroof).
holds(s_13338_jpg, tiledrooftop).
holds(s_13338_jpg, wallsign).
holds(s_13338_jpg, chimney).
holds(s_13338_jpg, pipe).
holds(s_13338_jpg, car).
holds(s_13338_jpg, commercial).

sample(s_9874_jpg).
holds(s_9874_jpg, building).
holds(s_9874_jpg, feature).
holds(s_9874_jpg, watertreatment).
holds(s_9874_jpg, door).
holds(s_9874_jpg, billboard).
holds(s_9874_jpg, porch).
holds(s_9874_jpg, sign).
holds(s_9874_jpg, tiledroof).
holds(s_9874_jpg, wallsign).
holds(s_9874_jpg, industrial).

sample(s_10412_jpg).
holds(s_10412_jpg, building).
holds(s_10412_jpg, feature).
holds(s_10412_jpg, sign).
holds(s_10412_jpg, table).
holds(s_10412_jpg, tiledrooftop).
holds(s_10412_jpg, vendingmachine).
holds(s_10412_jpg, statue).
holds(s_10412_jpg, pipe).
holds(s_10412_jpg, machine).

sample(s_5780_jpg).
holds(s_5780_jpg, building).
holds(s_5780_jpg, feature).
holds(s_5780_jpg, porch).
holds(s_5780_jpg, sign).
holds(s_5780_jpg, table).
holds(s_5780_jpg, tiledrooftop).
holds(s_5780_jpg, vendingmachine).
holds(s_5780_jpg, statue).
holds(s_5780_jpg, pipe).
holds(s_5780_jpg, machine).

sample(s_2110_jpg).
holds(s_2110_jpg, building).
holds(s_2110_jpg, feature).
holds(s_2110_jpg, watertreatment).
holds(s_2110_jpg, door).
holds(s_2110_jpg, billboard).
holds(s_2110_jpg, porch).
holds(s_2110_jpg, sign).
holds(s_2110_jpg, tiledroof).
holds(s_2110_jpg, wallsign).
holds(s_2110_jpg, industrial).

sample(s_15461_jpg).
holds(s_15461_jpg, building).
holds(s_15461_jpg, feature).
holds(s_15461_jpg, sign).
holds(s_15461_jpg, table).
holds(s_15461_jpg, tiledrooftop).
holds(s_15461_jpg, vendingmachine).
holds(s_15461_jpg, statue).
holds(s_15461_jpg, pipe).
holds(s_15461_jpg, machine).

sample(s_1372_jpg).
holds(s_1372_jpg, building).
holds(s_1372_jpg, feature).
holds(s_1372_jpg, watertreatment).
holds(s_1372_jpg, door).
holds(s_1372_jpg, billboard).
holds(s_1372_jpg, porch).
holds(s_1372_jpg, sign).
holds(s_1372_jpg, tiledroof).
holds(s_1372_jpg, tiledrooftop).
holds(s_1372_jpg, wallsign).
holds(s_1372_jpg, pipe).
holds(s_1372_jpg, industrial).

sample(s_1631_jpg).
holds(s_1631_jpg, building).
holds(s_1631_jpg, feature).
holds(s_1631_jpg, sign).
holds(s_1631_jpg, table).
holds(s_1631_jpg, tiledrooftop).
holds(s_1631_jpg, vendingmachine).
holds(s_1631_jpg, statue).
holds(s_1631_jpg, pipe).
holds(s_1631_jpg, machine).

sample(s_8347_jpg).
holds(s_8347_jpg, building).
holds(s_8347_jpg, feature).
holds(s_8347_jpg, watertreatment).
holds(s_8347_jpg, door).
holds(s_8347_jpg, billboard).
holds(s_8347_jpg, porch).
holds(s_8347_jpg, sign).
holds(s_8347_jpg, tiledroof).
holds(s_8347_jpg, wallsign).
holds(s_8347_jpg, pipe).
holds(s_8347_jpg, industrial).

sample(s_257_jpg).
holds(s_257_jpg, building).
holds(s_257_jpg, feature).
holds(s_257_jpg, sign).
holds(s_257_jpg, table).
holds(s_257_jpg, tiledrooftop).
holds(s_257_jpg, vendingmachine).
holds(s_257_jpg, statue).
holds(s_257_jpg, pipe).
holds(s_257_jpg, machine).

sample(s_2813_jpg).
holds(s_2813_jpg, building).
holds(s_2813_jpg, feature).
holds(s_2813_jpg, sign).
holds(s_2813_jpg, table).
holds(s_2813_jpg, tiledrooftop).
holds(s_2813_jpg, vendingmachine).
holds(s_2813_jpg, statue).
holds(s_2813_jpg, pipe).
holds(s_2813_jpg, machine).

sample(s_15196_jpg).
holds(s_15196_jpg, building).
holds(s_15196_jpg, feature).
holds(s_15196_jpg, watertreatment).
holds(s_15196_jpg, door).
holds(s_15196_jpg, billboard).
holds(s_15196_jpg, porch).
holds(s_15196_jpg, sign).
holds(s_15196_jpg, tiledroof).
holds(s_15196_jpg, wallsign).
holds(s_15196_jpg, pipe).
holds(s_15196_jpg, industrial).

sample(s_9879_jpg).
holds(s_9879_jpg, building).
holds(s_9879_jpg, feature).
holds(s_9879_jpg, hotel).
holds(s_9879_jpg, door).
holds(s_9879_jpg, billboard).
holds(s_9879_jpg, porch).
holds(s_9879_jpg, sign).
holds(s_9879_jpg, tiledroof).
holds(s_9879_jpg, tiledrooftop).
holds(s_9879_jpg, wallsign).
holds(s_9879_jpg, chimney).
holds(s_9879_jpg, pipe).
holds(s_9879_jpg, car).
holds(s_9879_jpg, commercial).

sample(s_11269_jpg).
holds(s_11269_jpg, building).
holds(s_11269_jpg, feature).
holds(s_11269_jpg, watertreatment).
holds(s_11269_jpg, door).
holds(s_11269_jpg, billboard).
holds(s_11269_jpg, porch).
holds(s_11269_jpg, sign).
holds(s_11269_jpg, tiledroof).
holds(s_11269_jpg, tiledrooftop).
holds(s_11269_jpg, wallsign).
holds(s_11269_jpg, pipe).
holds(s_11269_jpg, industrial).

sample(s_9986_jpg).
holds(s_9986_jpg, building).
holds(s_9986_jpg, feature).
holds(s_9986_jpg, porch).
holds(s_9986_jpg, sign).
holds(s_9986_jpg, table).
holds(s_9986_jpg, tiledrooftop).
holds(s_9986_jpg, vendingmachine).
holds(s_9986_jpg, statue).
holds(s_9986_jpg, pipe).
holds(s_9986_jpg, machine).

sample(s_4036_jpg).
holds(s_4036_jpg, building).
holds(s_4036_jpg, feature).
holds(s_4036_jpg, watertreatment).
holds(s_4036_jpg, door).
holds(s_4036_jpg, billboard).
holds(s_4036_jpg, porch).
holds(s_4036_jpg, sign).
holds(s_4036_jpg, tiledroof).
holds(s_4036_jpg, tiledrooftop).
holds(s_4036_jpg, wallsign).
holds(s_4036_jpg, pipe).
holds(s_4036_jpg, industrial).

sample(s_4273_jpg).
holds(s_4273_jpg, building).
holds(s_4273_jpg, feature).
holds(s_4273_jpg, watertreatment).
holds(s_4273_jpg, door).
holds(s_4273_jpg, billboard).
holds(s_4273_jpg, sign).
holds(s_4273_jpg, tiledroof).
holds(s_4273_jpg, tiledrooftop).
holds(s_4273_jpg, wallsign).
holds(s_4273_jpg, chimney).
holds(s_4273_jpg, pipe).
holds(s_4273_jpg, industrial).

sample(s_4643_jpg).
holds(s_4643_jpg, building).
holds(s_4643_jpg, feature).
holds(s_4643_jpg, porch).
holds(s_4643_jpg, sign).
holds(s_4643_jpg, table).
holds(s_4643_jpg, tiledrooftop).
holds(s_4643_jpg, vendingmachine).
holds(s_4643_jpg, statue).
holds(s_4643_jpg, pipe).
holds(s_4643_jpg, machine).

sample(s_15197_jpg).
holds(s_15197_jpg, building).
holds(s_15197_jpg, feature).
holds(s_15197_jpg, sign).
holds(s_15197_jpg, table).
holds(s_15197_jpg, tiledrooftop).
holds(s_15197_jpg, vendingmachine).
holds(s_15197_jpg, statue).
holds(s_15197_jpg, pipe).
holds(s_15197_jpg, machine).

sample(s_10413_jpg).
holds(s_10413_jpg, building).
holds(s_10413_jpg, feature).
holds(s_10413_jpg, hotel).
holds(s_10413_jpg, door).
holds(s_10413_jpg, billboard).
holds(s_10413_jpg, porch).
holds(s_10413_jpg, sign).
holds(s_10413_jpg, table).
holds(s_10413_jpg, tiledroof).
holds(s_10413_jpg, tiledrooftop).
holds(s_10413_jpg, vendingmachine).
holds(s_10413_jpg, wallsign).
holds(s_10413_jpg, chimney).
holds(s_10413_jpg, pipe).
holds(s_10413_jpg, car).
holds(s_10413_jpg, commercial).

sample(s_9464_jpg).
holds(s_9464_jpg, building).
holds(s_9464_jpg, feature).
holds(s_9464_jpg, porch).
holds(s_9464_jpg, sign).
holds(s_9464_jpg, table).
holds(s_9464_jpg, tiledrooftop).
holds(s_9464_jpg, vendingmachine).
holds(s_9464_jpg, statue).
holds(s_9464_jpg, pipe).
holds(s_9464_jpg, machine).

sample(s_5885_jpg).
holds(s_5885_jpg, building).
holds(s_5885_jpg, feature).
holds(s_5885_jpg, sign).
holds(s_5885_jpg, table).
holds(s_5885_jpg, tiledrooftop).
holds(s_5885_jpg, vendingmachine).
holds(s_5885_jpg, statue).
holds(s_5885_jpg, pipe).
holds(s_5885_jpg, machine).

sample(s_1808_jpg).
holds(s_1808_jpg, building).
holds(s_1808_jpg, feature).
holds(s_1808_jpg, sign).
holds(s_1808_jpg, table).
holds(s_1808_jpg, tiledrooftop).
holds(s_1808_jpg, vendingmachine).
holds(s_1808_jpg, statue).
holds(s_1808_jpg, pipe).

sample(s_4413_jpg).
holds(s_4413_jpg, building).
holds(s_4413_jpg, feature).
holds(s_4413_jpg, hotel).
holds(s_4413_jpg, door).
holds(s_4413_jpg, billboard).
holds(s_4413_jpg, porch).
holds(s_4413_jpg, sign).
holds(s_4413_jpg, tiledroof).
holds(s_4413_jpg, tiledrooftop).
holds(s_4413_jpg, wallsign).
holds(s_4413_jpg, chimney).
holds(s_4413_jpg, pipe).
holds(s_4413_jpg, car).
holds(s_4413_jpg, commercial).

sample(s_5456_jpg).
holds(s_5456_jpg, building).
holds(s_5456_jpg, feature).
holds(s_5456_jpg, porch).
holds(s_5456_jpg, sign).
holds(s_5456_jpg, table).
holds(s_5456_jpg, tiledrooftop).
holds(s_5456_jpg, vendingmachine).
holds(s_5456_jpg, statue).

sample(s_4971_jpg).
holds(s_4971_jpg, building).
holds(s_4971_jpg, feature).
holds(s_4971_jpg, hotel).
holds(s_4971_jpg, door).
holds(s_4971_jpg, billboard).
holds(s_4971_jpg, porch).
holds(s_4971_jpg, sign).
holds(s_4971_jpg, tiledroof).
holds(s_4971_jpg, tiledrooftop).
holds(s_4971_jpg, vendingmachine).
holds(s_4971_jpg, wallsign).
holds(s_4971_jpg, chimney).
holds(s_4971_jpg, pipe).
holds(s_4971_jpg, machine).
holds(s_4971_jpg, car).
holds(s_4971_jpg, commercial).

sample(s_9228_jpg).
holds(s_9228_jpg, building).
holds(s_9228_jpg, feature).
holds(s_9228_jpg, hotel).
holds(s_9228_jpg, door).
holds(s_9228_jpg, billboard).
holds(s_9228_jpg, porch).
holds(s_9228_jpg, sign).
holds(s_9228_jpg, tiledroof).
holds(s_9228_jpg, tiledrooftop).
holds(s_9228_jpg, vendingmachine).
holds(s_9228_jpg, wallsign).
holds(s_9228_jpg, chimney).
holds(s_9228_jpg, pipe).
holds(s_9228_jpg, machine).
holds(s_9228_jpg, car).
holds(s_9228_jpg, commercial).

sample(s_7262_jpg).
holds(s_7262_jpg, building).
holds(s_7262_jpg, feature).
holds(s_7262_jpg, sign).
holds(s_7262_jpg, table).
holds(s_7262_jpg, tiledrooftop).
holds(s_7262_jpg, vendingmachine).
holds(s_7262_jpg, statue).
holds(s_7262_jpg, pipe).

sample(s_1593_jpg).
holds(s_1593_jpg, building).
holds(s_1593_jpg, feature).
holds(s_1593_jpg, hotel).
holds(s_1593_jpg, door).
holds(s_1593_jpg, billboard).
holds(s_1593_jpg, porch).
holds(s_1593_jpg, sign).
holds(s_1593_jpg, tiledroof).
holds(s_1593_jpg, tiledrooftop).
holds(s_1593_jpg, wallsign).
holds(s_1593_jpg, chimney).
holds(s_1593_jpg, pipe).
holds(s_1593_jpg, car).
holds(s_1593_jpg, commercial).

sample(s_9284_jpg).
holds(s_9284_jpg, building).
holds(s_9284_jpg, feature).
holds(s_9284_jpg, sign).
holds(s_9284_jpg, table).
holds(s_9284_jpg, tiledrooftop).
holds(s_9284_jpg, vendingmachine).
holds(s_9284_jpg, statue).
holds(s_9284_jpg, pipe).

sample(s_11622_jpg).
holds(s_11622_jpg, building).
holds(s_11622_jpg, feature).
holds(s_11622_jpg, hotel).
holds(s_11622_jpg, door).
holds(s_11622_jpg, billboard).
holds(s_11622_jpg, porch).
holds(s_11622_jpg, sign).
holds(s_11622_jpg, tiledroof).
holds(s_11622_jpg, tiledrooftop).
holds(s_11622_jpg, wallsign).
holds(s_11622_jpg, chimney).
holds(s_11622_jpg, pipe).
holds(s_11622_jpg, car).
holds(s_11622_jpg, commercial).

sample(s_12111_jpg).
holds(s_12111_jpg, building).
holds(s_12111_jpg, feature).
holds(s_12111_jpg, hotel).
holds(s_12111_jpg, door).
holds(s_12111_jpg, billboard).
holds(s_12111_jpg, porch).
holds(s_12111_jpg, sign).
holds(s_12111_jpg, tiledroof).
holds(s_12111_jpg, tiledrooftop).
holds(s_12111_jpg, vendingmachine).
holds(s_12111_jpg, wallsign).
holds(s_12111_jpg, chimney).
holds(s_12111_jpg, pipe).
holds(s_12111_jpg, machine).
holds(s_12111_jpg, car).
holds(s_12111_jpg, commercial).

sample(s_6842_jpg).
holds(s_6842_jpg, building).
holds(s_6842_jpg, feature).
holds(s_6842_jpg, sign).
holds(s_6842_jpg, table).
holds(s_6842_jpg, tiledrooftop).
holds(s_6842_jpg, vendingmachine).
holds(s_6842_jpg, statue).
holds(s_6842_jpg, pipe).
holds(s_6842_jpg, machine).

sample(s_7393_jpg).
holds(s_7393_jpg, building).
holds(s_7393_jpg, feature).
holds(s_7393_jpg, watertreatment).
holds(s_7393_jpg, door).
holds(s_7393_jpg, billboard).
holds(s_7393_jpg, porch).
holds(s_7393_jpg, sign).
holds(s_7393_jpg, tiledroof).
holds(s_7393_jpg, tiledrooftop).
holds(s_7393_jpg, wallsign).
holds(s_7393_jpg, pipe).
holds(s_7393_jpg, industrial).

sample(s_2506_jpg).
holds(s_2506_jpg, building).
holds(s_2506_jpg, feature).
holds(s_2506_jpg, watertreatment).
holds(s_2506_jpg, door).
holds(s_2506_jpg, billboard).
holds(s_2506_jpg, porch).
holds(s_2506_jpg, sign).
holds(s_2506_jpg, tiledroof).
holds(s_2506_jpg, tiledrooftop).
holds(s_2506_jpg, wallsign).
holds(s_2506_jpg, pipe).
holds(s_2506_jpg, industrial).

sample(s_4953_jpg).
holds(s_4953_jpg, building).
holds(s_4953_jpg, feature).
holds(s_4953_jpg, hotel).
holds(s_4953_jpg, door).
holds(s_4953_jpg, billboard).
holds(s_4953_jpg, porch).
holds(s_4953_jpg, sign).
holds(s_4953_jpg, tiledroof).
holds(s_4953_jpg, tiledrooftop).
holds(s_4953_jpg, wallsign).
holds(s_4953_jpg, chimney).
holds(s_4953_jpg, pipe).
holds(s_4953_jpg, car).
holds(s_4953_jpg, commercial).

sample(s_6572_jpg).
holds(s_6572_jpg, building).
holds(s_6572_jpg, feature).
holds(s_6572_jpg, sign).
holds(s_6572_jpg, table).
holds(s_6572_jpg, tiledrooftop).
holds(s_6572_jpg, vendingmachine).
holds(s_6572_jpg, statue).
holds(s_6572_jpg, pipe).

sample(s_12106_jpg).
holds(s_12106_jpg, building).
holds(s_12106_jpg, feature).
holds(s_12106_jpg, watertreatment).
holds(s_12106_jpg, door).
holds(s_12106_jpg, billboard).
holds(s_12106_jpg, porch).
holds(s_12106_jpg, sign).
holds(s_12106_jpg, tiledroof).
holds(s_12106_jpg, wallsign).
holds(s_12106_jpg, pipe).
holds(s_12106_jpg, industrial).

sample(s_2367_jpg).
holds(s_2367_jpg, building).
holds(s_2367_jpg, feature).
holds(s_2367_jpg, hotel).
holds(s_2367_jpg, door).
holds(s_2367_jpg, billboard).
holds(s_2367_jpg, porch).
holds(s_2367_jpg, sign).
holds(s_2367_jpg, table).
holds(s_2367_jpg, tiledroof).
holds(s_2367_jpg, tiledrooftop).
holds(s_2367_jpg, vendingmachine).
holds(s_2367_jpg, wallsign).
holds(s_2367_jpg, chimney).
holds(s_2367_jpg, pipe).
holds(s_2367_jpg, car).
holds(s_2367_jpg, commercial).

sample(s_1100_jpg).
holds(s_1100_jpg, building).
holds(s_1100_jpg, feature).
holds(s_1100_jpg, billboard).
holds(s_1100_jpg, porch).
holds(s_1100_jpg, sign).
holds(s_1100_jpg, table).
holds(s_1100_jpg, tiledrooftop).
holds(s_1100_jpg, vendingmachine).
holds(s_1100_jpg, statue).
holds(s_1100_jpg, machine).

sample(s_7615_jpg).
holds(s_7615_jpg, building).
holds(s_7615_jpg, feature).
holds(s_7615_jpg, watertreatment).
holds(s_7615_jpg, door).
holds(s_7615_jpg, billboard).
holds(s_7615_jpg, porch).
holds(s_7615_jpg, sign).
holds(s_7615_jpg, tiledroof).
holds(s_7615_jpg, wallsign).
holds(s_7615_jpg, industrial).

sample(s_2609_jpg).
holds(s_2609_jpg, building).
holds(s_2609_jpg, feature).
holds(s_2609_jpg, sign).
holds(s_2609_jpg, table).
holds(s_2609_jpg, tiledrooftop).
holds(s_2609_jpg, vendingmachine).
holds(s_2609_jpg, statue).
holds(s_2609_jpg, pipe).

sample(s_7406_jpg).
holds(s_7406_jpg, building).
holds(s_7406_jpg, feature).
holds(s_7406_jpg, porch).
holds(s_7406_jpg, sign).
holds(s_7406_jpg, table).
holds(s_7406_jpg, tiledrooftop).
holds(s_7406_jpg, vendingmachine).
holds(s_7406_jpg, statue).
holds(s_7406_jpg, machine).

sample(s_13438_jpg).
holds(s_13438_jpg, building).
holds(s_13438_jpg, feature).
holds(s_13438_jpg, watertreatment).
holds(s_13438_jpg, door).
holds(s_13438_jpg, billboard).
holds(s_13438_jpg, porch).
holds(s_13438_jpg, sign).
holds(s_13438_jpg, tiledroof).
holds(s_13438_jpg, tiledrooftop).
holds(s_13438_jpg, wallsign).
holds(s_13438_jpg, pipe).
holds(s_13438_jpg, industrial).

sample(s_7716_jpg).
holds(s_7716_jpg, building).
holds(s_7716_jpg, feature).
holds(s_7716_jpg, hotel).
holds(s_7716_jpg, billboard).
holds(s_7716_jpg, porch).
holds(s_7716_jpg, sign).
holds(s_7716_jpg, table).
holds(s_7716_jpg, tiledroof).
holds(s_7716_jpg, tiledrooftop).
holds(s_7716_jpg, vendingmachine).
holds(s_7716_jpg, statue).
holds(s_7716_jpg, chimney).
holds(s_7716_jpg, pipe).
holds(s_7716_jpg, machine).
holds(s_7716_jpg, car).
holds(s_7716_jpg, commercial).

sample(s_2009_jpg).
holds(s_2009_jpg, building).
holds(s_2009_jpg, feature).
holds(s_2009_jpg, sign).
holds(s_2009_jpg, table).
holds(s_2009_jpg, tiledrooftop).
holds(s_2009_jpg, vendingmachine).
holds(s_2009_jpg, statue).
holds(s_2009_jpg, pipe).
holds(s_2009_jpg, machine).

sample(s_14988_jpg).
holds(s_14988_jpg, building).
holds(s_14988_jpg, feature).
holds(s_14988_jpg, hotel).
holds(s_14988_jpg, porch).
holds(s_14988_jpg, sign).
holds(s_14988_jpg, table).
holds(s_14988_jpg, tiledroof).
holds(s_14988_jpg, tiledrooftop).
holds(s_14988_jpg, vendingmachine).
holds(s_14988_jpg, statue).
holds(s_14988_jpg, pipe).
holds(s_14988_jpg, machine).
holds(s_14988_jpg, commercial).

sample(s_3548_jpg).
holds(s_3548_jpg, building).
holds(s_3548_jpg, feature).
holds(s_3548_jpg, sign).
holds(s_3548_jpg, table).
holds(s_3548_jpg, tiledrooftop).
holds(s_3548_jpg, vendingmachine).
holds(s_3548_jpg, statue).
holds(s_3548_jpg, pipe).

sample(s_8619_jpg).
holds(s_8619_jpg, building).
holds(s_8619_jpg, feature).
holds(s_8619_jpg, hotel).
holds(s_8619_jpg, door).
holds(s_8619_jpg, billboard).
holds(s_8619_jpg, porch).
holds(s_8619_jpg, sign).
holds(s_8619_jpg, tiledroof).
holds(s_8619_jpg, tiledrooftop).
holds(s_8619_jpg, wallsign).
holds(s_8619_jpg, chimney).
holds(s_8619_jpg, pipe).
holds(s_8619_jpg, car).
holds(s_8619_jpg, commercial).

sample(s_12887_jpg).
holds(s_12887_jpg, building).
holds(s_12887_jpg, feature).
holds(s_12887_jpg, sign).
holds(s_12887_jpg, table).
holds(s_12887_jpg, tiledrooftop).
holds(s_12887_jpg, vendingmachine).
holds(s_12887_jpg, statue).
holds(s_12887_jpg, pipe).

sample(s_2655_jpg).
holds(s_2655_jpg, building).
holds(s_2655_jpg, feature).
holds(s_2655_jpg, hotel).
holds(s_2655_jpg, door).
holds(s_2655_jpg, billboard).
holds(s_2655_jpg, porch).
holds(s_2655_jpg, sign).
holds(s_2655_jpg, tiledroof).
holds(s_2655_jpg, tiledrooftop).
holds(s_2655_jpg, wallsign).
holds(s_2655_jpg, chimney).
holds(s_2655_jpg, pipe).
holds(s_2655_jpg, car).
holds(s_2655_jpg, commercial).

sample(s_15519_jpg).
holds(s_15519_jpg, building).
holds(s_15519_jpg, feature).
holds(s_15519_jpg, hotel).
holds(s_15519_jpg, door).
holds(s_15519_jpg, billboard).
holds(s_15519_jpg, sign).
holds(s_15519_jpg, tiledroof).
holds(s_15519_jpg, tiledrooftop).
holds(s_15519_jpg, chimney).
holds(s_15519_jpg, pipe).
holds(s_15519_jpg, car).
holds(s_15519_jpg, commercial).

sample(s_9812_jpg).
holds(s_9812_jpg, building).
holds(s_9812_jpg, feature).
holds(s_9812_jpg, sign).
holds(s_9812_jpg, table).
holds(s_9812_jpg, tiledrooftop).
holds(s_9812_jpg, vendingmachine).
holds(s_9812_jpg, statue).
holds(s_9812_jpg, pipe).
holds(s_9812_jpg, machine).

sample(s_3006_jpg).
holds(s_3006_jpg, building).
holds(s_3006_jpg, feature).
holds(s_3006_jpg, hotel).
holds(s_3006_jpg, door).
holds(s_3006_jpg, billboard).
holds(s_3006_jpg, sign).
holds(s_3006_jpg, tiledroof).
holds(s_3006_jpg, tiledrooftop).
holds(s_3006_jpg, wallsign).
holds(s_3006_jpg, chimney).
holds(s_3006_jpg, pipe).
holds(s_3006_jpg, car).
holds(s_3006_jpg, commercial).

sample(s_75_jpg).
holds(s_75_jpg, building).
holds(s_75_jpg, feature).
holds(s_75_jpg, hotel).
holds(s_75_jpg, billboard).
holds(s_75_jpg, porch).
holds(s_75_jpg, sign).
holds(s_75_jpg, table).
holds(s_75_jpg, tiledroof).
holds(s_75_jpg, tiledrooftop).
holds(s_75_jpg, vendingmachine).
holds(s_75_jpg, wallsign).
holds(s_75_jpg, chimney).
holds(s_75_jpg, pipe).
holds(s_75_jpg, machine).
holds(s_75_jpg, car).
holds(s_75_jpg, commercial).

sample(s_12676_jpg).
holds(s_12676_jpg, building).
holds(s_12676_jpg, feature).
holds(s_12676_jpg, watertreatment).
holds(s_12676_jpg, door).
holds(s_12676_jpg, billboard).
holds(s_12676_jpg, porch).
holds(s_12676_jpg, sign).
holds(s_12676_jpg, tiledroof).
holds(s_12676_jpg, wallsign).
holds(s_12676_jpg, chimney).
holds(s_12676_jpg, pipe).
holds(s_12676_jpg, industrial).

sample(s_2819_jpg).
holds(s_2819_jpg, building).
holds(s_2819_jpg, feature).
holds(s_2819_jpg, sign).
holds(s_2819_jpg, table).
holds(s_2819_jpg, tiledrooftop).
holds(s_2819_jpg, vendingmachine).
holds(s_2819_jpg, statue).
holds(s_2819_jpg, pipe).
holds(s_2819_jpg, machine).

sample(s_2882_jpg).
holds(s_2882_jpg, building).
holds(s_2882_jpg, feature).
holds(s_2882_jpg, sign).
holds(s_2882_jpg, table).
holds(s_2882_jpg, tiledrooftop).
holds(s_2882_jpg, vendingmachine).
holds(s_2882_jpg, statue).
holds(s_2882_jpg, pipe).
holds(s_2882_jpg, machine).

sample(s_13276_jpg).
holds(s_13276_jpg, building).
holds(s_13276_jpg, feature).
holds(s_13276_jpg, watertreatment).
holds(s_13276_jpg, door).
holds(s_13276_jpg, billboard).
holds(s_13276_jpg, porch).
holds(s_13276_jpg, sign).
holds(s_13276_jpg, tiledroof).
holds(s_13276_jpg, wallsign).
holds(s_13276_jpg, chimney).
holds(s_13276_jpg, pipe).
holds(s_13276_jpg, industrial).

sample(s_4334_jpg).
holds(s_4334_jpg, building).
holds(s_4334_jpg, feature).
holds(s_4334_jpg, billboard).
holds(s_4334_jpg, sign).
holds(s_4334_jpg, table).
holds(s_4334_jpg, tiledrooftop).
holds(s_4334_jpg, vendingmachine).
holds(s_4334_jpg, statue).
holds(s_4334_jpg, pipe).
holds(s_4334_jpg, machine).

sample(s_7927_jpg).
holds(s_7927_jpg, building).
holds(s_7927_jpg, feature).
holds(s_7927_jpg, watertreatment).
holds(s_7927_jpg, door).
holds(s_7927_jpg, billboard).
holds(s_7927_jpg, porch).
holds(s_7927_jpg, sign).
holds(s_7927_jpg, tiledroof).
holds(s_7927_jpg, wallsign).
holds(s_7927_jpg, chimney).
holds(s_7927_jpg, pipe).
holds(s_7927_jpg, industrial).

sample(s_7946_jpg).
holds(s_7946_jpg, building).
holds(s_7946_jpg, feature).
holds(s_7946_jpg, porch).
holds(s_7946_jpg, sign).
holds(s_7946_jpg, table).
holds(s_7946_jpg, tiledrooftop).
holds(s_7946_jpg, vendingmachine).
holds(s_7946_jpg, statue).

sample(s_15584_jpg).
holds(s_15584_jpg, building).
holds(s_15584_jpg, feature).
holds(s_15584_jpg, sign).
holds(s_15584_jpg, table).
holds(s_15584_jpg, tiledrooftop).
holds(s_15584_jpg, vendingmachine).
holds(s_15584_jpg, statue).
holds(s_15584_jpg, pipe).

sample(s_9302_jpg).
holds(s_9302_jpg, building).
holds(s_9302_jpg, feature).
holds(s_9302_jpg, window).
holds(s_9302_jpg, porch).
holds(s_9302_jpg, table).
holds(s_9302_jpg, tiledrooftop).
holds(s_9302_jpg, vendingmachine).
holds(s_9302_jpg, statue).

sample(s_9001_jpg).
holds(s_9001_jpg, building).
holds(s_9001_jpg, feature).
holds(s_9001_jpg, watertreatment).
holds(s_9001_jpg, door).
holds(s_9001_jpg, billboard).
holds(s_9001_jpg, porch).
holds(s_9001_jpg, sign).
holds(s_9001_jpg, tiledroof).
holds(s_9001_jpg, wallsign).
holds(s_9001_jpg, chimney).
holds(s_9001_jpg, pipe).
holds(s_9001_jpg, industrial).

sample(s_14812_jpg).
holds(s_14812_jpg, building).
holds(s_14812_jpg, feature).
holds(s_14812_jpg, watertreatment).
holds(s_14812_jpg, door).
holds(s_14812_jpg, billboard).
holds(s_14812_jpg, porch).
holds(s_14812_jpg, sign).
holds(s_14812_jpg, tiledroof).
holds(s_14812_jpg, tiledrooftop).
holds(s_14812_jpg, wallsign).
holds(s_14812_jpg, pipe).
holds(s_14812_jpg, industrial).

sample(s_5534_jpg).
holds(s_5534_jpg, building).
holds(s_5534_jpg, feature).
holds(s_5534_jpg, sign).
holds(s_5534_jpg, table).
holds(s_5534_jpg, tiledrooftop).
holds(s_5534_jpg, vendingmachine).
holds(s_5534_jpg, statue).
holds(s_5534_jpg, pipe).

sample(s_2956_jpg).
holds(s_2956_jpg, building).
holds(s_2956_jpg, feature).
holds(s_2956_jpg, watertreatment).
holds(s_2956_jpg, door).
holds(s_2956_jpg, billboard).
holds(s_2956_jpg, porch).
holds(s_2956_jpg, sign).
holds(s_2956_jpg, tiledroof).
holds(s_2956_jpg, wallsign).
holds(s_2956_jpg, industrial).

sample(s_4191_jpg).
holds(s_4191_jpg, building).
holds(s_4191_jpg, feature).
holds(s_4191_jpg, hotel).
holds(s_4191_jpg, billboard).
holds(s_4191_jpg, porch).
holds(s_4191_jpg, sign).
holds(s_4191_jpg, table).
holds(s_4191_jpg, tiledroof).
holds(s_4191_jpg, tiledrooftop).
holds(s_4191_jpg, vendingmachine).
holds(s_4191_jpg, statue).
holds(s_4191_jpg, pipe).
holds(s_4191_jpg, commercial).

sample(s_1552_jpg).
holds(s_1552_jpg, building).
holds(s_1552_jpg, feature).
holds(s_1552_jpg, watertreatment).
holds(s_1552_jpg, door).
holds(s_1552_jpg, billboard).
holds(s_1552_jpg, porch).
holds(s_1552_jpg, sign).
holds(s_1552_jpg, tiledroof).
holds(s_1552_jpg, tiledrooftop).
holds(s_1552_jpg, wallsign).
holds(s_1552_jpg, industrial).

sample(s_5867_jpg).
holds(s_5867_jpg, building).
holds(s_5867_jpg, feature).
holds(s_5867_jpg, sign).
holds(s_5867_jpg, table).
holds(s_5867_jpg, tiledrooftop).
holds(s_5867_jpg, vendingmachine).
holds(s_5867_jpg, statue).
holds(s_5867_jpg, pipe).
holds(s_5867_jpg, machine).

sample(s_8555_jpg).
holds(s_8555_jpg, building).
holds(s_8555_jpg, feature).
holds(s_8555_jpg, sign).
holds(s_8555_jpg, table).
holds(s_8555_jpg, tiledrooftop).
holds(s_8555_jpg, vendingmachine).
holds(s_8555_jpg, statue).
holds(s_8555_jpg, pipe).
holds(s_8555_jpg, machine).

sample(s_12211_jpg).
holds(s_12211_jpg, building).
holds(s_12211_jpg, feature).
holds(s_12211_jpg, watertreatment).
holds(s_12211_jpg, door).
holds(s_12211_jpg, billboard).
holds(s_12211_jpg, porch).
holds(s_12211_jpg, sign).
holds(s_12211_jpg, tiledroof).
holds(s_12211_jpg, wallsign).
holds(s_12211_jpg, industrial).

sample(s_5118_jpg).
holds(s_5118_jpg, building).
holds(s_5118_jpg, feature).
holds(s_5118_jpg, hotel).
holds(s_5118_jpg, porch).
holds(s_5118_jpg, sign).
holds(s_5118_jpg, table).
holds(s_5118_jpg, tiledroof).
holds(s_5118_jpg, tiledrooftop).
holds(s_5118_jpg, vendingmachine).
holds(s_5118_jpg, statue).
holds(s_5118_jpg, chimney).
holds(s_5118_jpg, pipe).
holds(s_5118_jpg, machine).
holds(s_5118_jpg, commercial).

sample(s_11481_jpg).
holds(s_11481_jpg, building).
holds(s_11481_jpg, feature).
holds(s_11481_jpg, hotel).
holds(s_11481_jpg, door).
holds(s_11481_jpg, billboard).
holds(s_11481_jpg, porch).
holds(s_11481_jpg, sign).
holds(s_11481_jpg, table).
holds(s_11481_jpg, tiledroof).
holds(s_11481_jpg, tiledrooftop).
holds(s_11481_jpg, vendingmachine).
holds(s_11481_jpg, pipe).
holds(s_11481_jpg, commercial).

sample(s_2652_jpg).
holds(s_2652_jpg, building).
holds(s_2652_jpg, feature).
holds(s_2652_jpg, hotel).
holds(s_2652_jpg, door).
holds(s_2652_jpg, billboard).
holds(s_2652_jpg, porch).
holds(s_2652_jpg, sign).
holds(s_2652_jpg, tiledroof).
holds(s_2652_jpg, tiledrooftop).
holds(s_2652_jpg, vendingmachine).
holds(s_2652_jpg, wallsign).
holds(s_2652_jpg, chimney).
holds(s_2652_jpg, pipe).
holds(s_2652_jpg, car).
holds(s_2652_jpg, commercial).

sample(s_4837_jpg).
holds(s_4837_jpg, building).
holds(s_4837_jpg, feature).
holds(s_4837_jpg, watertreatment).
holds(s_4837_jpg, door).
holds(s_4837_jpg, billboard).
holds(s_4837_jpg, sign).
holds(s_4837_jpg, tiledroof).
holds(s_4837_jpg, tiledrooftop).
holds(s_4837_jpg, wallsign).
holds(s_4837_jpg, chimney).
holds(s_4837_jpg, pipe).
holds(s_4837_jpg, industrial).

sample(s_2614_jpg).
holds(s_2614_jpg, building).
holds(s_2614_jpg, feature).
holds(s_2614_jpg, watertreatment).
holds(s_2614_jpg, door).
holds(s_2614_jpg, billboard).
holds(s_2614_jpg, porch).
holds(s_2614_jpg, sign).
holds(s_2614_jpg, tiledroof).
holds(s_2614_jpg, wallsign).
holds(s_2614_jpg, industrial).

sample(s_1485_jpg).
holds(s_1485_jpg, building).
holds(s_1485_jpg, feature).
holds(s_1485_jpg, hotel).
holds(s_1485_jpg, billboard).
holds(s_1485_jpg, sign).
holds(s_1485_jpg, table).
holds(s_1485_jpg, tiledroof).
holds(s_1485_jpg, tiledrooftop).
holds(s_1485_jpg, vendingmachine).
holds(s_1485_jpg, statue).
holds(s_1485_jpg, chimney).
holds(s_1485_jpg, pipe).
holds(s_1485_jpg, machine).
holds(s_1485_jpg, car).
holds(s_1485_jpg, commercial).

sample(s_10636_jpg).
holds(s_10636_jpg, building).
holds(s_10636_jpg, feature).
holds(s_10636_jpg, watertreatment).
holds(s_10636_jpg, door).
holds(s_10636_jpg, billboard).
holds(s_10636_jpg, porch).
holds(s_10636_jpg, sign).
holds(s_10636_jpg, tiledroof).
holds(s_10636_jpg, tiledrooftop).
holds(s_10636_jpg, wallsign).
holds(s_10636_jpg, industrial).

sample(s_15318_jpg).
holds(s_15318_jpg, building).
holds(s_15318_jpg, feature).
holds(s_15318_jpg, hotel).
holds(s_15318_jpg, door).
holds(s_15318_jpg, billboard).
holds(s_15318_jpg, porch).
holds(s_15318_jpg, sign).
holds(s_15318_jpg, tiledroof).
holds(s_15318_jpg, tiledrooftop).
holds(s_15318_jpg, wallsign).
holds(s_15318_jpg, chimney).
holds(s_15318_jpg, pipe).
holds(s_15318_jpg, car).
holds(s_15318_jpg, commercial).

sample(s_13372_jpg).
holds(s_13372_jpg, building).
holds(s_13372_jpg, feature).
holds(s_13372_jpg, watertreatment).
holds(s_13372_jpg, door).
holds(s_13372_jpg, billboard).
holds(s_13372_jpg, porch).
holds(s_13372_jpg, sign).
holds(s_13372_jpg, tiledroof).
holds(s_13372_jpg, tiledrooftop).
holds(s_13372_jpg, wallsign).
holds(s_13372_jpg, pipe).
holds(s_13372_jpg, industrial).

sample(s_1756_jpg).
holds(s_1756_jpg, building).
holds(s_1756_jpg, feature).
holds(s_1756_jpg, watertreatment).
holds(s_1756_jpg, door).
holds(s_1756_jpg, billboard).
holds(s_1756_jpg, porch).
holds(s_1756_jpg, sign).
holds(s_1756_jpg, tiledroof).
holds(s_1756_jpg, tiledrooftop).
holds(s_1756_jpg, wallsign).
holds(s_1756_jpg, industrial).

sample(s_5861_jpg).
holds(s_5861_jpg, building).
holds(s_5861_jpg, feature).
holds(s_5861_jpg, sign).
holds(s_5861_jpg, table).
holds(s_5861_jpg, tiledrooftop).
holds(s_5861_jpg, vendingmachine).
holds(s_5861_jpg, statue).
holds(s_5861_jpg, pipe).

sample(s_3205_jpg).
holds(s_3205_jpg, building).
holds(s_3205_jpg, feature).
holds(s_3205_jpg, watertreatment).
holds(s_3205_jpg, door).
holds(s_3205_jpg, billboard).
holds(s_3205_jpg, porch).
holds(s_3205_jpg, sign).
holds(s_3205_jpg, tiledroof).
holds(s_3205_jpg, wallsign).
holds(s_3205_jpg, chimney).
holds(s_3205_jpg, pipe).
holds(s_3205_jpg, industrial).

sample(s_14267_jpg).
holds(s_14267_jpg, building).
holds(s_14267_jpg, feature).
holds(s_14267_jpg, porch).
holds(s_14267_jpg, sign).
holds(s_14267_jpg, table).
holds(s_14267_jpg, tiledrooftop).
holds(s_14267_jpg, vendingmachine).
holds(s_14267_jpg, statue).
holds(s_14267_jpg, pipe).

sample(s_12783_jpg).
holds(s_12783_jpg, building).
holds(s_12783_jpg, feature).
holds(s_12783_jpg, hotel).
holds(s_12783_jpg, door).
holds(s_12783_jpg, billboard).
holds(s_12783_jpg, porch).
holds(s_12783_jpg, sign).
holds(s_12783_jpg, tiledroof).
holds(s_12783_jpg, tiledrooftop).
holds(s_12783_jpg, wallsign).
holds(s_12783_jpg, chimney).
holds(s_12783_jpg, pipe).
holds(s_12783_jpg, car).
holds(s_12783_jpg, commercial).

sample(s_10117_jpg).
holds(s_10117_jpg, building).
holds(s_10117_jpg, feature).
holds(s_10117_jpg, watertreatment).
holds(s_10117_jpg, door).
holds(s_10117_jpg, billboard).
holds(s_10117_jpg, porch).
holds(s_10117_jpg, sign).
holds(s_10117_jpg, tiledroof).
holds(s_10117_jpg, wallsign).
holds(s_10117_jpg, chimney).
holds(s_10117_jpg, pipe).
holds(s_10117_jpg, industrial).

sample(s_6730_jpg).
holds(s_6730_jpg, building).
holds(s_6730_jpg, feature).
holds(s_6730_jpg, watertreatment).
holds(s_6730_jpg, door).
holds(s_6730_jpg, billboard).
holds(s_6730_jpg, porch).
holds(s_6730_jpg, sign).
holds(s_6730_jpg, tiledroof).
holds(s_6730_jpg, wallsign).
holds(s_6730_jpg, industrial).

sample(s_4056_jpg).
holds(s_4056_jpg, building).
holds(s_4056_jpg, feature).
holds(s_4056_jpg, hotel).
holds(s_4056_jpg, door).
holds(s_4056_jpg, billboard).
holds(s_4056_jpg, porch).
holds(s_4056_jpg, sign).
holds(s_4056_jpg, tiledroof).
holds(s_4056_jpg, tiledrooftop).
holds(s_4056_jpg, wallsign).
holds(s_4056_jpg, chimney).
holds(s_4056_jpg, pipe).
holds(s_4056_jpg, car).
holds(s_4056_jpg, commercial).

sample(s_3679_jpg).
holds(s_3679_jpg, building).
holds(s_3679_jpg, feature).
holds(s_3679_jpg, watertreatment).
holds(s_3679_jpg, door).
holds(s_3679_jpg, billboard).
holds(s_3679_jpg, porch).
holds(s_3679_jpg, sign).
holds(s_3679_jpg, tiledroof).
holds(s_3679_jpg, wallsign).
holds(s_3679_jpg, industrial).

sample(s_10278_jpg).
holds(s_10278_jpg, building).
holds(s_10278_jpg, feature).
holds(s_10278_jpg, hotel).
holds(s_10278_jpg, door).
holds(s_10278_jpg, billboard).
holds(s_10278_jpg, porch).
holds(s_10278_jpg, sign).
holds(s_10278_jpg, table).
holds(s_10278_jpg, tiledroof).
holds(s_10278_jpg, tiledrooftop).
holds(s_10278_jpg, wallsign).
holds(s_10278_jpg, chimney).
holds(s_10278_jpg, pipe).
holds(s_10278_jpg, car).
holds(s_10278_jpg, commercial).

sample(s_7518_jpg).
holds(s_7518_jpg, building).
holds(s_7518_jpg, feature).
holds(s_7518_jpg, hotel).
holds(s_7518_jpg, billboard).
holds(s_7518_jpg, sign).
holds(s_7518_jpg, tiledroof).
holds(s_7518_jpg, tiledrooftop).
holds(s_7518_jpg, chimney).
holds(s_7518_jpg, pipe).
holds(s_7518_jpg, machine).
holds(s_7518_jpg, car).
holds(s_7518_jpg, commercial).

sample(s_14586_jpg).
holds(s_14586_jpg, building).
holds(s_14586_jpg, feature).
holds(s_14586_jpg, hotel).
holds(s_14586_jpg, door).
holds(s_14586_jpg, billboard).
holds(s_14586_jpg, porch).
holds(s_14586_jpg, sign).
holds(s_14586_jpg, table).
holds(s_14586_jpg, tiledroof).
holds(s_14586_jpg, tiledrooftop).
holds(s_14586_jpg, vendingmachine).
holds(s_14586_jpg, wallsign).
holds(s_14586_jpg, chimney).
holds(s_14586_jpg, pipe).
holds(s_14586_jpg, machine).
holds(s_14586_jpg, car).
holds(s_14586_jpg, commercial).

sample(s_7263_jpg).
holds(s_7263_jpg, building).
holds(s_7263_jpg, feature).
holds(s_7263_jpg, hotel).
holds(s_7263_jpg, porch).
holds(s_7263_jpg, sign).
holds(s_7263_jpg, table).
holds(s_7263_jpg, tiledroof).
holds(s_7263_jpg, tiledrooftop).
holds(s_7263_jpg, vendingmachine).
holds(s_7263_jpg, statue).
holds(s_7263_jpg, chimney).
holds(s_7263_jpg, pipe).
holds(s_7263_jpg, machine).
holds(s_7263_jpg, car).
holds(s_7263_jpg, commercial).

sample(s_7748_jpg).
holds(s_7748_jpg, building).
holds(s_7748_jpg, feature).
holds(s_7748_jpg, sign).
holds(s_7748_jpg, table).
holds(s_7748_jpg, tiledrooftop).
holds(s_7748_jpg, vendingmachine).
holds(s_7748_jpg, statue).
holds(s_7748_jpg, pipe).
holds(s_7748_jpg, machine).

sample(s_8991_jpg).
holds(s_8991_jpg, building).
holds(s_8991_jpg, feature).
holds(s_8991_jpg, hotel).
holds(s_8991_jpg, billboard).
holds(s_8991_jpg, sign).
holds(s_8991_jpg, table).
holds(s_8991_jpg, tiledroof).
holds(s_8991_jpg, tiledrooftop).
holds(s_8991_jpg, vendingmachine).
holds(s_8991_jpg, wallsign).
holds(s_8991_jpg, chimney).
holds(s_8991_jpg, pipe).
holds(s_8991_jpg, machine).
holds(s_8991_jpg, car).
holds(s_8991_jpg, commercial).

sample(s_325_jpg).
holds(s_325_jpg, building).
holds(s_325_jpg, feature).
holds(s_325_jpg, watertreatment).
holds(s_325_jpg, door).
holds(s_325_jpg, billboard).
holds(s_325_jpg, porch).
holds(s_325_jpg, sign).
holds(s_325_jpg, tiledroof).
holds(s_325_jpg, wallsign).
holds(s_325_jpg, industrial).

sample(s_4794_jpg).
holds(s_4794_jpg, building).
holds(s_4794_jpg, feature).
holds(s_4794_jpg, hotel).
holds(s_4794_jpg, billboard).
holds(s_4794_jpg, sign).
holds(s_4794_jpg, tiledroof).
holds(s_4794_jpg, tiledrooftop).
holds(s_4794_jpg, vendingmachine).
holds(s_4794_jpg, wallsign).
holds(s_4794_jpg, chimney).
holds(s_4794_jpg, pipe).
holds(s_4794_jpg, machine).
holds(s_4794_jpg, car).
holds(s_4794_jpg, commercial).

sample(s_4428_jpg).
holds(s_4428_jpg, building).
holds(s_4428_jpg, feature).
holds(s_4428_jpg, hotel).
holds(s_4428_jpg, door).
holds(s_4428_jpg, billboard).
holds(s_4428_jpg, porch).
holds(s_4428_jpg, sign).
holds(s_4428_jpg, tiledroof).
holds(s_4428_jpg, tiledrooftop).
holds(s_4428_jpg, wallsign).
holds(s_4428_jpg, chimney).
holds(s_4428_jpg, pipe).
holds(s_4428_jpg, car).
holds(s_4428_jpg, commercial).

sample(s_8318_jpg).
holds(s_8318_jpg, building).
holds(s_8318_jpg, feature).
holds(s_8318_jpg, billboard).
holds(s_8318_jpg, porch).
holds(s_8318_jpg, sign).
holds(s_8318_jpg, table).
holds(s_8318_jpg, tiledrooftop).
holds(s_8318_jpg, vendingmachine).
holds(s_8318_jpg, statue).
holds(s_8318_jpg, pipe).

sample(s_10214_jpg).
holds(s_10214_jpg, building).
holds(s_10214_jpg, feature).
holds(s_10214_jpg, billboard).
holds(s_10214_jpg, sign).
holds(s_10214_jpg, table).
holds(s_10214_jpg, tiledrooftop).
holds(s_10214_jpg, vendingmachine).
holds(s_10214_jpg, statue).
holds(s_10214_jpg, pipe).
holds(s_10214_jpg, machine).

sample(s_1502_jpg).
holds(s_1502_jpg, building).
holds(s_1502_jpg, feature).
holds(s_1502_jpg, sign).
holds(s_1502_jpg, table).
holds(s_1502_jpg, tiledrooftop).
holds(s_1502_jpg, vendingmachine).
holds(s_1502_jpg, statue).
holds(s_1502_jpg, pipe).
holds(s_1502_jpg, machine).

sample(s_3778_jpg).
holds(s_3778_jpg, building).
holds(s_3778_jpg, feature).
holds(s_3778_jpg, watertreatment).
holds(s_3778_jpg, door).
holds(s_3778_jpg, billboard).
holds(s_3778_jpg, porch).
holds(s_3778_jpg, sign).
holds(s_3778_jpg, tiledroof).
holds(s_3778_jpg, wallsign).
holds(s_3778_jpg, pipe).
holds(s_3778_jpg, industrial).

sample(s_3416_jpg).
holds(s_3416_jpg, building).
holds(s_3416_jpg, feature).
holds(s_3416_jpg, sign).
holds(s_3416_jpg, table).
holds(s_3416_jpg, tiledrooftop).
holds(s_3416_jpg, vendingmachine).
holds(s_3416_jpg, statue).
holds(s_3416_jpg, pipe).
holds(s_3416_jpg, machine).

sample(s_9089_jpg).
holds(s_9089_jpg, building).
holds(s_9089_jpg, feature).
holds(s_9089_jpg, sign).
holds(s_9089_jpg, table).
holds(s_9089_jpg, tiledrooftop).
holds(s_9089_jpg, vendingmachine).
holds(s_9089_jpg, statue).
holds(s_9089_jpg, pipe).

sample(s_2597_jpg).
holds(s_2597_jpg, building).
holds(s_2597_jpg, feature).
holds(s_2597_jpg, sign).
holds(s_2597_jpg, table).
holds(s_2597_jpg, tiledrooftop).
holds(s_2597_jpg, vendingmachine).
holds(s_2597_jpg, statue).
holds(s_2597_jpg, pipe).
holds(s_2597_jpg, machine).

sample(s_3692_jpg).
holds(s_3692_jpg, building).
holds(s_3692_jpg, feature).
holds(s_3692_jpg, sign).
holds(s_3692_jpg, table).
holds(s_3692_jpg, tiledrooftop).
holds(s_3692_jpg, vendingmachine).
holds(s_3692_jpg, statue).
holds(s_3692_jpg, pipe).

sample(s_7919_jpg).
holds(s_7919_jpg, building).
holds(s_7919_jpg, feature).
holds(s_7919_jpg, sign).
holds(s_7919_jpg, table).
holds(s_7919_jpg, tiledrooftop).
holds(s_7919_jpg, vendingmachine).
holds(s_7919_jpg, statue).
holds(s_7919_jpg, pipe).

sample(s_14295_jpg).
holds(s_14295_jpg, building).
holds(s_14295_jpg, feature).
holds(s_14295_jpg, hotel).
holds(s_14295_jpg, door).
holds(s_14295_jpg, billboard).
holds(s_14295_jpg, porch).
holds(s_14295_jpg, sign).
holds(s_14295_jpg, tiledroof).
holds(s_14295_jpg, tiledrooftop).
holds(s_14295_jpg, wallsign).
holds(s_14295_jpg, chimney).
holds(s_14295_jpg, pipe).
holds(s_14295_jpg, car).
holds(s_14295_jpg, commercial).

sample(s_14825_jpg).
holds(s_14825_jpg, building).
holds(s_14825_jpg, feature).
holds(s_14825_jpg, sign).
holds(s_14825_jpg, table).
holds(s_14825_jpg, tiledrooftop).
holds(s_14825_jpg, vendingmachine).
holds(s_14825_jpg, statue).
holds(s_14825_jpg, pipe).

sample(s_12800_jpg).
holds(s_12800_jpg, building).
holds(s_12800_jpg, feature).
holds(s_12800_jpg, sign).
holds(s_12800_jpg, table).
holds(s_12800_jpg, tiledrooftop).
holds(s_12800_jpg, vendingmachine).
holds(s_12800_jpg, statue).
holds(s_12800_jpg, pipe).

sample(s_8834_jpg).
holds(s_8834_jpg, building).
holds(s_8834_jpg, feature).
holds(s_8834_jpg, billboard).
holds(s_8834_jpg, sign).
holds(s_8834_jpg, table).
holds(s_8834_jpg, tiledrooftop).
holds(s_8834_jpg, vendingmachine).
holds(s_8834_jpg, statue).
holds(s_8834_jpg, pipe).
holds(s_8834_jpg, machine).

sample(s_15997_jpg).
holds(s_15997_jpg, building).
holds(s_15997_jpg, feature).
holds(s_15997_jpg, watertreatment).
holds(s_15997_jpg, door).
holds(s_15997_jpg, billboard).
holds(s_15997_jpg, porch).
holds(s_15997_jpg, sign).
holds(s_15997_jpg, tiledroof).
holds(s_15997_jpg, tiledrooftop).
holds(s_15997_jpg, wallsign).
holds(s_15997_jpg, industrial).

sample(s_6476_jpg).
holds(s_6476_jpg, building).
holds(s_6476_jpg, feature).
holds(s_6476_jpg, porch).
holds(s_6476_jpg, sign).
holds(s_6476_jpg, table).
holds(s_6476_jpg, tiledrooftop).
holds(s_6476_jpg, vendingmachine).
holds(s_6476_jpg, statue).

sample(s_1617_jpg).
holds(s_1617_jpg, building).
holds(s_1617_jpg, feature).
holds(s_1617_jpg, hotel).
holds(s_1617_jpg, billboard).
holds(s_1617_jpg, sign).
holds(s_1617_jpg, table).
holds(s_1617_jpg, tiledroof).
holds(s_1617_jpg, tiledrooftop).
holds(s_1617_jpg, vendingmachine).
holds(s_1617_jpg, wallsign).
holds(s_1617_jpg, chimney).
holds(s_1617_jpg, pipe).
holds(s_1617_jpg, machine).
holds(s_1617_jpg, car).
holds(s_1617_jpg, commercial).

sample(s_6596_jpg).
holds(s_6596_jpg, building).
holds(s_6596_jpg, feature).
holds(s_6596_jpg, porch).
holds(s_6596_jpg, sign).
holds(s_6596_jpg, table).
holds(s_6596_jpg, tiledrooftop).
holds(s_6596_jpg, vendingmachine).
holds(s_6596_jpg, statue).
holds(s_6596_jpg, pipe).

sample(s_6617_jpg).
holds(s_6617_jpg, building).
holds(s_6617_jpg, feature).
holds(s_6617_jpg, sign).
holds(s_6617_jpg, table).
holds(s_6617_jpg, tiledrooftop).
holds(s_6617_jpg, vendingmachine).
holds(s_6617_jpg, statue).
holds(s_6617_jpg, pipe).
holds(s_6617_jpg, machine).

sample(s_3890_jpg).
holds(s_3890_jpg, building).
holds(s_3890_jpg, feature).
holds(s_3890_jpg, sign).
holds(s_3890_jpg, table).
holds(s_3890_jpg, tiledrooftop).
holds(s_3890_jpg, vendingmachine).
holds(s_3890_jpg, statue).
holds(s_3890_jpg, pipe).

sample(s_6316_jpg).
holds(s_6316_jpg, building).
holds(s_6316_jpg, feature).
holds(s_6316_jpg, watertreatment).
holds(s_6316_jpg, door).
holds(s_6316_jpg, billboard).
holds(s_6316_jpg, porch).
holds(s_6316_jpg, sign).
holds(s_6316_jpg, tiledroof).
holds(s_6316_jpg, wallsign).
holds(s_6316_jpg, industrial).

sample(s_12677_jpg).
holds(s_12677_jpg, building).
holds(s_12677_jpg, feature).
holds(s_12677_jpg, sign).
holds(s_12677_jpg, table).
holds(s_12677_jpg, tiledrooftop).
holds(s_12677_jpg, vendingmachine).
holds(s_12677_jpg, statue).
holds(s_12677_jpg, pipe).
holds(s_12677_jpg, machine).

sample(s_5903_jpg).
holds(s_5903_jpg, building).
holds(s_5903_jpg, feature).
holds(s_5903_jpg, porch).
holds(s_5903_jpg, sign).
holds(s_5903_jpg, table).
holds(s_5903_jpg, tiledrooftop).
holds(s_5903_jpg, vendingmachine).
holds(s_5903_jpg, statue).
holds(s_5903_jpg, pipe).

sample(s_7820_jpg).
holds(s_7820_jpg, building).
holds(s_7820_jpg, feature).
holds(s_7820_jpg, porch).
holds(s_7820_jpg, sign).
holds(s_7820_jpg, table).
holds(s_7820_jpg, tiledrooftop).
holds(s_7820_jpg, vendingmachine).
holds(s_7820_jpg, statue).
holds(s_7820_jpg, pipe).

sample(s_14226_jpg).
holds(s_14226_jpg, building).
holds(s_14226_jpg, feature).
holds(s_14226_jpg, hotel).
holds(s_14226_jpg, door).
holds(s_14226_jpg, billboard).
holds(s_14226_jpg, porch).
holds(s_14226_jpg, sign).
holds(s_14226_jpg, tiledroof).
holds(s_14226_jpg, tiledrooftop).
holds(s_14226_jpg, vendingmachine).
holds(s_14226_jpg, wallsign).
holds(s_14226_jpg, chimney).
holds(s_14226_jpg, pipe).
holds(s_14226_jpg, car).
holds(s_14226_jpg, commercial).

sample(s_20_jpg).
holds(s_20_jpg, building).
holds(s_20_jpg, feature).
holds(s_20_jpg, sign).
holds(s_20_jpg, table).
holds(s_20_jpg, tiledrooftop).
holds(s_20_jpg, vendingmachine).
holds(s_20_jpg, statue).
holds(s_20_jpg, pipe).
holds(s_20_jpg, machine).

sample(s_6322_jpg).
holds(s_6322_jpg, building).
holds(s_6322_jpg, feature).
holds(s_6322_jpg, watertreatment).
holds(s_6322_jpg, door).
holds(s_6322_jpg, billboard).
holds(s_6322_jpg, porch).
holds(s_6322_jpg, sign).
holds(s_6322_jpg, tiledroof).
holds(s_6322_jpg, tiledrooftop).
holds(s_6322_jpg, wallsign).
holds(s_6322_jpg, pipe).
holds(s_6322_jpg, industrial).

sample(s_7246_jpg).
holds(s_7246_jpg, building).
holds(s_7246_jpg, feature).
holds(s_7246_jpg, watertreatment).
holds(s_7246_jpg, door).
holds(s_7246_jpg, billboard).
holds(s_7246_jpg, porch).
holds(s_7246_jpg, sign).
holds(s_7246_jpg, tiledroof).
holds(s_7246_jpg, tiledrooftop).
holds(s_7246_jpg, wallsign).
holds(s_7246_jpg, pipe).
holds(s_7246_jpg, industrial).

sample(s_10580_jpg).
holds(s_10580_jpg, building).
holds(s_10580_jpg, feature).
holds(s_10580_jpg, sign).
holds(s_10580_jpg, table).
holds(s_10580_jpg, tiledrooftop).
holds(s_10580_jpg, vendingmachine).
holds(s_10580_jpg, statue).
holds(s_10580_jpg, pipe).

sample(s_4984_jpg).
holds(s_4984_jpg, building).
holds(s_4984_jpg, feature).
holds(s_4984_jpg, watertreatment).
holds(s_4984_jpg, door).
holds(s_4984_jpg, billboard).
holds(s_4984_jpg, porch).
holds(s_4984_jpg, sign).
holds(s_4984_jpg, tiledroof).
holds(s_4984_jpg, wallsign).
holds(s_4984_jpg, chimney).
holds(s_4984_jpg, pipe).
holds(s_4984_jpg, industrial).

sample(s_14894_jpg).
holds(s_14894_jpg, building).
holds(s_14894_jpg, feature).
holds(s_14894_jpg, sign).
holds(s_14894_jpg, table).
holds(s_14894_jpg, tiledrooftop).
holds(s_14894_jpg, vendingmachine).
holds(s_14894_jpg, statue).
holds(s_14894_jpg, pipe).

sample(s_11761_jpg).
holds(s_11761_jpg, building).
holds(s_11761_jpg, feature).
holds(s_11761_jpg, watertreatment).
holds(s_11761_jpg, door).
holds(s_11761_jpg, billboard).
holds(s_11761_jpg, porch).
holds(s_11761_jpg, sign).
holds(s_11761_jpg, tiledroof).
holds(s_11761_jpg, wallsign).
holds(s_11761_jpg, industrial).

sample(s_1019_jpg).
holds(s_1019_jpg, building).
holds(s_1019_jpg, feature).
holds(s_1019_jpg, sign).
holds(s_1019_jpg, table).
holds(s_1019_jpg, tiledrooftop).
holds(s_1019_jpg, vendingmachine).
holds(s_1019_jpg, statue).
holds(s_1019_jpg, pipe).
holds(s_1019_jpg, machine).

sample(s_3799_jpg).
holds(s_3799_jpg, building).
holds(s_3799_jpg, feature).
holds(s_3799_jpg, watertreatment).
holds(s_3799_jpg, door).
holds(s_3799_jpg, billboard).
holds(s_3799_jpg, porch).
holds(s_3799_jpg, sign).
holds(s_3799_jpg, tiledroof).
holds(s_3799_jpg, wallsign).
holds(s_3799_jpg, industrial).

sample(s_15229_jpg).
holds(s_15229_jpg, building).
holds(s_15229_jpg, feature).
holds(s_15229_jpg, watertreatment).
holds(s_15229_jpg, door).
holds(s_15229_jpg, billboard).
holds(s_15229_jpg, porch).
holds(s_15229_jpg, sign).
holds(s_15229_jpg, tiledroof).
holds(s_15229_jpg, wallsign).
holds(s_15229_jpg, chimney).
holds(s_15229_jpg, pipe).
holds(s_15229_jpg, industrial).

sample(s_2734_jpg).
holds(s_2734_jpg, building).
holds(s_2734_jpg, feature).
holds(s_2734_jpg, watertreatment).
holds(s_2734_jpg, door).
holds(s_2734_jpg, billboard).
holds(s_2734_jpg, porch).
holds(s_2734_jpg, sign).
holds(s_2734_jpg, tiledroof).
holds(s_2734_jpg, tiledrooftop).
holds(s_2734_jpg, wallsign).
holds(s_2734_jpg, pipe).
holds(s_2734_jpg, industrial).

sample(s_5766_jpg).
holds(s_5766_jpg, building).
holds(s_5766_jpg, feature).
holds(s_5766_jpg, hotel).
holds(s_5766_jpg, door).
holds(s_5766_jpg, billboard).
holds(s_5766_jpg, sign).
holds(s_5766_jpg, tiledroof).
holds(s_5766_jpg, tiledrooftop).
holds(s_5766_jpg, wallsign).
holds(s_5766_jpg, chimney).
holds(s_5766_jpg, pipe).
holds(s_5766_jpg, car).
holds(s_5766_jpg, commercial).

sample(s_13364_jpg).
holds(s_13364_jpg, building).
holds(s_13364_jpg, feature).
holds(s_13364_jpg, sign).
holds(s_13364_jpg, table).
holds(s_13364_jpg, tiledrooftop).
holds(s_13364_jpg, vendingmachine).
holds(s_13364_jpg, statue).
holds(s_13364_jpg, pipe).
holds(s_13364_jpg, machine).

sample(s_12652_jpg).
holds(s_12652_jpg, building).
holds(s_12652_jpg, feature).
holds(s_12652_jpg, watertreatment).
holds(s_12652_jpg, door).
holds(s_12652_jpg, billboard).
holds(s_12652_jpg, porch).
holds(s_12652_jpg, sign).
holds(s_12652_jpg, tiledroof).
holds(s_12652_jpg, tiledrooftop).
holds(s_12652_jpg, wallsign).
holds(s_12652_jpg, chimney).
holds(s_12652_jpg, pipe).
holds(s_12652_jpg, industrial).

sample(s_10644_jpg).
holds(s_10644_jpg, building).
holds(s_10644_jpg, feature).
holds(s_10644_jpg, hotel).
holds(s_10644_jpg, billboard).
holds(s_10644_jpg, sign).
holds(s_10644_jpg, tiledroof).
holds(s_10644_jpg, tiledrooftop).
holds(s_10644_jpg, chimney).
holds(s_10644_jpg, pipe).
holds(s_10644_jpg, car).
holds(s_10644_jpg, commercial).

sample(s_11727_jpg).
holds(s_11727_jpg, building).
holds(s_11727_jpg, feature).
holds(s_11727_jpg, hotel).
holds(s_11727_jpg, door).
holds(s_11727_jpg, billboard).
holds(s_11727_jpg, sign).
holds(s_11727_jpg, tiledroof).
holds(s_11727_jpg, tiledrooftop).
holds(s_11727_jpg, wallsign).
holds(s_11727_jpg, chimney).
holds(s_11727_jpg, pipe).
holds(s_11727_jpg, car).
holds(s_11727_jpg, commercial).

sample(s_13983_jpg).
holds(s_13983_jpg, building).
holds(s_13983_jpg, feature).
holds(s_13983_jpg, hotel).
holds(s_13983_jpg, door).
holds(s_13983_jpg, billboard).
holds(s_13983_jpg, porch).
holds(s_13983_jpg, sign).
holds(s_13983_jpg, tiledroof).
holds(s_13983_jpg, tiledrooftop).
holds(s_13983_jpg, wallsign).
holds(s_13983_jpg, chimney).
holds(s_13983_jpg, pipe).
holds(s_13983_jpg, car).
holds(s_13983_jpg, commercial).

sample(s_5495_jpg).
holds(s_5495_jpg, building).
holds(s_5495_jpg, feature).
holds(s_5495_jpg, sign).
holds(s_5495_jpg, table).
holds(s_5495_jpg, tiledrooftop).
holds(s_5495_jpg, vendingmachine).
holds(s_5495_jpg, statue).
holds(s_5495_jpg, pipe).

sample(s_608_jpg).
holds(s_608_jpg, building).
holds(s_608_jpg, feature).
holds(s_608_jpg, sign).
holds(s_608_jpg, table).
holds(s_608_jpg, tiledrooftop).
holds(s_608_jpg, vendingmachine).
holds(s_608_jpg, statue).
holds(s_608_jpg, pipe).

sample(s_11858_jpg).
holds(s_11858_jpg, building).
holds(s_11858_jpg, feature).
holds(s_11858_jpg, porch).
holds(s_11858_jpg, sign).
holds(s_11858_jpg, table).
holds(s_11858_jpg, tiledrooftop).
holds(s_11858_jpg, vendingmachine).
holds(s_11858_jpg, statue).
holds(s_11858_jpg, pipe).

sample(s_3332_jpg).
holds(s_3332_jpg, building).
holds(s_3332_jpg, feature).
holds(s_3332_jpg, billboard).
holds(s_3332_jpg, sign).
holds(s_3332_jpg, table).
holds(s_3332_jpg, tiledrooftop).
holds(s_3332_jpg, vendingmachine).
holds(s_3332_jpg, statue).
holds(s_3332_jpg, pipe).
holds(s_3332_jpg, machine).

sample(s_10446_jpg).
holds(s_10446_jpg, building).
holds(s_10446_jpg, feature).
holds(s_10446_jpg, hotel).
holds(s_10446_jpg, door).
holds(s_10446_jpg, billboard).
holds(s_10446_jpg, porch).
holds(s_10446_jpg, sign).
holds(s_10446_jpg, tiledroof).
holds(s_10446_jpg, tiledrooftop).
holds(s_10446_jpg, wallsign).
holds(s_10446_jpg, chimney).
holds(s_10446_jpg, pipe).
holds(s_10446_jpg, car).
holds(s_10446_jpg, commercial).

sample(s_1256_jpg).
holds(s_1256_jpg, building).
holds(s_1256_jpg, feature).
holds(s_1256_jpg, sign).
holds(s_1256_jpg, table).
holds(s_1256_jpg, tiledrooftop).
holds(s_1256_jpg, vendingmachine).
holds(s_1256_jpg, statue).
holds(s_1256_jpg, pipe).

sample(s_5741_jpg).
holds(s_5741_jpg, building).
holds(s_5741_jpg, feature).
holds(s_5741_jpg, porch).
holds(s_5741_jpg, sign).
holds(s_5741_jpg, table).
holds(s_5741_jpg, tiledrooftop).
holds(s_5741_jpg, vendingmachine).
holds(s_5741_jpg, statue).

sample(s_4611_jpg).
holds(s_4611_jpg, building).
holds(s_4611_jpg, feature).
holds(s_4611_jpg, hotel).
holds(s_4611_jpg, door).
holds(s_4611_jpg, billboard).
holds(s_4611_jpg, porch).
holds(s_4611_jpg, sign).
holds(s_4611_jpg, table).
holds(s_4611_jpg, tiledroof).
holds(s_4611_jpg, tiledrooftop).
holds(s_4611_jpg, vendingmachine).
holds(s_4611_jpg, wallsign).
holds(s_4611_jpg, chimney).
holds(s_4611_jpg, pipe).
holds(s_4611_jpg, machine).
holds(s_4611_jpg, car).
holds(s_4611_jpg, commercial).

sample(s_11305_jpg).
holds(s_11305_jpg, building).
holds(s_11305_jpg, feature).
holds(s_11305_jpg, watertreatment).
holds(s_11305_jpg, door).
holds(s_11305_jpg, billboard).
holds(s_11305_jpg, porch).
holds(s_11305_jpg, sign).
holds(s_11305_jpg, tiledroof).
holds(s_11305_jpg, tiledrooftop).
holds(s_11305_jpg, wallsign).
holds(s_11305_jpg, chimney).
holds(s_11305_jpg, pipe).
holds(s_11305_jpg, industrial).

