sample(0).

sample(1).

sample(2).
holds(2, hotel).
holds(2, awning).
holds(2, wallsign).

sample(3).
holds(3, miscindustrial).
holds(3, truck).

sample(4).

sample(5).

sample(6).
holds(6, miscindustrial).
holds(6, truck).

sample(7).

sample(8).
holds(8, hotel).
holds(8, awning).
holds(8, wallsign).

sample(9).
holds(9, miscindustrial).
holds(9, truck).

sample(10).

sample(11).
holds(11, hotel).
holds(11, awning).
holds(11, wallsign).

sample(12).
holds(12, miscindustrial).
holds(12, truck).

sample(13).

sample(14).

sample(15).
holds(15, miscindustrial).
holds(15, truck).

sample(16).

sample(17).
holds(17, hotel).
holds(17, awning).
holds(17, wallsign).

sample(18).

sample(19).

sample(20).
holds(20, hotel).
holds(20, awning).
holds(20, wallsign).

sample(21).

sample(22).

sample(23).

sample(24).
holds(24, miscindustrial).
holds(24, truck).

sample(25).

sample(26).
holds(26, hotel).
holds(26, awning).
holds(26, wallsign).

sample(27).
holds(27, miscindustrial).
holds(27, truck).

sample(28).

sample(29).
holds(29, hotel).
holds(29, awning).
holds(29, wallsign).

sample(30).

sample(31).

sample(32).
holds(32, hotel).
holds(32, awning).
holds(32, wallsign).

sample(33).
holds(33, miscindustrial).
holds(33, truck).

sample(34).

sample(35).

sample(36).
holds(36, miscindustrial).
holds(36, truck).

sample(37).

sample(38).

sample(39).

sample(40).

sample(41).
holds(41, hotel).
holds(41, awning).
holds(41, wallsign).

sample(42).

sample(43).

sample(44).
holds(44, hotel).
holds(44, awning).
holds(44, wallsign).

sample(45).
holds(45, miscindustrial).
holds(45, truck).

sample(46).

sample(47).
holds(47, hotel).
holds(47, awning).
holds(47, wallsign).

sample(48).

sample(49).

sample(50).
holds(50, hotel).
holds(50, awning).
holds(50, wallsign).

sample(51).

sample(52).

sample(53).
holds(53, hotel).
holds(53, awning).
holds(53, wallsign).

sample(54).

sample(55).

sample(56).

sample(57).

sample(58).

sample(59).

sample(60).
holds(60, miscindustrial).
holds(60, truck).

sample(61).

sample(62).
holds(62, hotel).
holds(62, awning).
holds(62, wallsign).

sample(63).

sample(64).

sample(65).
holds(65, hotel).
holds(65, awning).
holds(65, wallsign).

sample(66).

sample(67).

sample(68).
holds(68, hotel).
holds(68, awning).
holds(68, wallsign).

sample(69).
holds(69, miscindustrial).
holds(69, truck).

sample(70).

sample(71).

sample(72).

sample(73).

sample(74).

sample(75).

sample(76).

sample(77).

sample(78).

sample(79).

sample(80).
holds(80, hotel).
holds(80, awning).
holds(80, wallsign).

sample(81).
holds(81, miscindustrial).
holds(81, truck).

sample(82).

sample(83).
holds(83, hotel).
holds(83, awning).
holds(83, wallsign).

sample(84).
holds(84, miscindustrial).
holds(84, truck).

sample(85).

sample(86).
holds(86, hotel).
holds(86, awning).
holds(86, wallsign).

sample(87).
holds(87, miscindustrial).
holds(87, truck).

sample(88).

sample(89).

sample(90).

sample(91).

sample(92).
holds(92, hotel).
holds(92, awning).
holds(92, wallsign).

sample(93).

sample(94).

sample(95).
holds(95, hotel).
holds(95, awning).
holds(95, wallsign).

sample(96).

sample(97).

sample(98).
holds(98, hotel).
holds(98, awning).
holds(98, wallsign).

sample(99).
holds(99, miscindustrial).
holds(99, truck).

sample(100).

sample(101).
holds(101, hotel).
holds(101, awning).
holds(101, wallsign).

sample(102).

sample(103).

sample(104).
holds(104, hotel).
holds(104, awning).
holds(104, wallsign).

sample(105).

sample(106).

sample(107).

sample(108).

sample(109).

sample(110).

sample(111).

sample(112).

sample(113).
holds(113, hotel).
holds(113, awning).
holds(113, wallsign).

sample(114).

sample(115).

sample(116).
holds(116, hotel).
holds(116, awning).
holds(116, wallsign).

sample(117).
holds(117, miscindustrial).
holds(117, truck).

sample(118).

sample(119).
holds(119, hotel).
holds(119, awning).
holds(119, wallsign).

sample(120).
holds(120, miscindustrial).
holds(120, truck).

sample(121).

sample(122).
holds(122, hotel).
holds(122, awning).
holds(122, wallsign).

sample(123).

sample(124).

sample(125).
holds(125, hotel).
holds(125, awning).
holds(125, wallsign).

sample(126).
holds(126, miscindustrial).
holds(126, truck).

sample(127).

sample(128).

sample(129).
holds(129, miscindustrial).
holds(129, truck).

sample(130).

sample(131).
holds(131, hotel).
holds(131, awning).
holds(131, wallsign).

sample(132).

sample(133).

sample(134).
holds(134, hotel).
holds(134, awning).
holds(134, wallsign).

sample(135).

sample(136).

sample(137).
holds(137, hotel).
holds(137, awning).
holds(137, wallsign).

sample(138).
holds(138, miscindustrial).
holds(138, truck).

sample(139).

sample(140).
holds(140, hotel).
holds(140, awning).
holds(140, wallsign).

sample(141).

sample(142).

sample(143).
holds(143, hotel).
holds(143, awning).
holds(143, wallsign).

sample(144).
holds(144, miscindustrial).
holds(144, truck).

sample(145).

sample(146).
holds(146, hotel).
holds(146, awning).
holds(146, wallsign).

sample(147).

sample(148).

sample(149).
holds(149, hotel).
holds(149, awning).
holds(149, wallsign).

sample(150).
holds(150, miscindustrial).
holds(150, truck).

sample(151).

sample(152).

sample(153).
holds(153, miscindustrial).
holds(153, truck).

sample(154).

sample(155).

sample(156).

sample(157).

sample(158).

sample(159).

sample(160).

sample(161).
holds(161, hotel).
holds(161, awning).
holds(161, wallsign).

sample(162).
holds(162, miscindustrial).
holds(162, truck).

sample(163).

sample(164).
holds(164, hotel).
holds(164, awning).
holds(164, wallsign).

sample(165).

sample(166).

sample(167).
holds(167, hotel).
holds(167, awning).
holds(167, wallsign).

sample(168).
holds(168, miscindustrial).
holds(168, truck).

sample(169).

sample(170).

sample(171).

sample(172).

sample(173).
holds(173, hotel).
holds(173, awning).
holds(173, wallsign).

sample(174).

sample(175).

sample(176).

sample(177).
holds(177, miscindustrial).
holds(177, truck).

sample(178).

sample(179).
holds(179, hotel).
holds(179, awning).
holds(179, wallsign).

sample(180).
holds(180, miscindustrial).
holds(180, truck).

sample(181).

sample(182).
holds(182, hotel).
holds(182, awning).
holds(182, wallsign).

sample(183).

sample(184).

sample(185).

sample(186).

sample(187).

sample(188).
holds(188, hotel).
holds(188, awning).
holds(188, wallsign).

sample(189).
holds(189, miscindustrial).
holds(189, truck).

sample(190).

sample(191).
holds(191, hotel).
holds(191, awning).
holds(191, wallsign).

sample(192).

sample(193).

sample(194).
holds(194, hotel).
holds(194, awning).
holds(194, wallsign).

sample(195).

sample(196).

sample(197).
holds(197, hotel).
holds(197, awning).
holds(197, wallsign).

sample(198).
holds(198, miscindustrial).
holds(198, truck).

sample(199).

sample(200).

sample(201).
holds(201, miscindustrial).
holds(201, truck).

sample(202).

sample(203).
holds(203, hotel).
holds(203, awning).
holds(203, wallsign).

sample(204).

sample(205).

sample(206).

sample(207).

sample(208).

sample(209).
holds(209, hotel).
holds(209, awning).
holds(209, wallsign).

sample(210).

sample(211).

sample(212).
holds(212, hotel).
holds(212, awning).
holds(212, wallsign).

sample(213).

sample(214).

sample(215).

sample(216).
holds(216, miscindustrial).
holds(216, truck).

sample(217).

sample(218).
holds(218, hotel).
holds(218, awning).
holds(218, wallsign).

sample(219).
holds(219, miscindustrial).
holds(219, truck).

sample(220).

sample(221).
holds(221, hotel).
holds(221, awning).
holds(221, wallsign).

sample(222).

sample(223).

sample(224).
holds(224, hotel).
holds(224, awning).
holds(224, wallsign).

sample(225).

sample(226).

sample(227).

sample(228).

sample(229).

sample(230).

sample(231).
holds(231, miscindustrial).
holds(231, truck).

sample(232).

sample(233).

sample(234).
holds(234, miscindustrial).
holds(234, truck).

sample(235).

sample(236).
holds(236, hotel).
holds(236, awning).
holds(236, wallsign).

sample(237).
holds(237, miscindustrial).
holds(237, truck).

sample(238).

sample(239).
holds(239, hotel).
holds(239, awning).
holds(239, wallsign).

sample(240).

sample(241).

sample(242).
holds(242, hotel).
holds(242, awning).
holds(242, wallsign).

sample(243).

sample(244).

sample(245).

sample(246).
holds(246, miscindustrial).
holds(246, truck).

sample(247).

sample(248).
holds(248, hotel).
holds(248, awning).
holds(248, wallsign).

sample(249).

sample(250).

sample(251).

sample(252).
holds(252, miscindustrial).
holds(252, truck).

sample(253).

sample(254).

sample(255).
holds(255, miscindustrial).
holds(255, truck).

sample(256).

sample(257).
holds(257, hotel).
holds(257, awning).
holds(257, wallsign).

sample(258).

sample(259).

sample(260).

sample(261).
holds(261, miscindustrial).
holds(261, truck).

sample(262).

sample(263).

sample(264).

sample(265).

sample(266).

sample(267).
holds(267, miscindustrial).
holds(267, truck).

sample(268).

sample(269).

sample(270).
holds(270, miscindustrial).
holds(270, truck).

sample(271).

sample(272).
holds(272, hotel).
holds(272, wallsign).

sample(273).

sample(274).

sample(275).

sample(276).

sample(277).

sample(278).
holds(278, hotel).
holds(278, awning).
holds(278, wallsign).

sample(279).
holds(279, miscindustrial).
holds(279, truck).

sample(280).

sample(281).

sample(282).

sample(283).

sample(284).

sample(285).

sample(286).

sample(287).
holds(287, hotel).
holds(287, awning).
holds(287, wallsign).

sample(288).

sample(289).

sample(290).

sample(291).
holds(291, miscindustrial).
holds(291, truck).

sample(292).

sample(293).
holds(293, hotel).
holds(293, awning).
holds(293, wallsign).

sample(294).
holds(294, miscindustrial).
holds(294, truck).

sample(295).

sample(296).
holds(296, hotel).
holds(296, awning).
holds(296, wallsign).

sample(297).
holds(297, miscindustrial).
holds(297, truck).

sample(298).

sample(299).
holds(299, hotel).
holds(299, awning).
holds(299, wallsign).

sample(300).
holds(300, miscindustrial).
holds(300, truck).

sample(301).

sample(302).

sample(303).
holds(303, miscindustrial).
holds(303, truck).

sample(304).

sample(305).
holds(305, hotel).
holds(305, wallsign).

sample(306).

sample(307).

sample(308).
holds(308, hotel).
holds(308, awning).
holds(308, wallsign).

sample(309).
holds(309, miscindustrial).
holds(309, truck).

sample(310).

sample(311).

sample(312).

sample(313).

sample(314).
holds(314, hotel).
holds(314, awning).
holds(314, wallsign).

sample(315).
holds(315, miscindustrial).
holds(315, truck).

sample(316).

sample(317).
holds(317, hotel).
holds(317, awning).
holds(317, wallsign).

sample(318).
holds(318, miscindustrial).
holds(318, truck).

sample(319).

sample(320).
holds(320, hotel).
holds(320, awning).
holds(320, wallsign).

sample(321).
holds(321, miscindustrial).
holds(321, truck).

sample(322).

sample(323).
holds(323, hotel).
holds(323, awning).
holds(323, wallsign).

sample(324).
holds(324, miscindustrial).
holds(324, truck).

sample(325).

sample(326).

sample(327).

sample(328).

sample(329).

sample(330).
holds(330, miscindustrial).
holds(330, truck).

sample(331).

sample(332).
holds(332, hotel).
holds(332, awning).
holds(332, wallsign).

sample(333).

sample(334).

sample(335).

sample(336).

sample(337).

sample(338).

sample(339).
holds(339, miscindustrial).
holds(339, truck).

sample(340).

sample(341).

sample(342).

sample(343).

sample(344).

sample(345).
holds(345, miscindustrial).
holds(345, truck).

sample(346).

sample(347).
holds(347, hotel).
holds(347, awning).
holds(347, wallsign).

sample(348).
holds(348, miscindustrial).
holds(348, truck).

sample(349).

sample(350).
holds(350, hotel).
holds(350, awning).
holds(350, wallsign).

sample(351).

sample(352).

sample(353).

sample(354).

sample(355).

sample(356).
holds(356, hotel).
holds(356, awning).
holds(356, wallsign).

sample(357).

sample(358).

sample(359).

sample(360).

sample(361).

sample(362).
holds(362, hotel).
holds(362, awning).
holds(362, wallsign).

sample(363).

sample(364).

sample(365).

sample(366).

sample(367).

sample(368).
holds(368, hotel).
holds(368, awning).
holds(368, wallsign).

sample(369).

sample(370).

sample(371).
holds(371, hotel).
holds(371, awning).
holds(371, wallsign).

sample(372).

sample(373).

sample(374).

sample(375).

sample(376).

sample(377).

sample(378).
holds(378, miscindustrial).
holds(378, truck).

sample(379).

sample(380).

sample(381).

sample(382).

sample(383).

sample(384).

sample(385).

sample(386).

sample(387).

sample(388).

sample(389).
holds(389, hotel).
holds(389, awning).
holds(389, wallsign).

sample(390).

sample(391).

sample(392).
holds(392, hotel).
holds(392, awning).
holds(392, wallsign).

sample(393).

sample(394).

sample(395).
holds(395, hotel).
holds(395, awning).
holds(395, wallsign).

sample(396).

sample(397).

sample(398).

sample(399).

sample(400).

sample(401).
holds(401, hotel).
holds(401, awning).
holds(401, wallsign).

sample(402).

sample(403).

sample(404).

sample(405).

sample(406).

sample(407).
holds(407, hotel).
holds(407, awning).
holds(407, wallsign).

sample(408).

sample(409).

sample(410).
holds(410, hotel).
holds(410, awning).
holds(410, wallsign).

sample(411).

sample(412).

sample(413).
holds(413, hotel).
holds(413, awning).
holds(413, wallsign).

sample(414).

sample(415).

sample(416).
holds(416, hotel).
holds(416, awning).
holds(416, wallsign).

sample(417).
holds(417, miscindustrial).
holds(417, truck).

sample(418).

sample(419).
holds(419, hotel).
holds(419, awning).
holds(419, wallsign).

sample(420).
holds(420, miscindustrial).
holds(420, truck).

sample(421).

sample(422).
holds(422, hotel).
holds(422, awning).
holds(422, wallsign).

sample(423).

sample(424).

sample(425).
holds(425, hotel).
holds(425, awning).
holds(425, wallsign).

sample(426).
holds(426, miscindustrial).
holds(426, truck).

sample(427).

sample(428).
holds(428, hotel).
holds(428, awning).
holds(428, wallsign).

sample(429).
holds(429, miscindustrial).
holds(429, truck).

sample(430).

sample(431).
holds(431, hotel).
holds(431, awning).
holds(431, wallsign).

sample(432).

sample(433).

sample(434).
holds(434, hotel).
holds(434, awning).
holds(434, wallsign).

sample(435).

sample(436).

sample(437).
holds(437, hotel).
holds(437, awning).
holds(437, wallsign).

sample(438).
holds(438, miscindustrial).
holds(438, truck).

sample(439).

sample(440).

sample(441).
holds(441, miscindustrial).
holds(441, truck).

sample(442).

sample(443).

sample(444).

sample(445).

sample(446).

sample(447).
holds(447, miscindustrial).
holds(447, truck).

sample(448).

sample(449).
holds(449, hotel).
holds(449, awning).
holds(449, wallsign).

sample(450).
holds(450, miscindustrial).
holds(450, truck).

sample(451).

sample(452).
holds(452, hotel).
holds(452, awning).
holds(452, wallsign).

sample(453).

sample(454).

sample(455).
holds(455, hotel).
holds(455, awning).
holds(455, wallsign).

sample(456).
holds(456, miscindustrial).
holds(456, truck).

sample(457).

sample(458).
holds(458, hotel).
holds(458, awning).
holds(458, wallsign).

sample(459).

sample(460).

sample(461).

sample(462).
holds(462, miscindustrial).
holds(462, truck).

sample(463).

sample(464).

sample(465).
holds(465, miscindustrial).
holds(465, truck).

sample(466).

sample(467).

sample(468).
holds(468, miscindustrial).
holds(468, truck).

sample(469).

sample(470).
holds(470, hotel).
holds(470, awning).
holds(470, wallsign).

sample(471).

sample(472).

sample(473).

sample(474).
holds(474, miscindustrial).
holds(474, truck).

sample(475).

sample(476).
holds(476, hotel).
holds(476, awning).
holds(476, wallsign).

sample(477).

sample(478).

sample(479).
holds(479, hotel).
holds(479, awning).
holds(479, wallsign).

sample(480).

sample(481).

sample(482).
holds(482, hotel).
holds(482, awning).
holds(482, wallsign).

sample(483).
holds(483, miscindustrial).
holds(483, truck).

sample(484).

sample(485).
holds(485, hotel).
holds(485, awning).
holds(485, wallsign).

sample(486).
holds(486, miscindustrial).
holds(486, truck).

sample(487).

sample(488).

sample(489).

sample(490).

sample(491).

sample(492).

sample(493).

sample(494).

sample(495).

sample(496).

sample(497).

sample(498).

sample(499).

sample(500).

sample(501).

sample(502).

sample(503).

sample(504).

sample(505).

sample(506).
holds(506, hotel).
holds(506, awning).
holds(506, wallsign).

sample(507).

sample(508).

sample(509).
holds(509, hotel).
holds(509, awning).
holds(509, wallsign).

sample(510).
holds(510, miscindustrial).
holds(510, truck).

sample(511).

sample(512).

sample(513).

sample(514).

sample(515).

sample(516).

sample(517).

sample(518).
holds(518, hotel).
holds(518, awning).
holds(518, wallsign).

sample(519).

sample(520).

sample(521).

sample(522).
holds(522, miscindustrial).
holds(522, truck).

sample(523).

sample(524).

sample(525).
holds(525, miscindustrial).
holds(525, truck).

sample(526).

sample(527).

sample(528).
holds(528, miscindustrial).
holds(528, truck).

sample(529).

sample(530).

sample(531).
holds(531, miscindustrial).
holds(531, truck).

sample(532).

sample(533).
holds(533, hotel).
holds(533, awning).
holds(533, wallsign).

sample(534).

sample(535).

sample(536).
holds(536, hotel).
holds(536, awning).
holds(536, wallsign).

sample(537).
holds(537, miscindustrial).
holds(537, truck).

sample(538).

sample(539).

sample(540).

sample(541).

sample(542).
holds(542, hotel).
holds(542, awning).
holds(542, wallsign).

sample(543).
holds(543, miscindustrial).
holds(543, truck).

sample(544).

sample(545).

sample(546).
holds(546, miscindustrial).
holds(546, truck).

sample(547).

sample(548).

sample(549).

sample(550).

sample(551).

sample(552).
holds(552, miscindustrial).
holds(552, truck).

sample(553).

sample(554).
holds(554, hotel).
holds(554, awning).
holds(554, wallsign).

sample(555).

sample(556).

sample(557).

sample(558).

sample(559).

sample(560).
holds(560, hotel).
holds(560, awning).
holds(560, wallsign).

sample(561).

sample(562).

sample(563).

sample(564).

sample(565).

sample(566).
holds(566, hotel).
holds(566, awning).
holds(566, wallsign).

sample(567).

sample(568).

sample(569).

sample(570).
holds(570, miscindustrial).
holds(570, truck).

sample(571).

sample(572).
holds(572, hotel).
holds(572, awning).
holds(572, wallsign).

sample(573).

sample(574).

sample(575).
holds(575, hotel).
holds(575, awning).
holds(575, wallsign).

sample(576).
holds(576, miscindustrial).
holds(576, truck).

sample(577).

sample(578).
holds(578, hotel).
holds(578, awning).
holds(578, wallsign).

sample(579).

sample(580).

sample(581).

sample(582).
holds(582, miscindustrial).
holds(582, truck).

sample(583).

sample(584).
holds(584, hotel).
holds(584, awning).
holds(584, wallsign).

sample(585).
holds(585, miscindustrial).
holds(585, truck).

sample(586).

sample(587).
holds(587, hotel).
holds(587, awning).
holds(587, wallsign).

sample(588).
holds(588, miscindustrial).
holds(588, truck).

sample(589).

sample(590).

sample(591).
holds(591, miscindustrial).
holds(591, truck).

sample(592).

sample(593).
holds(593, hotel).
holds(593, awning).
holds(593, wallsign).

sample(594).
holds(594, miscindustrial).
holds(594, truck).

sample(595).

sample(596).
holds(596, hotel).
holds(596, awning).
holds(596, wallsign).

sample(597).
holds(597, miscindustrial).
holds(597, truck).

sample(598).

sample(599).
holds(599, hotel).
holds(599, awning).
holds(599, wallsign).

sample(600).
holds(600, miscindustrial).
holds(600, truck).

sample(601).

sample(602).
holds(602, hotel).
holds(602, awning).
holds(602, wallsign).

sample(603).
holds(603, miscindustrial).
holds(603, truck).

sample(604).

sample(605).
holds(605, hotel).
holds(605, awning).
holds(605, wallsign).

sample(606).

sample(607).

sample(608).

sample(609).

sample(610).

sample(611).

sample(612).

sample(613).

sample(614).
holds(614, hotel).
holds(614, awning).
holds(614, wallsign).

sample(615).
holds(615, miscindustrial).
holds(615, truck).

sample(616).

sample(617).
holds(617, hotel).
holds(617, awning).
holds(617, wallsign).

sample(618).

sample(619).

sample(620).

sample(621).
holds(621, miscindustrial).
holds(621, truck).

sample(622).

sample(623).

sample(624).

sample(625).

sample(626).

sample(627).

sample(628).

sample(629).
holds(629, hotel).
holds(629, awning).
holds(629, wallsign).

sample(630).

sample(631).

sample(632).
holds(632, hotel).
holds(632, awning).
holds(632, wallsign).

sample(633).

sample(634).

sample(635).
holds(635, hotel).
holds(635, awning).
holds(635, wallsign).

sample(636).
holds(636, miscindustrial).
holds(636, truck).

sample(637).

sample(638).

sample(639).

sample(640).

sample(641).
holds(641, hotel).
holds(641, awning).
holds(641, wallsign).

sample(642).

sample(643).

sample(644).
holds(644, hotel).
holds(644, awning).
holds(644, wallsign).

sample(645).
holds(645, miscindustrial).
holds(645, truck).

sample(646).

sample(647).
holds(647, hotel).
holds(647, awning).
holds(647, wallsign).

sample(648).
holds(648, miscindustrial).
holds(648, truck).

sample(649).

sample(650).

sample(651).
holds(651, miscindustrial).
holds(651, truck).

sample(652).

sample(653).

sample(654).

sample(655).

sample(656).
holds(656, hotel).
holds(656, awning).
holds(656, wallsign).

sample(657).

sample(658).

sample(659).

sample(660).
holds(660, miscindustrial).
holds(660, truck).

sample(661).

sample(662).
holds(662, hotel).
holds(662, awning).
holds(662, wallsign).

sample(663).

sample(664).

sample(665).

sample(666).
holds(666, miscindustrial).
holds(666, truck).

sample(667).

sample(668).

sample(669).

sample(670).

sample(671).

sample(672).
holds(672, miscindustrial).
holds(672, truck).

sample(673).

sample(674).
holds(674, hotel).
holds(674, awning).
holds(674, wallsign).

sample(675).
holds(675, miscindustrial).
holds(675, truck).

sample(676).

sample(677).

sample(678).
holds(678, miscindustrial).
holds(678, truck).

sample(679).

sample(680).

sample(681).

sample(682).

sample(683).

sample(684).
holds(684, miscindustrial).
holds(684, truck).

sample(685).

sample(686).

sample(687).

sample(688).

sample(689).

sample(690).
holds(690, miscindustrial).
holds(690, truck).

sample(691).

sample(692).

sample(693).

sample(694).

sample(695).
holds(695, hotel).
holds(695, awning).
holds(695, wallsign).

sample(696).

sample(697).

sample(698).

sample(699).

sample(700).

sample(701).

sample(702).
holds(702, miscindustrial).
holds(702, truck).

sample(703).

sample(704).

sample(705).

sample(706).

sample(707).
holds(707, hotel).
holds(707, awning).
holds(707, wallsign).

sample(708).
holds(708, miscindustrial).
holds(708, truck).

sample(709).

sample(710).

sample(711).

sample(712).

sample(713).

sample(714).
holds(714, miscindustrial).
holds(714, truck).

sample(715).

sample(716).
holds(716, hotel).
holds(716, awning).
holds(716, wallsign).

sample(717).
holds(717, miscindustrial).
holds(717, truck).

sample(718).

sample(719).

sample(720).

sample(721).

sample(722).

sample(723).
holds(723, miscindustrial).
holds(723, truck).

sample(724).

sample(725).
holds(725, hotel).
holds(725, awning).
holds(725, wallsign).

sample(726).

sample(727).

sample(728).
holds(728, hotel).
holds(728, awning).
holds(728, wallsign).

sample(729).
holds(729, miscindustrial).
holds(729, truck).

sample(730).

sample(731).
holds(731, hotel).
holds(731, awning).
holds(731, wallsign).

sample(732).
holds(732, miscindustrial).
holds(732, truck).

sample(733).

sample(734).

sample(735).

sample(736).

sample(737).

sample(738).

sample(739).

sample(740).

sample(741).

sample(742).

sample(743).
holds(743, hotel).
holds(743, awning).
holds(743, wallsign).

sample(744).
holds(744, miscindustrial).
holds(744, truck).

sample(745).

sample(746).
holds(746, hotel).
holds(746, awning).
holds(746, wallsign).

sample(747).
holds(747, miscindustrial).
holds(747, truck).

sample(748).

sample(749).
holds(749, hotel).
holds(749, awning).
holds(749, wallsign).

sample(750).

sample(751).

sample(752).
holds(752, hotel).
holds(752, awning).
holds(752, wallsign).

sample(753).
holds(753, miscindustrial).
holds(753, truck).

sample(754).

sample(755).
holds(755, hotel).
holds(755, awning).
holds(755, wallsign).

sample(756).

sample(757).

sample(758).
holds(758, hotel).
holds(758, awning).
holds(758, wallsign).

sample(759).
holds(759, miscindustrial).
holds(759, truck).

sample(760).

sample(761).

sample(762).

sample(763).

sample(764).
holds(764, hotel).
holds(764, awning).
holds(764, wallsign).

sample(765).

sample(766).

sample(767).
holds(767, hotel).
holds(767, awning).
holds(767, wallsign).

sample(768).

sample(769).

sample(770).

sample(771).

sample(772).

sample(773).
holds(773, hotel).
holds(773, awning).
holds(773, wallsign).

sample(774).
holds(774, miscindustrial).
holds(774, truck).

sample(775).

sample(776).
holds(776, hotel).
holds(776, awning).
holds(776, wallsign).

sample(777).
holds(777, miscindustrial).
holds(777, truck).

sample(778).

sample(779).
holds(779, hotel).
holds(779, awning).
holds(779, wallsign).

sample(780).

sample(781).

sample(782).

sample(783).
holds(783, miscindustrial).
holds(783, truck).

sample(784).

sample(785).

sample(786).

sample(787).

sample(788).
holds(788, hotel).
holds(788, awning).
holds(788, wallsign).

sample(789).

sample(790).

sample(791).
holds(791, hotel).
holds(791, awning).
holds(791, wallsign).

sample(792).

sample(793).

sample(794).
holds(794, hotel).
holds(794, awning).
holds(794, wallsign).

sample(795).

sample(796).

sample(797).
holds(797, hotel).
holds(797, awning).
holds(797, wallsign).

sample(798).
holds(798, miscindustrial).
holds(798, truck).

sample(799).

sample(800).
holds(800, hotel).
holds(800, awning).
holds(800, wallsign).

sample(801).

sample(802).

sample(803).
holds(803, hotel).
holds(803, awning).
holds(803, wallsign).

sample(804).

sample(805).

sample(806).
holds(806, hotel).
holds(806, awning).
holds(806, wallsign).

sample(807).

sample(808).

sample(809).
holds(809, hotel).
holds(809, awning).
holds(809, wallsign).

sample(810).
holds(810, miscindustrial).

sample(811).

sample(812).
holds(812, hotel).
holds(812, awning).
holds(812, wallsign).

sample(813).

sample(814).

sample(815).

sample(816).

sample(817).

sample(818).

sample(819).
holds(819, miscindustrial).
holds(819, truck).

sample(820).

sample(821).
holds(821, hotel).
holds(821, awning).
holds(821, wallsign).

sample(822).
holds(822, miscindustrial).
holds(822, truck).

sample(823).

sample(824).
holds(824, hotel).
holds(824, awning).
holds(824, wallsign).

sample(825).
holds(825, miscindustrial).
holds(825, truck).

sample(826).

sample(827).
holds(827, hotel).
holds(827, awning).
holds(827, wallsign).

sample(828).

sample(829).

sample(830).
holds(830, hotel).
holds(830, awning).
holds(830, wallsign).

sample(831).
holds(831, miscindustrial).
holds(831, truck).

sample(832).

sample(833).
holds(833, hotel).
holds(833, awning).
holds(833, wallsign).

sample(834).
holds(834, miscindustrial).
holds(834, truck).

sample(835).

sample(836).
holds(836, hotel).
holds(836, awning).
holds(836, wallsign).

sample(837).
holds(837, miscindustrial).
holds(837, truck).

sample(838).

sample(839).

sample(840).

sample(841).

sample(842).

sample(843).
holds(843, miscindustrial).
holds(843, truck).

sample(844).

sample(845).
holds(845, hotel).
holds(845, awning).
holds(845, wallsign).

sample(846).
holds(846, miscindustrial).
holds(846, truck).

sample(847).

sample(848).
holds(848, hotel).
holds(848, awning).
holds(848, wallsign).

sample(849).
holds(849, miscindustrial).
holds(849, truck).

sample(850).

sample(851).
holds(851, hotel).
holds(851, awning).
holds(851, wallsign).

sample(852).

sample(853).

sample(854).
holds(854, hotel).
holds(854, awning).
holds(854, wallsign).

sample(855).

sample(856).

sample(857).

sample(858).

sample(859).

sample(860).
holds(860, hotel).
holds(860, awning).
holds(860, wallsign).

sample(861).
holds(861, miscindustrial).
holds(861, truck).

sample(862).

sample(863).
holds(863, hotel).
holds(863, awning).
holds(863, wallsign).

sample(864).

sample(865).

sample(866).
holds(866, hotel).
holds(866, awning).
holds(866, wallsign).

sample(867).

sample(868).

sample(869).
holds(869, hotel).
holds(869, awning).
holds(869, wallsign).

sample(870).
holds(870, miscindustrial).
holds(870, truck).

sample(871).

sample(872).
holds(872, hotel).
holds(872, awning).
holds(872, wallsign).

sample(873).
holds(873, miscindustrial).
holds(873, truck).

sample(874).

sample(875).

sample(876).

sample(877).

sample(878).
holds(878, hotel).
holds(878, awning).
holds(878, wallsign).

sample(879).

sample(880).

sample(881).

sample(882).

sample(883).

sample(884).

sample(885).
holds(885, miscindustrial).
holds(885, truck).

sample(886).

sample(887).

sample(888).
holds(888, miscindustrial).
holds(888, truck).

sample(889).

sample(890).

sample(891).
holds(891, miscindustrial).
holds(891, truck).

sample(892).

sample(893).

sample(894).

sample(895).

sample(896).
holds(896, hotel).
holds(896, awning).
holds(896, wallsign).

sample(897).
holds(897, miscindustrial).

sample(898).

sample(899).

sample(900).
holds(900, miscindustrial).
holds(900, truck).

sample(901).

sample(902).

sample(903).
holds(903, miscindustrial).
holds(903, truck).

sample(904).

sample(905).

sample(906).
holds(906, miscindustrial).
holds(906, truck).

sample(907).

sample(908).
holds(908, hotel).
holds(908, awning).
holds(908, wallsign).

sample(909).

sample(910).

sample(911).
holds(911, hotel).
holds(911, awning).
holds(911, wallsign).

sample(912).
holds(912, miscindustrial).
holds(912, truck).

sample(913).

sample(914).

sample(915).
holds(915, miscindustrial).
holds(915, truck).

sample(916).

sample(917).
holds(917, hotel).
holds(917, awning).
holds(917, wallsign).

sample(918).
holds(918, miscindustrial).
holds(918, truck).

sample(919).

sample(920).
holds(920, hotel).
holds(920, awning).
holds(920, wallsign).

sample(921).
holds(921, miscindustrial).
holds(921, truck).

sample(922).

sample(923).

sample(924).
holds(924, miscindustrial).
holds(924, truck).

sample(925).

sample(926).
holds(926, hotel).
holds(926, awning).
holds(926, wallsign).

sample(927).
holds(927, miscindustrial).
holds(927, truck).

sample(928).

sample(929).
holds(929, hotel).
holds(929, awning).
holds(929, wallsign).

sample(930).

sample(931).

sample(932).
holds(932, hotel).
holds(932, awning).
holds(932, wallsign).

sample(933).

sample(934).

sample(935).

sample(936).

sample(937).

sample(938).

sample(939).
holds(939, miscindustrial).
holds(939, truck).

sample(940).

sample(941).
holds(941, hotel).
holds(941, wallsign).

sample(942).

sample(943).

sample(944).

sample(945).
holds(945, miscindustrial).
holds(945, truck).

sample(946).

sample(947).
holds(947, hotel).
holds(947, awning).
holds(947, wallsign).

sample(948).

sample(949).

sample(950).

sample(951).

sample(952).

sample(953).

sample(954).
holds(954, miscindustrial).
holds(954, truck).

sample(955).

sample(956).
holds(956, hotel).
holds(956, awning).
holds(956, wallsign).

sample(957).

sample(958).

sample(959).

sample(960).

sample(961).

sample(962).
holds(962, hotel).
holds(962, awning).
holds(962, wallsign).

sample(963).
holds(963, miscindustrial).
holds(963, truck).

sample(964).

sample(965).
holds(965, hotel).
holds(965, awning).
holds(965, wallsign).

sample(966).

sample(967).

sample(968).

sample(969).

sample(970).

sample(971).
holds(971, hotel).
holds(971, awning).
holds(971, wallsign).

sample(972).
holds(972, miscindustrial).
holds(972, truck).

sample(973).

sample(974).
holds(974, hotel).
holds(974, awning).
holds(974, wallsign).

sample(975).

sample(976).

sample(977).
holds(977, hotel).
holds(977, awning).
holds(977, wallsign).

sample(978).

sample(979).

sample(980).

sample(981).

sample(982).

sample(983).

sample(984).

sample(985).

sample(986).

sample(987).

sample(988).

sample(989).
holds(989, hotel).
holds(989, awning).
holds(989, wallsign).

sample(990).

sample(991).

sample(992).
holds(992, hotel).
holds(992, awning).
holds(992, wallsign).

sample(993).

sample(994).

sample(995).
holds(995, hotel).
holds(995, awning).
holds(995, wallsign).

sample(996).
holds(996, miscindustrial).
holds(996, truck).

sample(997).

sample(998).

sample(999).

sample(1000).

sample(1001).

sample(1002).

sample(1003).

sample(1004).

sample(1005).

sample(1006).

sample(1007).
holds(1007, hotel).
holds(1007, awning).
holds(1007, wallsign).

sample(1008).
holds(1008, miscindustrial).
holds(1008, truck).

sample(1009).

sample(1010).
holds(1010, hotel).
holds(1010, awning).
holds(1010, wallsign).

sample(1011).

sample(1012).

sample(1013).

sample(1014).

sample(1015).

sample(1016).
holds(1016, hotel).
holds(1016, awning).
holds(1016, wallsign).

sample(1017).

sample(1018).

sample(1019).
holds(1019, hotel).
holds(1019, awning).
holds(1019, wallsign).

sample(1020).

sample(1021).

sample(1022).
holds(1022, hotel).
holds(1022, awning).
holds(1022, wallsign).

sample(1023).

sample(1024).

sample(1025).
holds(1025, hotel).
holds(1025, awning).
holds(1025, wallsign).

sample(1026).
holds(1026, miscindustrial).
holds(1026, truck).

sample(1027).

sample(1028).
holds(1028, hotel).
holds(1028, awning).
holds(1028, wallsign).

sample(1029).

sample(1030).

sample(1031).
holds(1031, hotel).
holds(1031, awning).
holds(1031, wallsign).

sample(1032).
holds(1032, miscindustrial).
holds(1032, truck).

sample(1033).

sample(1034).

sample(1035).
holds(1035, miscindustrial).
holds(1035, truck).

sample(1036).

sample(1037).
holds(1037, hotel).
holds(1037, awning).
holds(1037, wallsign).

sample(1038).

sample(1039).

sample(1040).

sample(1041).

sample(1042).

sample(1043).
holds(1043, hotel).
holds(1043, awning).
holds(1043, wallsign).

sample(1044).
holds(1044, miscindustrial).
holds(1044, truck).

sample(1045).

sample(1046).

sample(1047).

sample(1048).

sample(1049).

sample(1050).

sample(1051).

sample(1052).

sample(1053).
holds(1053, miscindustrial).
holds(1053, truck).

sample(1054).

sample(1055).
holds(1055, hotel).
holds(1055, awning).
holds(1055, wallsign).

sample(1056).
holds(1056, miscindustrial).
holds(1056, truck).

sample(1057).

sample(1058).

sample(1059).
holds(1059, miscindustrial).
holds(1059, truck).

sample(1060).

sample(1061).
holds(1061, hotel).
holds(1061, wallsign).

sample(1062).

sample(1063).

sample(1064).
holds(1064, hotel).
holds(1064, awning).
holds(1064, wallsign).

sample(1065).

sample(1066).

sample(1067).
holds(1067, hotel).
holds(1067, awning).
holds(1067, wallsign).

sample(1068).

sample(1069).

sample(1070).
holds(1070, hotel).
holds(1070, awning).
holds(1070, wallsign).

sample(1071).

sample(1072).

sample(1073).
holds(1073, hotel).
holds(1073, awning).
holds(1073, wallsign).

sample(1074).

sample(1075).

sample(1076).

sample(1077).
holds(1077, miscindustrial).
holds(1077, truck).

sample(1078).

sample(1079).
holds(1079, hotel).
holds(1079, awning).
holds(1079, wallsign).

sample(1080).
holds(1080, miscindustrial).
holds(1080, truck).

sample(1081).

sample(1082).

sample(1083).
holds(1083, miscindustrial).
holds(1083, truck).

sample(1084).

sample(1085).
holds(1085, hotel).
holds(1085, awning).
holds(1085, wallsign).

sample(1086).
holds(1086, miscindustrial).
holds(1086, truck).

sample(1087).

sample(1088).

sample(1089).

sample(1090).

sample(1091).
holds(1091, hotel).
holds(1091, awning).
holds(1091, wallsign).

sample(1092).

sample(1093).

sample(1094).

sample(1095).
holds(1095, miscindustrial).
holds(1095, truck).

sample(1096).

sample(1097).

sample(1098).
holds(1098, miscindustrial).
holds(1098, truck).

sample(1099).

sample(1100).
holds(1100, hotel).
holds(1100, awning).
holds(1100, wallsign).

sample(1101).

sample(1102).

sample(1103).

sample(1104).

sample(1105).

sample(1106).

sample(1107).

sample(1108).

sample(1109).
holds(1109, hotel).
holds(1109, awning).
holds(1109, wallsign).

sample(1110).
holds(1110, miscindustrial).
holds(1110, truck).

sample(1111).

sample(1112).
holds(1112, hotel).
holds(1112, awning).
holds(1112, wallsign).

sample(1113).
holds(1113, miscindustrial).
holds(1113, truck).

sample(1114).

sample(1115).
holds(1115, hotel).
holds(1115, awning).
holds(1115, wallsign).

sample(1116).
holds(1116, miscindustrial).
holds(1116, truck).

sample(1117).

sample(1118).

sample(1119).

sample(1120).

sample(1121).
holds(1121, hotel).
holds(1121, awning).
holds(1121, wallsign).

sample(1122).

sample(1123).

sample(1124).

sample(1125).

sample(1126).

sample(1127).
holds(1127, hotel).
holds(1127, awning).
holds(1127, wallsign).

sample(1128).
holds(1128, miscindustrial).
holds(1128, truck).

sample(1129).

sample(1130).

sample(1131).

sample(1132).

sample(1133).
holds(1133, hotel).
holds(1133, awning).
holds(1133, wallsign).

sample(1134).

sample(1135).

sample(1136).
holds(1136, hotel).
holds(1136, awning).
holds(1136, wallsign).

sample(1137).
holds(1137, miscindustrial).
holds(1137, truck).

sample(1138).

sample(1139).

sample(1140).

sample(1141).

sample(1142).

sample(1143).
holds(1143, miscindustrial).
holds(1143, truck).

sample(1144).

sample(1145).
holds(1145, hotel).
holds(1145, awning).
holds(1145, wallsign).

sample(1146).
holds(1146, miscindustrial).
holds(1146, truck).

sample(1147).

sample(1148).
holds(1148, hotel).
holds(1148, awning).
holds(1148, wallsign).

sample(1149).

sample(1150).

sample(1151).
holds(1151, hotel).
holds(1151, awning).
holds(1151, wallsign).

sample(1152).
holds(1152, miscindustrial).
holds(1152, truck).

sample(1153).

sample(1154).
holds(1154, hotel).
holds(1154, awning).
holds(1154, wallsign).

sample(1155).

sample(1156).

sample(1157).
holds(1157, hotel).
holds(1157, awning).
holds(1157, wallsign).

sample(1158).

sample(1159).

sample(1160).

sample(1161).
holds(1161, miscindustrial).
holds(1161, truck).

sample(1162).

sample(1163).
holds(1163, hotel).
holds(1163, awning).
holds(1163, wallsign).

sample(1164).
holds(1164, miscindustrial).
holds(1164, truck).

sample(1165).

sample(1166).

sample(1167).

sample(1168).

sample(1169).
holds(1169, hotel).
holds(1169, awning).
holds(1169, wallsign).

sample(1170).
holds(1170, miscindustrial).
holds(1170, truck).

sample(1171).

sample(1172).

sample(1173).

sample(1174).

sample(1175).

sample(1176).

sample(1177).

sample(1178).
holds(1178, hotel).
holds(1178, awning).
holds(1178, wallsign).

sample(1179).
holds(1179, miscindustrial).
holds(1179, truck).

sample(1180).

sample(1181).

sample(1182).

sample(1183).

sample(1184).
holds(1184, hotel).
holds(1184, awning).
holds(1184, wallsign).

sample(1185).

sample(1186).

sample(1187).
holds(1187, hotel).
holds(1187, awning).
holds(1187, wallsign).

sample(1188).

sample(1189).

sample(1190).
holds(1190, hotel).
holds(1190, awning).
holds(1190, wallsign).

sample(1191).

sample(1192).

sample(1193).

sample(1194).

sample(1195).

sample(1196).
holds(1196, hotel).
holds(1196, awning).
holds(1196, wallsign).

sample(1197).
holds(1197, miscindustrial).
holds(1197, truck).

sample(1198).

sample(1199).
holds(1199, hotel).
holds(1199, awning).
holds(1199, wallsign).

sample(1200).

sample(1201).

sample(1202).

sample(1203).

sample(1204).

sample(1205).

sample(1206).
holds(1206, miscindustrial).
holds(1206, truck).

sample(1207).

sample(1208).
holds(1208, hotel).
holds(1208, awning).
holds(1208, wallsign).

sample(1209).

sample(1210).

sample(1211).
holds(1211, hotel).
holds(1211, awning).
holds(1211, wallsign).

sample(1212).

sample(1213).

sample(1214).

sample(1215).
holds(1215, miscindustrial).
holds(1215, truck).

sample(1216).

sample(1217).

sample(1218).

sample(1219).

sample(1220).

sample(1221).

sample(1222).

sample(1223).

sample(1224).
holds(1224, miscindustrial).
holds(1224, truck).

sample(1225).

sample(1226).
holds(1226, hotel).
holds(1226, awning).
holds(1226, wallsign).

sample(1227).

sample(1228).

sample(1229).
holds(1229, hotel).
holds(1229, awning).
holds(1229, wallsign).

sample(1230).

sample(1231).

sample(1232).
holds(1232, hotel).
holds(1232, awning).
holds(1232, wallsign).

sample(1233).

sample(1234).

sample(1235).
holds(1235, hotel).
holds(1235, awning).
holds(1235, wallsign).

sample(1236).

sample(1237).

sample(1238).
holds(1238, hotel).
holds(1238, awning).
holds(1238, wallsign).

sample(1239).
holds(1239, miscindustrial).
holds(1239, truck).

sample(1240).

sample(1241).
holds(1241, hotel).
holds(1241, awning).
holds(1241, wallsign).

sample(1242).

sample(1243).

sample(1244).
holds(1244, hotel).
holds(1244, awning).
holds(1244, wallsign).

sample(1245).

sample(1246).

sample(1247).

sample(1248).

sample(1249).

sample(1250).
holds(1250, hotel).
holds(1250, awning).
holds(1250, wallsign).

sample(1251).

sample(1252).

sample(1253).
holds(1253, hotel).
holds(1253, awning).
holds(1253, wallsign).

sample(1254).

sample(1255).

sample(1256).

sample(1257).

sample(1258).

sample(1259).
holds(1259, hotel).
holds(1259, awning).
holds(1259, wallsign).

sample(1260).

sample(1261).

sample(1262).
holds(1262, hotel).
holds(1262, awning).
holds(1262, wallsign).

sample(1263).
holds(1263, miscindustrial).
holds(1263, truck).

sample(1264).

sample(1265).
holds(1265, hotel).
holds(1265, awning).
holds(1265, wallsign).

sample(1266).

sample(1267).

sample(1268).
holds(1268, hotel).
holds(1268, awning).
holds(1268, wallsign).

sample(1269).

sample(1270).

sample(1271).
holds(1271, hotel).
holds(1271, awning).
holds(1271, wallsign).

sample(1272).
holds(1272, miscindustrial).
holds(1272, truck).

sample(1273).

sample(1274).

sample(1275).

sample(1276).

sample(1277).
holds(1277, hotel).
holds(1277, awning).
holds(1277, wallsign).

sample(1278).

sample(1279).

sample(1280).
holds(1280, hotel).
holds(1280, awning).
holds(1280, wallsign).

sample(1281).
holds(1281, miscindustrial).
holds(1281, truck).

sample(1282).

sample(1283).
holds(1283, hotel).
holds(1283, awning).
holds(1283, wallsign).

sample(1284).

sample(1285).

sample(1286).
holds(1286, hotel).
holds(1286, awning).
holds(1286, wallsign).

sample(1287).

sample(1288).

sample(1289).

sample(1290).

sample(1291).

sample(1292).
holds(1292, hotel).
holds(1292, awning).
holds(1292, wallsign).

sample(1293).
holds(1293, miscindustrial).
holds(1293, truck).

sample(1294).

sample(1295).

sample(1296).

sample(1297).

sample(1298).
holds(1298, hotel).
holds(1298, awning).
holds(1298, wallsign).

sample(1299).
holds(1299, miscindustrial).
holds(1299, truck).

sample(1300).

sample(1301).
holds(1301, hotel).
holds(1301, awning).
holds(1301, wallsign).

sample(1302).

sample(1303).

sample(1304).
holds(1304, hotel).
holds(1304, awning).
holds(1304, wallsign).

sample(1305).

sample(1306).

sample(1307).
holds(1307, hotel).
holds(1307, awning).
holds(1307, wallsign).

sample(1308).
holds(1308, miscindustrial).
holds(1308, truck).

sample(1309).

sample(1310).

sample(1311).
holds(1311, miscindustrial).
holds(1311, truck).

sample(1312).

sample(1313).
holds(1313, hotel).
holds(1313, awning).
holds(1313, wallsign).

sample(1314).
holds(1314, miscindustrial).
holds(1314, truck).

sample(1315).

sample(1316).
holds(1316, hotel).
holds(1316, awning).
holds(1316, wallsign).

sample(1317).

sample(1318).

sample(1319).
holds(1319, hotel).
holds(1319, awning).
holds(1319, wallsign).

sample(1320).

sample(1321).

sample(1322).

sample(1323).
holds(1323, miscindustrial).
holds(1323, truck).

sample(1324).

sample(1325).
holds(1325, hotel).
holds(1325, awning).
holds(1325, wallsign).

sample(1326).
holds(1326, miscindustrial).
holds(1326, truck).

sample(1327).

sample(1328).
holds(1328, hotel).
holds(1328, awning).
holds(1328, wallsign).

sample(1329).
holds(1329, miscindustrial).
holds(1329, truck).

sample(1330).

sample(1331).
holds(1331, hotel).
holds(1331, awning).
holds(1331, wallsign).

sample(1332).

sample(1333).

sample(1334).
holds(1334, hotel).
holds(1334, awning).
holds(1334, wallsign).

sample(1335).
holds(1335, miscindustrial).
holds(1335, truck).

sample(1336).

sample(1337).

sample(1338).
holds(1338, miscindustrial).
holds(1338, truck).

sample(1339).

sample(1340).
holds(1340, hotel).
holds(1340, awning).
holds(1340, wallsign).

sample(1341).

sample(1342).

sample(1343).
holds(1343, hotel).
holds(1343, awning).
holds(1343, wallsign).

sample(1344).
holds(1344, miscindustrial).
holds(1344, truck).

sample(1345).

sample(1346).
holds(1346, hotel).
holds(1346, awning).
holds(1346, wallsign).

sample(1347).

sample(1348).

sample(1349).
holds(1349, hotel).
holds(1349, awning).
holds(1349, wallsign).

sample(1350).

sample(1351).

sample(1352).

sample(1353).
holds(1353, miscindustrial).
holds(1353, truck).

sample(1354).

sample(1355).
holds(1355, hotel).
holds(1355, awning).
holds(1355, wallsign).

sample(1356).

sample(1357).

sample(1358).
holds(1358, hotel).
holds(1358, awning).
holds(1358, wallsign).

sample(1359).
holds(1359, miscindustrial).
holds(1359, truck).

sample(1360).

sample(1361).
holds(1361, hotel).
holds(1361, wallsign).

sample(1362).

sample(1363).

sample(1364).

sample(1365).
holds(1365, miscindustrial).
holds(1365, truck).

sample(1366).

sample(1367).

sample(1368).

sample(1369).

sample(1370).
holds(1370, hotel).
holds(1370, awning).
holds(1370, wallsign).

sample(1371).
holds(1371, miscindustrial).
holds(1371, truck).

sample(1372).

sample(1373).

sample(1374).
holds(1374, miscindustrial).
holds(1374, truck).

sample(1375).

sample(1376).

sample(1377).
holds(1377, miscindustrial).
holds(1377, truck).

sample(1378).

sample(1379).
holds(1379, hotel).
holds(1379, awning).
holds(1379, wallsign).

sample(1380).

sample(1381).

sample(1382).

sample(1383).
holds(1383, miscindustrial).
holds(1383, truck).

sample(1384).

sample(1385).

sample(1386).

sample(1387).

sample(1388).

sample(1389).
holds(1389, miscindustrial).
holds(1389, truck).

sample(1390).

sample(1391).
holds(1391, hotel).
holds(1391, awning).
holds(1391, wallsign).

sample(1392).
holds(1392, miscindustrial).
holds(1392, truck).

sample(1393).

sample(1394).

sample(1395).

sample(1396).

sample(1397).
holds(1397, hotel).
holds(1397, awning).
holds(1397, wallsign).

sample(1398).
holds(1398, miscindustrial).
holds(1398, truck).

sample(1399).

sample(1400).
holds(1400, hotel).
holds(1400, awning).
holds(1400, wallsign).

sample(1401).

sample(1402).

sample(1403).
holds(1403, hotel).
holds(1403, awning).
holds(1403, wallsign).

sample(1404).

sample(1405).

sample(1406).
holds(1406, hotel).
holds(1406, awning).
holds(1406, wallsign).

sample(1407).

sample(1408).

sample(1409).

sample(1410).
holds(1410, miscindustrial).
holds(1410, truck).

sample(1411).

sample(1412).
holds(1412, hotel).
holds(1412, awning).
holds(1412, wallsign).

sample(1413).
holds(1413, miscindustrial).
holds(1413, truck).

sample(1414).

sample(1415).
holds(1415, hotel).
holds(1415, awning).
holds(1415, wallsign).

sample(1416).

sample(1417).

sample(1418).

sample(1419).

sample(1420).

sample(1421).
holds(1421, hotel).
holds(1421, awning).
holds(1421, wallsign).

sample(1422).

sample(1423).

sample(1424).
holds(1424, hotel).
holds(1424, awning).
holds(1424, wallsign).

sample(1425).

sample(1426).

sample(1427).
holds(1427, hotel).
holds(1427, awning).
holds(1427, wallsign).

sample(1428).
holds(1428, miscindustrial).
holds(1428, truck).

sample(1429).

sample(1430).
holds(1430, hotel).
holds(1430, awning).
holds(1430, wallsign).

sample(1431).

sample(1432).

sample(1433).

sample(1434).

sample(1435).

sample(1436).
holds(1436, hotel).
holds(1436, awning).
holds(1436, wallsign).

sample(1437).
holds(1437, miscindustrial).
holds(1437, truck).

sample(1438).

sample(1439).
holds(1439, hotel).
holds(1439, awning).
holds(1439, wallsign).

sample(1440).

sample(1441).

sample(1442).
holds(1442, hotel).
holds(1442, wallsign).

sample(1443).

sample(1444).

sample(1445).
holds(1445, hotel).
holds(1445, awning).
holds(1445, wallsign).

sample(1446).
holds(1446, miscindustrial).
holds(1446, truck).

sample(1447).

sample(1448).
holds(1448, hotel).
holds(1448, awning).
holds(1448, wallsign).

sample(1449).

sample(1450).

sample(1451).

sample(1452).
holds(1452, miscindustrial).
holds(1452, truck).

sample(1453).

sample(1454).

sample(1455).

sample(1456).

sample(1457).
holds(1457, hotel).
holds(1457, awning).
holds(1457, wallsign).

sample(1458).
holds(1458, miscindustrial).
holds(1458, truck).

sample(1459).

sample(1460).

sample(1461).

sample(1462).

sample(1463).

sample(1464).
holds(1464, miscindustrial).
holds(1464, truck).

sample(1465).

sample(1466).

sample(1467).

sample(1468).

sample(1469).
holds(1469, hotel).
holds(1469, awning).
holds(1469, wallsign).

sample(1470).

sample(1471).

sample(1472).

sample(1473).

sample(1474).

sample(1475).

sample(1476).

sample(1477).

sample(1478).
holds(1478, hotel).
holds(1478, awning).
holds(1478, wallsign).

sample(1479).
holds(1479, miscindustrial).
holds(1479, truck).

sample(1480).

sample(1481).
holds(1481, hotel).
holds(1481, awning).
holds(1481, wallsign).

sample(1482).
holds(1482, miscindustrial).
holds(1482, truck).

sample(1483).

sample(1484).
holds(1484, hotel).
holds(1484, awning).
holds(1484, wallsign).

sample(1485).

sample(1486).

sample(1487).
holds(1487, hotel).
holds(1487, awning).
holds(1487, wallsign).

sample(1488).

sample(1489).

sample(1490).
holds(1490, hotel).
holds(1490, awning).
holds(1490, wallsign).

sample(1491).
holds(1491, miscindustrial).
holds(1491, truck).

sample(1492).

sample(1493).
holds(1493, hotel).
holds(1493, awning).
holds(1493, wallsign).

sample(1494).

sample(1495).

sample(1496).
holds(1496, hotel).
holds(1496, awning).
holds(1496, wallsign).

sample(1497).

sample(1498).

sample(1499).
holds(1499, hotel).
holds(1499, awning).
holds(1499, wallsign).

sample(1500).

sample(1501).

sample(1502).
holds(1502, hotel).
holds(1502, awning).
holds(1502, wallsign).

sample(1503).

sample(1504).

sample(1505).
holds(1505, hotel).
holds(1505, awning).
holds(1505, wallsign).

sample(1506).
holds(1506, miscindustrial).
holds(1506, truck).

sample(1507).

sample(1508).

sample(1509).
holds(1509, miscindustrial).
holds(1509, truck).

sample(1510).

sample(1511).

sample(1512).
holds(1512, miscindustrial).
holds(1512, truck).

sample(1513).

sample(1514).

sample(1515).

sample(1516).

sample(1517).
holds(1517, hotel).
holds(1517, awning).
holds(1517, wallsign).

sample(1518).
holds(1518, miscindustrial).
holds(1518, truck).

sample(1519).

sample(1520).
holds(1520, hotel).
holds(1520, awning).
holds(1520, wallsign).

sample(1521).
holds(1521, miscindustrial).
holds(1521, truck).

sample(1522).

sample(1523).
holds(1523, hotel).
holds(1523, awning).
holds(1523, wallsign).

sample(1524).
holds(1524, miscindustrial).
holds(1524, truck).

sample(1525).

sample(1526).

sample(1527).

sample(1528).

sample(1529).
holds(1529, hotel).
holds(1529, awning).
holds(1529, wallsign).

sample(1530).
holds(1530, miscindustrial).
holds(1530, truck).

sample(1531).

sample(1532).

sample(1533).

sample(1534).

sample(1535).
holds(1535, hotel).
holds(1535, awning).
holds(1535, wallsign).

sample(1536).

sample(1537).

sample(1538).

sample(1539).
holds(1539, miscindustrial).
holds(1539, truck).

sample(1540).

sample(1541).
holds(1541, hotel).
holds(1541, awning).
holds(1541, wallsign).

sample(1542).
holds(1542, miscindustrial).
holds(1542, truck).

sample(1543).

sample(1544).
holds(1544, hotel).
holds(1544, awning).
holds(1544, wallsign).

sample(1545).

sample(1546).

sample(1547).
holds(1547, hotel).
holds(1547, awning).
holds(1547, wallsign).

sample(1548).
holds(1548, miscindustrial).
holds(1548, truck).

sample(1549).

sample(1550).
holds(1550, hotel).
holds(1550, awning).
holds(1550, wallsign).

sample(1551).

sample(1552).

sample(1553).

sample(1554).

sample(1555).

sample(1556).
holds(1556, hotel).
holds(1556, awning).
holds(1556, wallsign).

sample(1557).
holds(1557, miscindustrial).
holds(1557, truck).

sample(1558).

sample(1559).
holds(1559, hotel).
holds(1559, awning).
holds(1559, wallsign).

sample(1560).

sample(1561).

sample(1562).

sample(1563).

sample(1564).

sample(1565).
holds(1565, hotel).
holds(1565, awning).
holds(1565, wallsign).

sample(1566).

sample(1567).

sample(1568).

sample(1569).

sample(1570).

sample(1571).
holds(1571, hotel).
holds(1571, awning).
holds(1571, wallsign).

sample(1572).
holds(1572, miscindustrial).
holds(1572, truck).

sample(1573).

sample(1574).
holds(1574, hotel).
holds(1574, awning).
holds(1574, wallsign).

sample(1575).

sample(1576).

sample(1577).
holds(1577, hotel).
holds(1577, wallsign).

sample(1578).

sample(1579).

sample(1580).
holds(1580, hotel).
holds(1580, awning).
holds(1580, wallsign).

sample(1581).

sample(1582).

sample(1583).
holds(1583, hotel).
holds(1583, awning).
holds(1583, wallsign).

sample(1584).

sample(1585).

sample(1586).

sample(1587).

sample(1588).

sample(1589).
holds(1589, hotel).
holds(1589, awning).
holds(1589, wallsign).

sample(1590).
holds(1590, miscindustrial).
holds(1590, truck).

sample(1591).

sample(1592).
holds(1592, hotel).
holds(1592, awning).
holds(1592, wallsign).

sample(1593).

sample(1594).

sample(1595).
holds(1595, hotel).
holds(1595, awning).
holds(1595, wallsign).

sample(1596).

sample(1597).

sample(1598).
holds(1598, hotel).
holds(1598, awning).
holds(1598, wallsign).

sample(1599).
holds(1599, miscindustrial).
holds(1599, truck).

sample(1600).

sample(1601).
holds(1601, hotel).
holds(1601, awning).
holds(1601, wallsign).

sample(1602).

sample(1603).

sample(1604).
holds(1604, hotel).
holds(1604, awning).
holds(1604, wallsign).

sample(1605).
holds(1605, miscindustrial).
holds(1605, truck).

sample(1606).

sample(1607).

sample(1608).
holds(1608, miscindustrial).
holds(1608, truck).

sample(1609).

sample(1610).

sample(1611).

sample(1612).

sample(1613).
holds(1613, hotel).
holds(1613, awning).
holds(1613, wallsign).

sample(1614).
holds(1614, miscindustrial).
holds(1614, truck).

sample(1615).

sample(1616).

sample(1617).

sample(1618).

sample(1619).

sample(1620).
holds(1620, miscindustrial).
holds(1620, truck).

sample(1621).

sample(1622).

sample(1623).

sample(1624).

sample(1625).

sample(1626).
holds(1626, miscindustrial).
holds(1626, truck).

sample(1627).

sample(1628).

sample(1629).

sample(1630).

sample(1631).
holds(1631, hotel).
holds(1631, awning).
holds(1631, wallsign).

sample(1632).
holds(1632, miscindustrial).
holds(1632, truck).

sample(1633).

sample(1634).
holds(1634, hotel).
holds(1634, awning).
holds(1634, wallsign).

sample(1635).

sample(1636).

sample(1637).
holds(1637, hotel).
holds(1637, awning).
holds(1637, wallsign).

sample(1638).

sample(1639).

sample(1640).

sample(1641).
holds(1641, miscindustrial).
holds(1641, truck).

sample(1642).

sample(1643).
holds(1643, hotel).
holds(1643, awning).
holds(1643, wallsign).

sample(1644).

sample(1645).

sample(1646).

sample(1647).

sample(1648).

sample(1649).
holds(1649, hotel).
holds(1649, awning).
holds(1649, wallsign).

sample(1650).
holds(1650, miscindustrial).
holds(1650, truck).

sample(1651).

sample(1652).

sample(1653).
holds(1653, miscindustrial).
holds(1653, truck).

sample(1654).

sample(1655).
holds(1655, hotel).
holds(1655, awning).
holds(1655, wallsign).

sample(1656).

sample(1657).

sample(1658).
holds(1658, hotel).
holds(1658, awning).
holds(1658, wallsign).

sample(1659).
holds(1659, miscindustrial).
holds(1659, truck).

sample(1660).

sample(1661).

sample(1662).
holds(1662, miscindustrial).
holds(1662, truck).

sample(1663).

sample(1664).
holds(1664, hotel).
holds(1664, awning).
holds(1664, wallsign).

sample(1665).
holds(1665, miscindustrial).
holds(1665, truck).

sample(1666).

sample(1667).

sample(1668).

sample(1669).

sample(1670).

sample(1671).
holds(1671, miscindustrial).
holds(1671, truck).

sample(1672).

sample(1673).
holds(1673, hotel).
holds(1673, awning).
holds(1673, wallsign).

sample(1674).

sample(1675).

sample(1676).

sample(1677).

sample(1678).

sample(1679).
holds(1679, hotel).
holds(1679, awning).
holds(1679, wallsign).

sample(1680).
holds(1680, miscindustrial).
holds(1680, truck).

sample(1681).

sample(1682).
holds(1682, hotel).
holds(1682, awning).
holds(1682, wallsign).

sample(1683).
holds(1683, miscindustrial).
holds(1683, truck).

sample(1684).

sample(1685).
holds(1685, hotel).
holds(1685, awning).
holds(1685, wallsign).

sample(1686).
holds(1686, miscindustrial).
holds(1686, truck).

sample(1687).

sample(1688).
holds(1688, hotel).
holds(1688, awning).
holds(1688, wallsign).

sample(1689).
holds(1689, miscindustrial).
holds(1689, truck).

sample(1690).

sample(1691).

sample(1692).
holds(1692, miscindustrial).
holds(1692, truck).

sample(1693).

sample(1694).

sample(1695).

sample(1696).

sample(1697).
holds(1697, hotel).
holds(1697, awning).
holds(1697, wallsign).

sample(1698).
holds(1698, miscindustrial).
holds(1698, truck).

sample(1699).

sample(1700).
holds(1700, hotel).
holds(1700, awning).
holds(1700, wallsign).

sample(1701).
holds(1701, miscindustrial).
holds(1701, truck).

sample(1702).

sample(1703).

sample(1704).
holds(1704, miscindustrial).
holds(1704, truck).

sample(1705).

sample(1706).

sample(1707).

sample(1708).

sample(1709).

sample(1710).
holds(1710, miscindustrial).
holds(1710, truck).

sample(1711).

sample(1712).
holds(1712, hotel).
holds(1712, awning).
holds(1712, wallsign).

sample(1713).
holds(1713, miscindustrial).
holds(1713, truck).

sample(1714).

sample(1715).
holds(1715, hotel).
holds(1715, awning).
holds(1715, wallsign).

sample(1716).

sample(1717).

sample(1718).

sample(1719).

sample(1720).

sample(1721).

sample(1722).

sample(1723).

sample(1724).
holds(1724, hotel).
holds(1724, awning).
holds(1724, wallsign).

sample(1725).

sample(1726).

sample(1727).
holds(1727, hotel).
holds(1727, awning).
holds(1727, wallsign).

sample(1728).
holds(1728, miscindustrial).
holds(1728, truck).

sample(1729).

sample(1730).

sample(1731).

sample(1732).

sample(1733).

sample(1734).
holds(1734, miscindustrial).
holds(1734, truck).

sample(1735).

sample(1736).
holds(1736, hotel).
holds(1736, awning).
holds(1736, wallsign).

sample(1737).

sample(1738).

sample(1739).

sample(1740).

sample(1741).

sample(1742).

sample(1743).

sample(1744).

sample(1745).
holds(1745, hotel).
holds(1745, awning).
holds(1745, wallsign).

sample(1746).

sample(1747).

sample(1748).

sample(1749).

sample(1750).

sample(1751).
holds(1751, hotel).
holds(1751, awning).
holds(1751, wallsign).

sample(1752).

sample(1753).

sample(1754).
holds(1754, hotel).
holds(1754, awning).
holds(1754, wallsign).

sample(1755).

sample(1756).

sample(1757).
holds(1757, hotel).
holds(1757, awning).
holds(1757, wallsign).

sample(1758).

sample(1759).

sample(1760).

sample(1761).
holds(1761, miscindustrial).
holds(1761, truck).

sample(1762).

sample(1763).

sample(1764).

sample(1765).

sample(1766).

sample(1767).

sample(1768).

sample(1769).

sample(1770).

sample(1771).

sample(1772).
holds(1772, hotel).
holds(1772, awning).
holds(1772, wallsign).

sample(1773).

sample(1774).

sample(1775).

sample(1776).
holds(1776, miscindustrial).
holds(1776, truck).

sample(1777).

sample(1778).

sample(1779).

sample(1780).

sample(1781).
holds(1781, hotel).
holds(1781, awning).
holds(1781, wallsign).

sample(1782).

sample(1783).

sample(1784).
holds(1784, hotel).
holds(1784, awning).
holds(1784, wallsign).

sample(1785).
holds(1785, miscindustrial).
holds(1785, truck).

sample(1786).

sample(1787).

sample(1788).
holds(1788, miscindustrial).
holds(1788, truck).

sample(1789).

sample(1790).
holds(1790, hotel).
holds(1790, awning).
holds(1790, wallsign).

sample(1791).

sample(1792).

sample(1793).
holds(1793, hotel).
holds(1793, awning).
holds(1793, wallsign).

sample(1794).

sample(1795).

sample(1796).
holds(1796, hotel).
holds(1796, awning).
holds(1796, wallsign).

sample(1797).
holds(1797, miscindustrial).
holds(1797, truck).

sample(1798).

sample(1799).
holds(1799, hotel).
holds(1799, awning).
holds(1799, wallsign).

sample(1800).
holds(1800, miscindustrial).
holds(1800, truck).

sample(1801).

sample(1802).
holds(1802, hotel).
holds(1802, awning).
holds(1802, wallsign).

sample(1803).
holds(1803, miscindustrial).
holds(1803, truck).

sample(1804).

sample(1805).
holds(1805, hotel).
holds(1805, awning).
holds(1805, wallsign).

sample(1806).
holds(1806, miscindustrial).
holds(1806, truck).

sample(1807).

sample(1808).

sample(1809).

sample(1810).

sample(1811).
holds(1811, hotel).
holds(1811, awning).
holds(1811, wallsign).

sample(1812).

sample(1813).

sample(1814).

sample(1815).
holds(1815, miscindustrial).
holds(1815, truck).

sample(1816).

sample(1817).
holds(1817, hotel).
holds(1817, awning).
holds(1817, wallsign).

sample(1818).

sample(1819).

sample(1820).
holds(1820, hotel).
holds(1820, awning).
holds(1820, wallsign).

sample(1821).
holds(1821, miscindustrial).
holds(1821, truck).

sample(1822).

sample(1823).
holds(1823, hotel).
holds(1823, awning).
holds(1823, wallsign).

sample(1824).
holds(1824, miscindustrial).
holds(1824, truck).

sample(1825).

sample(1826).
holds(1826, hotel).
holds(1826, awning).
holds(1826, wallsign).

sample(1827).

sample(1828).

sample(1829).
holds(1829, hotel).
holds(1829, awning).
holds(1829, wallsign).

sample(1830).

sample(1831).

sample(1832).

sample(1833).

sample(1834).

sample(1835).

sample(1836).

sample(1837).

sample(1838).
holds(1838, hotel).
holds(1838, awning).
holds(1838, wallsign).

sample(1839).

sample(1840).

sample(1841).

sample(1842).
holds(1842, miscindustrial).
holds(1842, truck).

sample(1843).

sample(1844).
holds(1844, hotel).
holds(1844, awning).
holds(1844, wallsign).

sample(1845).

sample(1846).

sample(1847).

sample(1848).
holds(1848, miscindustrial).
holds(1848, truck).

sample(1849).

sample(1850).

sample(1851).

sample(1852).

sample(1853).

sample(1854).

sample(1855).

sample(1856).
holds(1856, hotel).
holds(1856, awning).
holds(1856, wallsign).

sample(1857).

sample(1858).

sample(1859).

sample(1860).

sample(1861).

sample(1862).
holds(1862, hotel).
holds(1862, awning).
holds(1862, wallsign).

sample(1863).

sample(1864).

sample(1865).
holds(1865, hotel).
holds(1865, awning).
holds(1865, wallsign).

sample(1866).

sample(1867).

sample(1868).

sample(1869).

sample(1870).

sample(1871).
holds(1871, hotel).
holds(1871, awning).
holds(1871, wallsign).

sample(1872).
holds(1872, miscindustrial).
holds(1872, truck).

sample(1873).

sample(1874).
holds(1874, hotel).
holds(1874, awning).
holds(1874, wallsign).

sample(1875).

sample(1876).

sample(1877).
holds(1877, hotel).
holds(1877, awning).
holds(1877, wallsign).

sample(1878).

sample(1879).

sample(1880).
holds(1880, hotel).
holds(1880, awning).
holds(1880, wallsign).

sample(1881).
holds(1881, miscindustrial).
holds(1881, truck).

sample(1882).

sample(1883).
holds(1883, hotel).
holds(1883, awning).
holds(1883, wallsign).

sample(1884).

sample(1885).

sample(1886).
holds(1886, hotel).
holds(1886, awning).
holds(1886, wallsign).

sample(1887).
holds(1887, miscindustrial).
holds(1887, truck).

sample(1888).

sample(1889).

sample(1890).
holds(1890, miscindustrial).
holds(1890, truck).

sample(1891).

sample(1892).
holds(1892, hotel).
holds(1892, awning).
holds(1892, wallsign).

sample(1893).

sample(1894).

sample(1895).

sample(1896).

sample(1897).

sample(1898).
holds(1898, hotel).
holds(1898, awning).
holds(1898, wallsign).

sample(1899).
holds(1899, miscindustrial).
holds(1899, truck).

sample(1900).

sample(1901).

sample(1902).

sample(1903).

sample(1904).

sample(1905).

sample(1906).

sample(1907).

sample(1908).
holds(1908, miscindustrial).
holds(1908, truck).

sample(1909).

sample(1910).
holds(1910, hotel).
holds(1910, awning).
holds(1910, wallsign).

sample(1911).
holds(1911, miscindustrial).
holds(1911, truck).

sample(1912).

sample(1913).
holds(1913, hotel).
holds(1913, awning).
holds(1913, wallsign).

sample(1914).

sample(1915).

sample(1916).
holds(1916, hotel).
holds(1916, awning).
holds(1916, wallsign).

sample(1917).
holds(1917, miscindustrial).
holds(1917, truck).

sample(1918).

sample(1919).

sample(1920).
holds(1920, miscindustrial).
holds(1920, truck).

sample(1921).

sample(1922).

sample(1923).

sample(1924).

sample(1925).

sample(1926).

sample(1927).

sample(1928).
holds(1928, hotel).
holds(1928, awning).
holds(1928, wallsign).

sample(1929).
holds(1929, miscindustrial).
holds(1929, truck).

sample(1930).

sample(1931).
holds(1931, hotel).
holds(1931, awning).
holds(1931, wallsign).

sample(1932).

sample(1933).

sample(1934).
holds(1934, hotel).
holds(1934, awning).
holds(1934, wallsign).

sample(1935).
holds(1935, miscindustrial).
holds(1935, truck).

sample(1936).

sample(1937).

sample(1938).
holds(1938, miscindustrial).
holds(1938, truck).

sample(1939).

sample(1940).

sample(1941).

sample(1942).

sample(1943).

sample(1944).
holds(1944, miscindustrial).
holds(1944, truck).

sample(1945).

sample(1946).

sample(1947).
holds(1947, miscindustrial).
holds(1947, truck).

sample(1948).

sample(1949).

sample(1950).
holds(1950, miscindustrial).
holds(1950, truck).

sample(1951).

sample(1952).

sample(1953).
holds(1953, miscindustrial).
holds(1953, truck).

sample(1954).

sample(1955).

sample(1956).

sample(1957).

sample(1958).

sample(1959).
holds(1959, miscindustrial).
holds(1959, truck).

sample(1960).

sample(1961).

sample(1962).

sample(1963).

sample(1964).
holds(1964, hotel).
holds(1964, awning).
holds(1964, wallsign).

sample(1965).
holds(1965, miscindustrial).
holds(1965, truck).

sample(1966).

sample(1967).
holds(1967, hotel).
holds(1967, awning).
holds(1967, wallsign).

sample(1968).

sample(1969).

sample(1970).
holds(1970, hotel).
holds(1970, awning).
holds(1970, wallsign).

sample(1971).

sample(1972).

sample(1973).

sample(1974).

sample(1975).

sample(1976).

sample(1977).

sample(1978).

sample(1979).
holds(1979, hotel).
holds(1979, awning).
holds(1979, wallsign).

sample(1980).
holds(1980, miscindustrial).
holds(1980, truck).

sample(1981).

sample(1982).

sample(1983).

sample(1984).

sample(1985).

sample(1986).

sample(1987).

sample(1988).
holds(1988, hotel).
holds(1988, awning).
holds(1988, wallsign).

sample(1989).

sample(1990).

sample(1991).
holds(1991, hotel).
holds(1991, awning).
holds(1991, wallsign).

sample(1992).
holds(1992, miscindustrial).
holds(1992, truck).

sample(1993).

sample(1994).
holds(1994, hotel).
holds(1994, awning).
holds(1994, wallsign).

sample(1995).
holds(1995, miscindustrial).
holds(1995, truck).

sample(1996).

sample(1997).
holds(1997, hotel).
holds(1997, wallsign).

sample(1998).

sample(1999).

sample(2000).
holds(2000, hotel).
holds(2000, awning).
holds(2000, wallsign).

sample(2001).
holds(2001, miscindustrial).
holds(2001, truck).

sample(2002).

sample(2003).
holds(2003, hotel).
holds(2003, awning).
holds(2003, wallsign).

sample(2004).

sample(2005).

sample(2006).

sample(2007).

sample(2008).

sample(2009).
holds(2009, hotel).
holds(2009, awning).
holds(2009, wallsign).

sample(2010).
holds(2010, miscindustrial).
holds(2010, truck).

sample(2011).

sample(2012).
holds(2012, hotel).
holds(2012, awning).
holds(2012, wallsign).

sample(2013).

sample(2014).

sample(2015).
holds(2015, hotel).
holds(2015, awning).
holds(2015, wallsign).

sample(2016).

sample(2017).

sample(2018).

sample(2019).
holds(2019, miscindustrial).
holds(2019, truck).

sample(2020).

sample(2021).
holds(2021, hotel).
holds(2021, awning).
holds(2021, wallsign).

sample(2022).

sample(2023).

sample(2024).
holds(2024, hotel).
holds(2024, awning).
holds(2024, wallsign).

sample(2025).
holds(2025, miscindustrial).
holds(2025, truck).

sample(2026).

sample(2027).
holds(2027, hotel).
holds(2027, wallsign).

sample(2028).
holds(2028, miscindustrial).
holds(2028, truck).

sample(2029).

sample(2030).
holds(2030, hotel).
holds(2030, awning).
holds(2030, wallsign).

sample(2031).

sample(2032).

sample(2033).
holds(2033, hotel).
holds(2033, awning).
holds(2033, wallsign).

sample(2034).

sample(2035).

sample(2036).
holds(2036, hotel).
holds(2036, awning).
holds(2036, wallsign).

sample(2037).
holds(2037, miscindustrial).
holds(2037, truck).

sample(2038).

sample(2039).

sample(2040).

sample(2041).

sample(2042).

sample(2043).
holds(2043, miscindustrial).
holds(2043, truck).

sample(2044).

sample(2045).
holds(2045, hotel).
holds(2045, awning).
holds(2045, wallsign).

sample(2046).

sample(2047).

sample(2048).

sample(2049).

sample(2050).

sample(2051).
holds(2051, hotel).
holds(2051, awning).
holds(2051, wallsign).

sample(2052).
holds(2052, miscindustrial).
holds(2052, truck).

sample(2053).

sample(2054).
holds(2054, hotel).
holds(2054, awning).
holds(2054, wallsign).

sample(2055).
holds(2055, miscindustrial).
holds(2055, truck).

sample(2056).

sample(2057).
holds(2057, hotel).
holds(2057, awning).
holds(2057, wallsign).

sample(2058).

sample(2059).

sample(2060).
holds(2060, hotel).
holds(2060, awning).
holds(2060, wallsign).

sample(2061).

sample(2062).

sample(2063).
holds(2063, hotel).
holds(2063, awning).
holds(2063, wallsign).

sample(2064).

sample(2065).

sample(2066).

sample(2067).

sample(2068).

sample(2069).

sample(2070).
holds(2070, miscindustrial).
holds(2070, truck).

sample(2071).

sample(2072).
holds(2072, hotel).
holds(2072, awning).
holds(2072, wallsign).

sample(2073).
holds(2073, miscindustrial).
holds(2073, truck).

sample(2074).

sample(2075).

sample(2076).

sample(2077).

sample(2078).

sample(2079).
holds(2079, miscindustrial).
holds(2079, truck).

sample(2080).

sample(2081).

sample(2082).

sample(2083).

sample(2084).
holds(2084, hotel).
holds(2084, awning).
holds(2084, wallsign).

sample(2085).

sample(2086).

sample(2087).
holds(2087, hotel).
holds(2087, awning).
holds(2087, wallsign).

sample(2088).
holds(2088, miscindustrial).
holds(2088, truck).

sample(2089).

sample(2090).
holds(2090, hotel).
holds(2090, awning).
holds(2090, wallsign).

sample(2091).

sample(2092).

sample(2093).
holds(2093, hotel).
holds(2093, awning).
holds(2093, wallsign).

sample(2094).

sample(2095).

sample(2096).

sample(2097).
holds(2097, miscindustrial).
holds(2097, truck).

sample(2098).

sample(2099).

sample(2100).

sample(2101).

sample(2102).

sample(2103).
holds(2103, miscindustrial).
holds(2103, truck).

sample(2104).

sample(2105).
holds(2105, hotel).
holds(2105, wallsign).

sample(2106).
holds(2106, miscindustrial).
holds(2106, truck).

sample(2107).

sample(2108).

sample(2109).
holds(2109, miscindustrial).
holds(2109, truck).

sample(2110).

sample(2111).

sample(2112).
holds(2112, miscindustrial).
holds(2112, truck).

sample(2113).

sample(2114).

sample(2115).

sample(2116).

sample(2117).
holds(2117, hotel).
holds(2117, awning).
holds(2117, wallsign).

sample(2118).

sample(2119).

sample(2120).
holds(2120, hotel).
holds(2120, awning).
holds(2120, wallsign).

sample(2121).
holds(2121, miscindustrial).
holds(2121, truck).

sample(2122).

sample(2123).
holds(2123, hotel).
holds(2123, awning).
holds(2123, wallsign).

sample(2124).
holds(2124, miscindustrial).
holds(2124, truck).

sample(2125).

sample(2126).
holds(2126, hotel).
holds(2126, awning).
holds(2126, wallsign).

sample(2127).

sample(2128).

sample(2129).
holds(2129, hotel).
holds(2129, awning).
holds(2129, wallsign).

sample(2130).
holds(2130, miscindustrial).
holds(2130, truck).

sample(2131).

sample(2132).
holds(2132, hotel).
holds(2132, awning).
holds(2132, wallsign).

sample(2133).
holds(2133, miscindustrial).
holds(2133, truck).

sample(2134).

sample(2135).
holds(2135, hotel).
holds(2135, awning).
holds(2135, wallsign).

sample(2136).
holds(2136, miscindustrial).
holds(2136, truck).

sample(2137).

sample(2138).

sample(2139).

sample(2140).

sample(2141).
holds(2141, hotel).
holds(2141, awning).
holds(2141, wallsign).

sample(2142).

sample(2143).

sample(2144).
holds(2144, hotel).
holds(2144, awning).
holds(2144, wallsign).

sample(2145).
holds(2145, miscindustrial).
holds(2145, truck).

sample(2146).

sample(2147).
holds(2147, hotel).
holds(2147, awning).
holds(2147, wallsign).

sample(2148).
holds(2148, miscindustrial).
holds(2148, truck).

sample(2149).

sample(2150).
holds(2150, hotel).
holds(2150, awning).
holds(2150, wallsign).

sample(2151).

sample(2152).

sample(2153).

sample(2154).
holds(2154, miscindustrial).
holds(2154, truck).

sample(2155).

sample(2156).
holds(2156, hotel).
holds(2156, awning).
holds(2156, wallsign).

sample(2157).
holds(2157, miscindustrial).
holds(2157, truck).

sample(2158).

sample(2159).
holds(2159, hotel).
holds(2159, awning).
holds(2159, wallsign).

sample(2160).

sample(2161).

sample(2162).
holds(2162, hotel).
holds(2162, awning).
holds(2162, wallsign).

sample(2163).
holds(2163, miscindustrial).
holds(2163, truck).

sample(2164).

sample(2165).

sample(2166).

sample(2167).

sample(2168).
holds(2168, hotel).
holds(2168, awning).
holds(2168, wallsign).

sample(2169).
holds(2169, miscindustrial).
holds(2169, truck).

sample(2170).

sample(2171).

sample(2172).

sample(2173).

sample(2174).

sample(2175).
holds(2175, miscindustrial).
holds(2175, truck).

sample(2176).

sample(2177).

sample(2178).
holds(2178, miscindustrial).
holds(2178, truck).

sample(2179).

sample(2180).
holds(2180, hotel).
holds(2180, awning).
holds(2180, wallsign).

sample(2181).
holds(2181, miscindustrial).
holds(2181, truck).

sample(2182).

sample(2183).
holds(2183, hotel).
holds(2183, awning).
holds(2183, wallsign).

sample(2184).

sample(2185).

sample(2186).

sample(2187).

sample(2188).

sample(2189).

sample(2190).
holds(2190, miscindustrial).
holds(2190, truck).

sample(2191).

sample(2192).
holds(2192, hotel).
holds(2192, awning).
holds(2192, wallsign).

sample(2193).

sample(2194).

sample(2195).
holds(2195, hotel).
holds(2195, awning).
holds(2195, wallsign).

sample(2196).

sample(2197).

sample(2198).
holds(2198, hotel).
holds(2198, awning).
holds(2198, wallsign).

sample(2199).
holds(2199, miscindustrial).
holds(2199, truck).

sample(2200).

sample(2201).
holds(2201, hotel).
holds(2201, awning).
holds(2201, wallsign).

sample(2202).

sample(2203).

sample(2204).
holds(2204, hotel).
holds(2204, awning).
holds(2204, wallsign).

sample(2205).
holds(2205, miscindustrial).
holds(2205, truck).

sample(2206).

sample(2207).
holds(2207, hotel).
holds(2207, awning).
holds(2207, wallsign).

sample(2208).

sample(2209).

sample(2210).

sample(2211).

sample(2212).

sample(2213).
holds(2213, hotel).
holds(2213, awning).
holds(2213, wallsign).

sample(2214).
holds(2214, miscindustrial).
holds(2214, truck).

sample(2215).

sample(2216).

sample(2217).

sample(2218).

sample(2219).
holds(2219, hotel).
holds(2219, awning).
holds(2219, wallsign).

sample(2220).

sample(2221).

sample(2222).

sample(2223).

sample(2224).

sample(2225).
holds(2225, hotel).
holds(2225, awning).
holds(2225, wallsign).

sample(2226).
holds(2226, miscindustrial).
holds(2226, truck).

sample(2227).

sample(2228).
holds(2228, hotel).
holds(2228, awning).
holds(2228, wallsign).

sample(2229).
holds(2229, miscindustrial).
holds(2229, truck).

sample(2230).

sample(2231).

sample(2232).

sample(2233).

sample(2234).
holds(2234, hotel).
holds(2234, awning).
holds(2234, wallsign).

sample(2235).

sample(2236).

sample(2237).
holds(2237, hotel).
holds(2237, awning).
holds(2237, wallsign).

sample(2238).

sample(2239).

sample(2240).

sample(2241).

sample(2242).

sample(2243).
holds(2243, hotel).

sample(2244).

sample(2245).

sample(2246).

sample(2247).
holds(2247, miscindustrial).
holds(2247, truck).

sample(2248).

sample(2249).

sample(2250).

sample(2251).

sample(2252).
holds(2252, hotel).
holds(2252, awning).
holds(2252, wallsign).

sample(2253).

sample(2254).

sample(2255).

sample(2256).

sample(2257).

sample(2258).

sample(2259).
holds(2259, miscindustrial).
holds(2259, truck).

sample(2260).

sample(2261).
holds(2261, hotel).
holds(2261, awning).
holds(2261, wallsign).

sample(2262).
holds(2262, miscindustrial).
holds(2262, truck).

sample(2263).

sample(2264).
holds(2264, hotel).
holds(2264, awning).
holds(2264, wallsign).

sample(2265).

sample(2266).

sample(2267).

sample(2268).

sample(2269).

sample(2270).

sample(2271).
holds(2271, miscindustrial).
holds(2271, truck).

sample(2272).

sample(2273).
holds(2273, hotel).
holds(2273, awning).
holds(2273, wallsign).

sample(2274).
holds(2274, miscindustrial).
holds(2274, truck).

sample(2275).

sample(2276).
holds(2276, hotel).
holds(2276, awning).
holds(2276, wallsign).

sample(2277).
holds(2277, miscindustrial).
holds(2277, truck).

sample(2278).

sample(2279).
holds(2279, hotel).
holds(2279, awning).
holds(2279, wallsign).

sample(2280).

sample(2281).

sample(2282).

sample(2283).

sample(2284).

sample(2285).

sample(2286).

sample(2287).

sample(2288).

sample(2289).
holds(2289, miscindustrial).
holds(2289, truck).

sample(2290).

sample(2291).
holds(2291, hotel).
holds(2291, awning).
holds(2291, wallsign).

sample(2292).

sample(2293).

sample(2294).

sample(2295).
holds(2295, miscindustrial).
holds(2295, truck).

sample(2296).

sample(2297).
holds(2297, hotel).
holds(2297, awning).
holds(2297, wallsign).

sample(2298).
holds(2298, miscindustrial).
holds(2298, truck).

sample(2299).

sample(2300).
holds(2300, hotel).
holds(2300, awning).
holds(2300, wallsign).

sample(2301).
holds(2301, miscindustrial).
holds(2301, truck).

sample(2302).

sample(2303).
holds(2303, miscindustrial).

sample(2304).

sample(2305).

sample(2306).
holds(2306, hotel).
holds(2306, awning).
holds(2306, wallsign).

sample(2307).
holds(2307, miscindustrial).
holds(2307, truck).

sample(2308).

sample(2309).
holds(2309, hotel).
holds(2309, awning).
holds(2309, wallsign).

sample(2310).

sample(2311).

sample(2312).
holds(2312, hotel).
holds(2312, awning).
holds(2312, wallsign).

sample(2313).

sample(2314).

sample(2315).

sample(2316).
holds(2316, miscindustrial).
holds(2316, truck).

sample(2317).

sample(2318).
holds(2318, hotel).
holds(2318, awning).
holds(2318, wallsign).

sample(2319).

sample(2320).

sample(2321).
holds(2321, hotel).
holds(2321, awning).
holds(2321, wallsign).

sample(2322).

sample(2323).

sample(2324).
holds(2324, hotel).
holds(2324, awning).
holds(2324, wallsign).

sample(2325).

sample(2326).

sample(2327).

sample(2328).
holds(2328, miscindustrial).
holds(2328, truck).

sample(2329).

sample(2330).
holds(2330, hotel).
holds(2330, awning).
holds(2330, wallsign).

sample(2331).
holds(2331, miscindustrial).
holds(2331, truck).

sample(2332).

sample(2333).
holds(2333, hotel).
holds(2333, awning).
holds(2333, wallsign).

sample(2334).
holds(2334, miscindustrial).
holds(2334, truck).

sample(2335).

sample(2336).

sample(2337).

sample(2338).

sample(2339).
holds(2339, hotel).
holds(2339, awning).
holds(2339, wallsign).

sample(2340).

sample(2341).

sample(2342).

sample(2343).

sample(2344).

sample(2345).
holds(2345, hotel).
holds(2345, awning).
holds(2345, wallsign).

sample(2346).

sample(2347).

sample(2348).

sample(2349).
holds(2349, miscindustrial).
holds(2349, truck).

sample(2350).

sample(2351).
holds(2351, hotel).
holds(2351, awning).
holds(2351, wallsign).

sample(2352).
holds(2352, miscindustrial).
holds(2352, truck).

sample(2353).

sample(2354).
holds(2354, hotel).
holds(2354, awning).
holds(2354, wallsign).

sample(2355).
holds(2355, miscindustrial).
holds(2355, truck).

sample(2356).

sample(2357).

sample(2358).
holds(2358, miscindustrial).
holds(2358, truck).

sample(2359).

sample(2360).
holds(2360, hotel).
holds(2360, awning).
holds(2360, wallsign).

sample(2361).

sample(2362).

sample(2363).

sample(2364).

sample(2365).

sample(2366).
holds(2366, hotel).
holds(2366, awning).
holds(2366, wallsign).

sample(2367).
holds(2367, miscindustrial).
holds(2367, truck).

sample(2368).

sample(2369).

sample(2370).
holds(2370, miscindustrial).
holds(2370, truck).

sample(2371).

sample(2372).

sample(2373).
holds(2373, miscindustrial).
holds(2373, truck).

sample(2374).

sample(2375).

sample(2376).
holds(2376, miscindustrial).
holds(2376, truck).

sample(2377).

sample(2378).
holds(2378, hotel).
holds(2378, awning).
holds(2378, wallsign).

sample(2379).

sample(2380).

sample(2381).
holds(2381, hotel).
holds(2381, awning).
holds(2381, wallsign).

sample(2382).

sample(2383).

sample(2384).
holds(2384, hotel).
holds(2384, awning).
holds(2384, wallsign).

sample(2385).

sample(2386).

sample(2387).

sample(2388).
holds(2388, miscindustrial).
holds(2388, truck).

sample(2389).

sample(2390).

sample(2391).

sample(2392).

sample(2393).
holds(2393, hotel).
holds(2393, awning).
holds(2393, wallsign).

sample(2394).
holds(2394, miscindustrial).
holds(2394, truck).

sample(2395).

sample(2396).
holds(2396, hotel).
holds(2396, awning).
holds(2396, wallsign).

sample(2397).

sample(2398).

sample(2399).
holds(2399, hotel).
holds(2399, awning).
holds(2399, wallsign).

sample(2400).

sample(2401).

sample(2402).
holds(2402, hotel).
holds(2402, awning).
holds(2402, wallsign).

sample(2403).
holds(2403, miscindustrial).
holds(2403, truck).

sample(2404).

sample(2405).

sample(2406).

sample(2407).

sample(2408).
holds(2408, hotel).
holds(2408, awning).
holds(2408, wallsign).

sample(2409).

sample(2410).

sample(2411).
holds(2411, hotel).
holds(2411, awning).
holds(2411, wallsign).

sample(2412).
holds(2412, miscindustrial).
holds(2412, truck).

sample(2413).

sample(2414).
holds(2414, hotel).
holds(2414, awning).
holds(2414, wallsign).

sample(2415).

sample(2416).

sample(2417).
holds(2417, hotel).
holds(2417, awning).
holds(2417, wallsign).

sample(2418).

sample(2419).

sample(2420).

sample(2421).

sample(2422).

sample(2423).
holds(2423, hotel).
holds(2423, awning).
holds(2423, wallsign).

sample(2424).

sample(2425).

sample(2426).
holds(2426, hotel).
holds(2426, awning).
holds(2426, wallsign).

sample(2427).
holds(2427, miscindustrial).
holds(2427, truck).

sample(2428).

sample(2429).
holds(2429, hotel).
holds(2429, awning).
holds(2429, wallsign).

sample(2430).

sample(2431).

sample(2432).
holds(2432, hotel).
holds(2432, awning).
holds(2432, wallsign).

sample(2433).

sample(2434).

sample(2435).
holds(2435, hotel).
holds(2435, awning).
holds(2435, wallsign).

sample(2436).
holds(2436, miscindustrial).
holds(2436, truck).

sample(2437).

sample(2438).

sample(2439).

sample(2440).

sample(2441).
holds(2441, hotel).
holds(2441, awning).
holds(2441, wallsign).

sample(2442).

sample(2443).

sample(2444).
holds(2444, hotel).
holds(2444, awning).
holds(2444, wallsign).

sample(2445).
holds(2445, miscindustrial).
holds(2445, truck).

sample(2446).

sample(2447).
holds(2447, hotel).
holds(2447, awning).
holds(2447, wallsign).

sample(2448).

sample(2449).

sample(2450).

sample(2451).

sample(2452).

sample(2453).
holds(2453, hotel).
holds(2453, awning).
holds(2453, wallsign).

sample(2454).

sample(2455).

sample(2456).
holds(2456, hotel).
holds(2456, awning).
holds(2456, wallsign).

sample(2457).

sample(2458).

sample(2459).

sample(2460).

sample(2461).

sample(2462).
holds(2462, hotel).
holds(2462, awning).
holds(2462, wallsign).

sample(2463).
holds(2463, miscindustrial).
holds(2463, truck).

sample(2464).

sample(2465).
holds(2465, hotel).
holds(2465, awning).
holds(2465, wallsign).

sample(2466).

sample(2467).

sample(2468).
holds(2468, hotel).
holds(2468, awning).
holds(2468, wallsign).

sample(2469).

sample(2470).

sample(2471).
holds(2471, hotel).
holds(2471, awning).
holds(2471, wallsign).

sample(2472).

sample(2473).

sample(2474).
holds(2474, hotel).
holds(2474, awning).
holds(2474, wallsign).

sample(2475).
holds(2475, miscindustrial).
holds(2475, truck).

sample(2476).

sample(2477).
holds(2477, hotel).
holds(2477, awning).
holds(2477, wallsign).

sample(2478).

sample(2479).

sample(2480).
holds(2480, hotel).
holds(2480, awning).
holds(2480, wallsign).

sample(2481).

sample(2482).

sample(2483).
holds(2483, hotel).
holds(2483, awning).
holds(2483, wallsign).

sample(2484).
holds(2484, miscindustrial).
holds(2484, truck).

sample(2485).

sample(2486).

sample(2487).

sample(2488).

sample(2489).

sample(2490).

sample(2491).

sample(2492).

sample(2493).
holds(2493, miscindustrial).
holds(2493, truck).

sample(2494).

sample(2495).
holds(2495, hotel).
holds(2495, awning).
holds(2495, wallsign).

sample(2496).
holds(2496, miscindustrial).
holds(2496, truck).

sample(2497).

sample(2498).
holds(2498, hotel).
holds(2498, awning).
holds(2498, wallsign).

sample(2499).
holds(2499, miscindustrial).
holds(2499, truck).

sample(2500).

sample(2501).

sample(2502).

sample(2503).

sample(2504).
holds(2504, hotel).
holds(2504, awning).
holds(2504, wallsign).

sample(2505).

sample(2506).

sample(2507).

sample(2508).
holds(2508, miscindustrial).
holds(2508, truck).

sample(2509).

sample(2510).

sample(2511).
holds(2511, miscindustrial).
holds(2511, truck).

sample(2512).

sample(2513).

sample(2514).

sample(2515).

sample(2516).
holds(2516, hotel).
holds(2516, awning).
holds(2516, wallsign).

sample(2517).

sample(2518).

sample(2519).
holds(2519, hotel).
holds(2519, awning).
holds(2519, wallsign).

sample(2520).

sample(2521).

sample(2522).
holds(2522, hotel).
holds(2522, awning).
holds(2522, wallsign).

sample(2523).

sample(2524).

sample(2525).
holds(2525, hotel).
holds(2525, awning).
holds(2525, wallsign).

sample(2526).
holds(2526, miscindustrial).
holds(2526, truck).

sample(2527).

sample(2528).
holds(2528, hotel).
holds(2528, awning).
holds(2528, wallsign).

sample(2529).
holds(2529, miscindustrial).
holds(2529, truck).

sample(2530).

sample(2531).
holds(2531, hotel).
holds(2531, awning).
holds(2531, wallsign).

sample(2532).
holds(2532, miscindustrial).
holds(2532, truck).

sample(2533).

sample(2534).
holds(2534, hotel).
holds(2534, wallsign).

sample(2535).

sample(2536).

sample(2537).
holds(2537, hotel).
holds(2537, awning).
holds(2537, wallsign).

sample(2538).
holds(2538, miscindustrial).
holds(2538, truck).

sample(2539).

sample(2540).
holds(2540, hotel).
holds(2540, awning).
holds(2540, wallsign).

sample(2541).

sample(2542).

sample(2543).
holds(2543, hotel).
holds(2543, awning).
holds(2543, wallsign).

sample(2544).

sample(2545).

sample(2546).

sample(2547).
holds(2547, miscindustrial).
holds(2547, truck).

sample(2548).

sample(2549).

sample(2550).

sample(2551).

sample(2552).

sample(2553).
holds(2553, miscindustrial).
holds(2553, truck).

sample(2554).

sample(2555).

sample(2556).
holds(2556, miscindustrial).
holds(2556, truck).

sample(2557).

sample(2558).
holds(2558, hotel).
holds(2558, awning).
holds(2558, wallsign).

sample(2559).

sample(2560).

sample(2561).
holds(2561, hotel).
holds(2561, awning).
holds(2561, wallsign).

sample(2562).
holds(2562, miscindustrial).
holds(2562, truck).

sample(2563).

sample(2564).

sample(2565).
holds(2565, miscindustrial).
holds(2565, truck).

sample(2566).

sample(2567).

sample(2568).
holds(2568, miscindustrial).
holds(2568, truck).

sample(2569).

sample(2570).
holds(2570, hotel).
holds(2570, awning).
holds(2570, wallsign).

sample(2571).

sample(2572).

sample(2573).
holds(2573, hotel).
holds(2573, awning).
holds(2573, wallsign).

sample(2574).

sample(2575).

sample(2576).
holds(2576, hotel).
holds(2576, awning).
holds(2576, wallsign).

sample(2577).
holds(2577, miscindustrial).
holds(2577, truck).

sample(2578).

sample(2579).

sample(2580).

sample(2581).

sample(2582).

sample(2583).

sample(2584).

sample(2585).
holds(2585, hotel).
holds(2585, awning).
holds(2585, wallsign).

sample(2586).
holds(2586, miscindustrial).
holds(2586, truck).

sample(2587).

sample(2588).
holds(2588, hotel).
holds(2588, awning).
holds(2588, wallsign).

sample(2589).
holds(2589, miscindustrial).
holds(2589, truck).

sample(2590).

sample(2591).
holds(2591, hotel).
holds(2591, awning).
holds(2591, wallsign).

sample(2592).

sample(2593).

sample(2594).

sample(2595).

sample(2596).

sample(2597).

sample(2598).
holds(2598, miscindustrial).
holds(2598, truck).

sample(2599).

sample(2600).
holds(2600, hotel).
holds(2600, awning).
holds(2600, wallsign).

sample(2601).
holds(2601, miscindustrial).
holds(2601, truck).

sample(2602).

sample(2603).
holds(2603, hotel).
holds(2603, awning).
holds(2603, wallsign).

sample(2604).

sample(2605).

sample(2606).
holds(2606, hotel).
holds(2606, awning).
holds(2606, wallsign).

sample(2607).

sample(2608).

sample(2609).

sample(2610).

sample(2611).

sample(2612).
holds(2612, hotel).
holds(2612, awning).
holds(2612, wallsign).

sample(2613).
holds(2613, miscindustrial).
holds(2613, truck).

sample(2614).

sample(2615).
holds(2615, hotel).
holds(2615, awning).
holds(2615, wallsign).

sample(2616).
holds(2616, miscindustrial).
holds(2616, truck).

sample(2617).

sample(2618).
holds(2618, hotel).
holds(2618, awning).
holds(2618, wallsign).

sample(2619).
holds(2619, miscindustrial).
holds(2619, truck).

sample(2620).

sample(2621).

sample(2622).

sample(2623).

sample(2624).
holds(2624, hotel).
holds(2624, awning).
holds(2624, wallsign).

sample(2625).
holds(2625, miscindustrial).
holds(2625, truck).

sample(2626).

sample(2627).

sample(2628).

sample(2629).

sample(2630).
holds(2630, hotel).
holds(2630, awning).
holds(2630, wallsign).

sample(2631).
holds(2631, miscindustrial).
holds(2631, truck).

sample(2632).

sample(2633).

sample(2634).
holds(2634, miscindustrial).
holds(2634, truck).

sample(2635).

sample(2636).

sample(2637).
holds(2637, miscindustrial).
holds(2637, truck).

sample(2638).

sample(2639).

sample(2640).
holds(2640, miscindustrial).
holds(2640, truck).

sample(2641).

sample(2642).

sample(2643).

sample(2644).

sample(2645).
holds(2645, hotel).
holds(2645, awning).
holds(2645, wallsign).

sample(2646).

sample(2647).

sample(2648).
holds(2648, hotel).
holds(2648, awning).
holds(2648, wallsign).

sample(2649).

sample(2650).

sample(2651).
holds(2651, hotel).
holds(2651, awning).
holds(2651, wallsign).

sample(2652).

sample(2653).

sample(2654).

sample(2655).
holds(2655, miscindustrial).
holds(2655, truck).

sample(2656).

sample(2657).
holds(2657, hotel).
holds(2657, awning).
holds(2657, wallsign).

sample(2658).

sample(2659).

sample(2660).
holds(2660, hotel).
holds(2660, awning).
holds(2660, wallsign).

sample(2661).

sample(2662).

sample(2663).
holds(2663, hotel).
holds(2663, awning).
holds(2663, wallsign).

sample(2664).

sample(2665).

sample(2666).

sample(2667).
holds(2667, miscindustrial).
holds(2667, truck).

sample(2668).

sample(2669).

sample(2670).
holds(2670, miscindustrial).
holds(2670, truck).

sample(2671).

sample(2672).

sample(2673).

sample(2674).

sample(2675).
holds(2675, hotel).
holds(2675, awning).
holds(2675, wallsign).

sample(2676).

sample(2677).

sample(2678).
holds(2678, hotel).
holds(2678, awning).
holds(2678, wallsign).

sample(2679).

sample(2680).

sample(2681).

sample(2682).
holds(2682, miscindustrial).
holds(2682, truck).

sample(2683).

sample(2684).
holds(2684, hotel).
holds(2684, awning).
holds(2684, wallsign).

sample(2685).

sample(2686).

sample(2687).
holds(2687, hotel).
holds(2687, awning).
holds(2687, wallsign).

sample(2688).
holds(2688, miscindustrial).
holds(2688, truck).

sample(2689).

sample(2690).
holds(2690, hotel).
holds(2690, awning).
holds(2690, wallsign).

sample(2691).

sample(2692).

sample(2693).
holds(2693, hotel).
holds(2693, awning).
holds(2693, wallsign).

sample(2694).

sample(2695).

sample(2696).
holds(2696, hotel).
holds(2696, awning).
holds(2696, wallsign).

sample(2697).

sample(2698).

sample(2699).
holds(2699, hotel).
holds(2699, awning).
holds(2699, wallsign).

sample(2700).

sample(2701).

sample(2702).

sample(2703).
holds(2703, miscindustrial).
holds(2703, truck).

sample(2704).

sample(2705).
holds(2705, hotel).
holds(2705, awning).
holds(2705, wallsign).

sample(2706).

sample(2707).

sample(2708).
holds(2708, hotel).
holds(2708, awning).
holds(2708, wallsign).

sample(2709).
holds(2709, miscindustrial).
holds(2709, truck).

sample(2710).

sample(2711).

sample(2712).

sample(2713).

sample(2714).
holds(2714, hotel).
holds(2714, awning).
holds(2714, wallsign).

sample(2715).

sample(2716).

sample(2717).
holds(2717, hotel).
holds(2717, awning).
holds(2717, wallsign).

sample(2718).

sample(2719).

sample(2720).

sample(2721).
holds(2721, miscindustrial).
holds(2721, truck).

sample(2722).

sample(2723).
holds(2723, hotel).
holds(2723, awning).
holds(2723, wallsign).

sample(2724).

sample(2725).

sample(2726).
holds(2726, hotel).
holds(2726, awning).
holds(2726, wallsign).

sample(2727).

sample(2728).

sample(2729).
holds(2729, hotel).
holds(2729, awning).
holds(2729, wallsign).

sample(2730).

sample(2731).

sample(2732).
holds(2732, hotel).
holds(2732, awning).
holds(2732, wallsign).

sample(2733).

sample(2734).

sample(2735).
holds(2735, hotel).
holds(2735, awning).
holds(2735, wallsign).

sample(2736).
holds(2736, miscindustrial).
holds(2736, truck).

sample(2737).

sample(2738).

sample(2739).

sample(2740).

sample(2741).

sample(2742).

sample(2743).

sample(2744).
holds(2744, hotel).
holds(2744, awning).
holds(2744, wallsign).

sample(2745).
holds(2745, miscindustrial).
holds(2745, truck).

sample(2746).

sample(2747).
holds(2747, hotel).
holds(2747, awning).
holds(2747, wallsign).

sample(2748).

sample(2749).

sample(2750).

sample(2751).
holds(2751, miscindustrial).
holds(2751, truck).

sample(2752).

sample(2753).

sample(2754).

sample(2755).

sample(2756).

sample(2757).
holds(2757, miscindustrial).
holds(2757, truck).

sample(2758).

sample(2759).
holds(2759, hotel).
holds(2759, awning).
holds(2759, wallsign).

sample(2760).

sample(2761).

sample(2762).

sample(2763).
holds(2763, miscindustrial).
holds(2763, truck).

sample(2764).

sample(2765).
holds(2765, hotel).
holds(2765, awning).
holds(2765, wallsign).

sample(2766).

sample(2767).

sample(2768).

sample(2769).
holds(2769, miscindustrial).
holds(2769, truck).

sample(2770).

sample(2771).

sample(2772).

sample(2773).

sample(2774).
holds(2774, hotel).
holds(2774, awning).
holds(2774, wallsign).

sample(2775).
holds(2775, miscindustrial).
holds(2775, truck).

sample(2776).

sample(2777).

sample(2778).

sample(2779).

sample(2780).
holds(2780, hotel).
holds(2780, awning).
holds(2780, wallsign).

sample(2781).

sample(2782).

sample(2783).

sample(2784).

sample(2785).

sample(2786).
holds(2786, hotel).
holds(2786, awning).
holds(2786, wallsign).

sample(2787).
holds(2787, miscindustrial).
holds(2787, truck).

sample(2788).

sample(2789).

sample(2790).

sample(2791).

sample(2792).

sample(2793).

sample(2794).

sample(2795).
holds(2795, hotel).
holds(2795, awning).
holds(2795, wallsign).

sample(2796).
holds(2796, miscindustrial).
holds(2796, truck).

sample(2797).

sample(2798).

sample(2799).

sample(2800).

sample(2801).

sample(2802).

sample(2803).

sample(2804).
holds(2804, hotel).
holds(2804, awning).
holds(2804, wallsign).

sample(2805).
holds(2805, miscindustrial).
holds(2805, truck).

sample(2806).

sample(2807).
holds(2807, hotel).
holds(2807, awning).
holds(2807, wallsign).

sample(2808).

sample(2809).

sample(2810).
holds(2810, hotel).
holds(2810, awning).
holds(2810, wallsign).

sample(2811).
holds(2811, miscindustrial).
holds(2811, truck).

sample(2812).

sample(2813).
holds(2813, hotel).
holds(2813, awning).
holds(2813, wallsign).

sample(2814).
holds(2814, miscindustrial).
holds(2814, truck).

sample(2815).

sample(2816).
holds(2816, hotel).
holds(2816, awning).
holds(2816, wallsign).

sample(2817).
holds(2817, miscindustrial).
holds(2817, truck).

sample(2818).

sample(2819).
holds(2819, hotel).
holds(2819, awning).
holds(2819, wallsign).

sample(2820).

sample(2821).

sample(2822).

sample(2823).

sample(2824).

sample(2825).
holds(2825, hotel).
holds(2825, awning).
holds(2825, wallsign).

sample(2826).
holds(2826, miscindustrial).
holds(2826, truck).

sample(2827).

sample(2828).
holds(2828, hotel).
holds(2828, awning).
holds(2828, wallsign).

sample(2829).
holds(2829, miscindustrial).
holds(2829, truck).

sample(2830).

sample(2831).
holds(2831, hotel).
holds(2831, awning).
holds(2831, wallsign).

sample(2832).
holds(2832, miscindustrial).
holds(2832, truck).

sample(2833).

sample(2834).

sample(2835).
holds(2835, miscindustrial).
holds(2835, truck).

sample(2836).

sample(2837).

sample(2838).
holds(2838, miscindustrial).
holds(2838, truck).

sample(2839).

sample(2840).
holds(2840, hotel).
holds(2840, awning).
holds(2840, wallsign).

sample(2841).
holds(2841, miscindustrial).
holds(2841, truck).

sample(2842).

sample(2843).
holds(2843, hotel).
holds(2843, awning).
holds(2843, wallsign).

sample(2844).
holds(2844, miscindustrial).
holds(2844, truck).

sample(2845).

sample(2846).
holds(2846, hotel).
holds(2846, awning).
holds(2846, wallsign).

sample(2847).

sample(2848).

sample(2849).

sample(2850).
holds(2850, miscindustrial).
holds(2850, truck).

sample(2851).

sample(2852).

sample(2853).
holds(2853, miscindustrial).
holds(2853, truck).

sample(2854).

sample(2855).
holds(2855, hotel).
holds(2855, awning).
holds(2855, wallsign).

sample(2856).

sample(2857).

sample(2858).

sample(2859).
holds(2859, miscindustrial).
holds(2859, truck).

sample(2860).

sample(2861).

sample(2862).

sample(2863).

sample(2864).

sample(2865).
holds(2865, miscindustrial).
holds(2865, truck).

sample(2866).

sample(2867).

sample(2868).
holds(2868, miscindustrial).
holds(2868, truck).

sample(2869).

sample(2870).
holds(2870, hotel).
holds(2870, awning).
holds(2870, wallsign).

sample(2871).
holds(2871, miscindustrial).
holds(2871, truck).

sample(2872).

sample(2873).
holds(2873, hotel).
holds(2873, awning).
holds(2873, wallsign).

sample(2874).

sample(2875).

sample(2876).
holds(2876, hotel).
holds(2876, awning).
holds(2876, wallsign).

sample(2877).
holds(2877, miscindustrial).
holds(2877, truck).

sample(2878).

sample(2879).

sample(2880).
holds(2880, miscindustrial).
holds(2880, truck).

sample(2881).

sample(2882).
holds(2882, hotel).
holds(2882, awning).
holds(2882, wallsign).

sample(2883).

sample(2884).

sample(2885).

sample(2886).

sample(2887).

sample(2888).

sample(2889).

sample(2890).

sample(2891).
holds(2891, hotel).
holds(2891, awning).
holds(2891, wallsign).

sample(2892).

sample(2893).

sample(2894).

sample(2895).

sample(2896).

sample(2897).
holds(2897, hotel).
holds(2897, awning).
holds(2897, wallsign).

sample(2898).
holds(2898, miscindustrial).
holds(2898, truck).

sample(2899).

sample(2900).
holds(2900, hotel).
holds(2900, awning).
holds(2900, wallsign).

sample(2901).

sample(2902).

sample(2903).
holds(2903, hotel).
holds(2903, awning).
holds(2903, wallsign).

sample(2904).
holds(2904, miscindustrial).
holds(2904, truck).

sample(2905).

sample(2906).
holds(2906, hotel).
holds(2906, awning).
holds(2906, wallsign).

sample(2907).
holds(2907, miscindustrial).
holds(2907, truck).

sample(2908).

sample(2909).

sample(2910).
holds(2910, miscindustrial).
holds(2910, truck).

sample(2911).

sample(2912).
holds(2912, hotel).
holds(2912, awning).
holds(2912, wallsign).

sample(2913).

sample(2914).

sample(2915).
holds(2915, hotel).
holds(2915, awning).
holds(2915, wallsign).

sample(2916).

sample(2917).

sample(2918).
holds(2918, hotel).
holds(2918, awning).
holds(2918, wallsign).

sample(2919).

sample(2920).

sample(2921).
holds(2921, hotel).
holds(2921, awning).
holds(2921, wallsign).

sample(2922).

sample(2923).

sample(2924).

sample(2925).
holds(2925, miscindustrial).
holds(2925, truck).

sample(2926).

sample(2927).

sample(2928).
holds(2928, miscindustrial).
holds(2928, truck).

sample(2929).

sample(2930).
holds(2930, hotel).
holds(2930, awning).
holds(2930, wallsign).

sample(2931).
holds(2931, miscindustrial).
holds(2931, truck).

sample(2932).

sample(2933).
holds(2933, hotel).
holds(2933, awning).
holds(2933, wallsign).

sample(2934).

sample(2935).

sample(2936).

sample(2937).

sample(2938).

sample(2939).

sample(2940).
holds(2940, miscindustrial).
holds(2940, truck).

sample(2941).

sample(2942).
holds(2942, hotel).
holds(2942, awning).
holds(2942, wallsign).

sample(2943).

sample(2944).

sample(2945).
holds(2945, hotel).
holds(2945, awning).
holds(2945, wallsign).

sample(2946).

sample(2947).

sample(2948).

sample(2949).

sample(2950).

sample(2951).

sample(2952).

sample(2953).

sample(2954).
holds(2954, hotel).
holds(2954, awning).
holds(2954, wallsign).

sample(2955).

sample(2956).

sample(2957).
holds(2957, hotel).
holds(2957, awning).
holds(2957, wallsign).

sample(2958).

sample(2959).

sample(2960).

sample(2961).

sample(2962).

sample(2963).

sample(2964).

sample(2965).

sample(2966).
holds(2966, hotel).
holds(2966, awning).
holds(2966, wallsign).

sample(2967).
holds(2967, miscindustrial).
holds(2967, truck).

sample(2968).

sample(2969).

sample(2970).
holds(2970, miscindustrial).
holds(2970, truck).

sample(2971).

sample(2972).
holds(2972, hotel).
holds(2972, awning).
holds(2972, wallsign).

sample(2973).

sample(2974).

sample(2975).
holds(2975, hotel).
holds(2975, awning).
holds(2975, wallsign).

sample(2976).

sample(2977).

sample(2978).
holds(2978, hotel).
holds(2978, awning).
holds(2978, wallsign).

sample(2979).
holds(2979, miscindustrial).
holds(2979, truck).

sample(2980).

sample(2981).
holds(2981, hotel).
holds(2981, awning).
holds(2981, wallsign).

sample(2982).
holds(2982, miscindustrial).
holds(2982, truck).

sample(2983).

sample(2984).

sample(2985).

sample(2986).

sample(2987).
holds(2987, hotel).
holds(2987, awning).
holds(2987, wallsign).

sample(2988).

sample(2989).

sample(2990).

sample(2991).

sample(2992).

sample(2993).

sample(2994).
holds(2994, miscindustrial).
holds(2994, truck).

sample(2995).

sample(2996).
holds(2996, hotel).
holds(2996, awning).
holds(2996, wallsign).

sample(2997).

sample(2998).

sample(2999).
holds(2999, hotel).
holds(2999, awning).
holds(2999, wallsign).

sample(3000).
holds(3000, miscindustrial).
holds(3000, truck).

sample(3001).

sample(3002).
holds(3002, hotel).
holds(3002, awning).
holds(3002, wallsign).

sample(3003).

sample(3004).

sample(3005).
holds(3005, hotel).
holds(3005, awning).
holds(3005, wallsign).

sample(3006).
holds(3006, miscindustrial).
holds(3006, truck).

sample(3007).

sample(3008).

sample(3009).

sample(3010).

sample(3011).
holds(3011, hotel).
holds(3011, awning).
holds(3011, wallsign).

sample(3012).

sample(3013).

sample(3014).
holds(3014, hotel).
holds(3014, awning).
holds(3014, wallsign).

sample(3015).

sample(3016).

sample(3017).

sample(3018).
holds(3018, miscindustrial).
holds(3018, truck).

sample(3019).

sample(3020).
holds(3020, hotel).
holds(3020, wallsign).

sample(3021).
holds(3021, miscindustrial).
holds(3021, truck).

sample(3022).

sample(3023).
holds(3023, hotel).
holds(3023, awning).
holds(3023, wallsign).

sample(3024).

sample(3025).

sample(3026).
holds(3026, hotel).
holds(3026, awning).
holds(3026, wallsign).

sample(3027).

sample(3028).

sample(3029).

sample(3030).

sample(3031).

sample(3032).
holds(3032, hotel).
holds(3032, awning).
holds(3032, wallsign).

sample(3033).

sample(3034).

sample(3035).
holds(3035, hotel).
holds(3035, awning).
holds(3035, wallsign).

sample(3036).
holds(3036, miscindustrial).
holds(3036, truck).

sample(3037).

sample(3038).

sample(3039).

sample(3040).

sample(3041).
holds(3041, hotel).
holds(3041, awning).
holds(3041, wallsign).

sample(3042).

sample(3043).

sample(3044).
holds(3044, hotel).
holds(3044, awning).
holds(3044, wallsign).

sample(3045).
holds(3045, miscindustrial).
holds(3045, truck).

sample(3046).

sample(3047).
holds(3047, hotel).
holds(3047, awning).
holds(3047, wallsign).

sample(3048).
holds(3048, miscindustrial).
holds(3048, truck).

sample(3049).

sample(3050).

sample(3051).
holds(3051, miscindustrial).
holds(3051, truck).

sample(3052).

sample(3053).
holds(3053, hotel).
holds(3053, awning).
holds(3053, wallsign).

sample(3054).

sample(3055).

sample(3056).

sample(3057).

sample(3058).

sample(3059).

sample(3060).
holds(3060, miscindustrial).
holds(3060, truck).

sample(3061).

sample(3062).
holds(3062, hotel).
holds(3062, awning).
holds(3062, wallsign).

sample(3063).
holds(3063, miscindustrial).
holds(3063, truck).

sample(3064).

sample(3065).
holds(3065, hotel).
holds(3065, awning).
holds(3065, wallsign).

sample(3066).

sample(3067).

sample(3068).
holds(3068, hotel).
holds(3068, awning).
holds(3068, wallsign).

sample(3069).
holds(3069, miscindustrial).
holds(3069, truck).

sample(3070).

sample(3071).

sample(3072).

sample(3073).

sample(3074).

sample(3075).

sample(3076).

sample(3077).
holds(3077, hotel).
holds(3077, awning).
holds(3077, wallsign).

sample(3078).

sample(3079).

sample(3080).
holds(3080, hotel).
holds(3080, awning).
holds(3080, wallsign).

sample(3081).

sample(3082).

sample(3083).

sample(3084).

sample(3085).

sample(3086).
holds(3086, hotel).
holds(3086, awning).
holds(3086, wallsign).

sample(3087).
holds(3087, miscindustrial).
holds(3087, truck).

sample(3088).

sample(3089).
holds(3089, hotel).
holds(3089, awning).
holds(3089, wallsign).

sample(3090).
holds(3090, miscindustrial).
holds(3090, truck).

sample(3091).

sample(3092).

sample(3093).
holds(3093, miscindustrial).
holds(3093, truck).

sample(3094).

sample(3095).
holds(3095, hotel).
holds(3095, awning).
holds(3095, wallsign).

sample(3096).
holds(3096, miscindustrial).
holds(3096, truck).

sample(3097).

sample(3098).
holds(3098, hotel).
holds(3098, wallsign).

sample(3099).

sample(3100).

sample(3101).
holds(3101, hotel).
holds(3101, awning).
holds(3101, wallsign).

sample(3102).
holds(3102, miscindustrial).
holds(3102, truck).

sample(3103).

sample(3104).
holds(3104, hotel).
holds(3104, awning).
holds(3104, wallsign).

sample(3105).

sample(3106).

sample(3107).
holds(3107, hotel).
holds(3107, awning).
holds(3107, wallsign).

sample(3108).

sample(3109).

sample(3110).

sample(3111).

sample(3112).

sample(3113).

sample(3114).
holds(3114, miscindustrial).
holds(3114, truck).

sample(3115).

sample(3116).
holds(3116, hotel).
holds(3116, awning).
holds(3116, wallsign).

sample(3117).

sample(3118).

sample(3119).
holds(3119, hotel).
holds(3119, awning).
holds(3119, wallsign).

sample(3120).

sample(3121).

sample(3122).
holds(3122, hotel).
holds(3122, awning).
holds(3122, wallsign).

sample(3123).
holds(3123, miscindustrial).
holds(3123, truck).

sample(3124).

sample(3125).

sample(3126).
holds(3126, miscindustrial).
holds(3126, truck).

sample(3127).

sample(3128).
holds(3128, hotel).
holds(3128, awning).
holds(3128, wallsign).

sample(3129).

sample(3130).

sample(3131).
holds(3131, hotel).
holds(3131, awning).
holds(3131, wallsign).

sample(3132).
holds(3132, miscindustrial).
holds(3132, truck).

sample(3133).

sample(3134).

sample(3135).
holds(3135, miscindustrial).
holds(3135, truck).

sample(3136).

sample(3137).
holds(3137, hotel).
holds(3137, awning).
holds(3137, wallsign).

sample(3138).

sample(3139).

sample(3140).

sample(3141).
holds(3141, miscindustrial).
holds(3141, truck).

sample(3142).

sample(3143).

sample(3144).
holds(3144, miscindustrial).
holds(3144, truck).

sample(3145).

sample(3146).
holds(3146, hotel).
holds(3146, awning).
holds(3146, wallsign).

sample(3147).
holds(3147, miscindustrial).
holds(3147, truck).

sample(3148).

sample(3149).

sample(3150).

sample(3151).

sample(3152).
holds(3152, hotel).
holds(3152, awning).
holds(3152, wallsign).

sample(3153).

sample(3154).

sample(3155).

sample(3156).

sample(3157).

sample(3158).
holds(3158, hotel).
holds(3158, awning).
holds(3158, wallsign).

sample(3159).

sample(3160).

sample(3161).
holds(3161, hotel).
holds(3161, awning).
holds(3161, wallsign).

sample(3162).

sample(3163).

sample(3164).

sample(3165).
holds(3165, miscindustrial).
holds(3165, truck).

sample(3166).

sample(3167).

sample(3168).

sample(3169).

sample(3170).
holds(3170, hotel).
holds(3170, awning).
holds(3170, wallsign).

sample(3171).
holds(3171, miscindustrial).
holds(3171, truck).

sample(3172).

sample(3173).

sample(3174).
holds(3174, miscindustrial).
holds(3174, truck).

sample(3175).

sample(3176).
holds(3176, hotel).
holds(3176, awning).
holds(3176, wallsign).

sample(3177).

sample(3178).

sample(3179).

sample(3180).
holds(3180, miscindustrial).
holds(3180, truck).

sample(3181).

sample(3182).

sample(3183).

sample(3184).

sample(3185).

sample(3186).

sample(3187).

sample(3188).
holds(3188, hotel).
holds(3188, awning).
holds(3188, wallsign).

sample(3189).

sample(3190).

sample(3191).
holds(3191, hotel).
holds(3191, awning).
holds(3191, wallsign).

sample(3192).

sample(3193).

sample(3194).
holds(3194, hotel).
holds(3194, awning).
holds(3194, wallsign).

sample(3195).

sample(3196).

sample(3197).
holds(3197, hotel).
holds(3197, awning).
holds(3197, wallsign).

sample(3198).

sample(3199).

sample(3200).

sample(3201).

sample(3202).

sample(3203).
holds(3203, hotel).
holds(3203, awning).
holds(3203, wallsign).

sample(3204).

sample(3205).

sample(3206).
holds(3206, hotel).
holds(3206, awning).
holds(3206, wallsign).

sample(3207).

sample(3208).

sample(3209).

sample(3210).

sample(3211).

sample(3212).
holds(3212, hotel).
holds(3212, awning).
holds(3212, wallsign).

sample(3213).
holds(3213, miscindustrial).
holds(3213, truck).

sample(3214).

sample(3215).
holds(3215, hotel).
holds(3215, awning).
holds(3215, wallsign).

sample(3216).
holds(3216, miscindustrial).
holds(3216, truck).

sample(3217).

sample(3218).
holds(3218, hotel).
holds(3218, awning).
holds(3218, wallsign).

sample(3219).
holds(3219, miscindustrial).
holds(3219, truck).

sample(3220).

sample(3221).
holds(3221, hotel).
holds(3221, awning).
holds(3221, wallsign).

sample(3222).

sample(3223).

sample(3224).
holds(3224, hotel).
holds(3224, awning).
holds(3224, wallsign).

sample(3225).
holds(3225, miscindustrial).
holds(3225, truck).

sample(3226).

sample(3227).
holds(3227, hotel).
holds(3227, awning).
holds(3227, wallsign).

sample(3228).

sample(3229).

sample(3230).

sample(3231).
holds(3231, miscindustrial).
holds(3231, truck).

sample(3232).

sample(3233).
holds(3233, hotel).
holds(3233, awning).
holds(3233, wallsign).

sample(3234).
holds(3234, miscindustrial).

sample(3235).

sample(3236).

sample(3237).

sample(3238).

sample(3239).

sample(3240).

sample(3241).

sample(3242).
holds(3242, hotel).
holds(3242, awning).
holds(3242, wallsign).

sample(3243).

sample(3244).

sample(3245).
holds(3245, hotel).
holds(3245, awning).
holds(3245, wallsign).

sample(3246).
holds(3246, miscindustrial).
holds(3246, truck).

sample(3247).

sample(3248).
holds(3248, hotel).
holds(3248, awning).
holds(3248, wallsign).

sample(3249).

sample(3250).

sample(3251).
holds(3251, hotel).
holds(3251, awning).
holds(3251, wallsign).

sample(3252).

sample(3253).

sample(3254).

sample(3255).

sample(3256).

sample(3257).

sample(3258).
holds(3258, miscindustrial).
holds(3258, truck).

sample(3259).

sample(3260).
holds(3260, hotel).
holds(3260, awning).
holds(3260, wallsign).

sample(3261).
holds(3261, miscindustrial).
holds(3261, truck).

sample(3262).

sample(3263).
holds(3263, hotel).
holds(3263, awning).
holds(3263, wallsign).

sample(3264).

sample(3265).

sample(3266).

sample(3267).

sample(3268).

sample(3269).

sample(3270).
holds(3270, miscindustrial).
holds(3270, truck).

sample(3271).

sample(3272).
holds(3272, hotel).
holds(3272, awning).
holds(3272, wallsign).

sample(3273).

sample(3274).

sample(3275).
holds(3275, hotel).
holds(3275, awning).
holds(3275, wallsign).

sample(3276).
holds(3276, miscindustrial).
holds(3276, truck).

sample(3277).

sample(3278).
holds(3278, hotel).
holds(3278, awning).
holds(3278, wallsign).

sample(3279).
holds(3279, miscindustrial).
holds(3279, truck).

sample(3280).

sample(3281).

sample(3282).

sample(3283).

sample(3284).

sample(3285).

sample(3286).

sample(3287).
holds(3287, hotel).
holds(3287, awning).
holds(3287, wallsign).

sample(3288).
holds(3288, miscindustrial).
holds(3288, truck).

sample(3289).

sample(3290).

sample(3291).
holds(3291, miscindustrial).
holds(3291, truck).

sample(3292).

sample(3293).

sample(3294).
holds(3294, miscindustrial).
holds(3294, truck).

sample(3295).

sample(3296).

sample(3297).

sample(3298).

sample(3299).
holds(3299, hotel).
holds(3299, awning).
holds(3299, wallsign).

sample(3300).

sample(3301).

sample(3302).
holds(3302, hotel).
holds(3302, awning).
holds(3302, wallsign).

sample(3303).

sample(3304).

sample(3305).

sample(3306).

sample(3307).

sample(3308).

sample(3309).

sample(3310).

sample(3311).

sample(3312).

sample(3313).

sample(3314).
holds(3314, hotel).
holds(3314, awning).
holds(3314, wallsign).

sample(3315).
holds(3315, miscindustrial).
holds(3315, truck).

sample(3316).

sample(3317).
holds(3317, hotel).
holds(3317, awning).
holds(3317, wallsign).

sample(3318).
holds(3318, miscindustrial).
holds(3318, truck).

sample(3319).

sample(3320).

sample(3321).
holds(3321, miscindustrial).
holds(3321, truck).

sample(3322).

sample(3323).

sample(3324).

sample(3325).

sample(3326).
holds(3326, hotel).
holds(3326, awning).
holds(3326, wallsign).

sample(3327).
holds(3327, miscindustrial).
holds(3327, truck).

sample(3328).

sample(3329).

sample(3330).

sample(3331).

sample(3332).

sample(3333).
holds(3333, miscindustrial).
holds(3333, truck).

sample(3334).

sample(3335).
holds(3335, hotel).
holds(3335, awning).
holds(3335, wallsign).

sample(3336).

sample(3337).

sample(3338).
holds(3338, hotel).
holds(3338, awning).
holds(3338, wallsign).

sample(3339).
holds(3339, miscindustrial).
holds(3339, truck).

sample(3340).

sample(3341).

sample(3342).

sample(3343).

sample(3344).
holds(3344, hotel).
holds(3344, awning).
holds(3344, wallsign).

sample(3345).

sample(3346).

sample(3347).
holds(3347, hotel).
holds(3347, wallsign).

sample(3348).

sample(3349).

sample(3350).

sample(3351).

sample(3352).

sample(3353).
holds(3353, hotel).
holds(3353, awning).
holds(3353, wallsign).

sample(3354).
holds(3354, miscindustrial).
holds(3354, truck).

sample(3355).

sample(3356).
holds(3356, hotel).
holds(3356, awning).
holds(3356, wallsign).

sample(3357).

sample(3358).

sample(3359).
holds(3359, hotel).
holds(3359, awning).
holds(3359, wallsign).

sample(3360).

sample(3361).

sample(3362).

sample(3363).
holds(3363, miscindustrial).
holds(3363, truck).

sample(3364).

sample(3365).
holds(3365, hotel).
holds(3365, awning).
holds(3365, wallsign).

sample(3366).

sample(3367).

sample(3368).

sample(3369).
holds(3369, miscindustrial).
holds(3369, truck).

sample(3370).

sample(3371).

sample(3372).

sample(3373).

sample(3374).
holds(3374, hotel).
holds(3374, awning).
holds(3374, wallsign).

sample(3375).

sample(3376).

sample(3377).
holds(3377, hotel).
holds(3377, awning).
holds(3377, wallsign).

sample(3378).

sample(3379).

sample(3380).

sample(3381).

sample(3382).

sample(3383).
holds(3383, hotel).
holds(3383, awning).
holds(3383, wallsign).

sample(3384).

sample(3385).

sample(3386).

sample(3387).

sample(3388).

sample(3389).

sample(3390).
holds(3390, miscindustrial).
holds(3390, truck).

sample(3391).

sample(3392).
holds(3392, hotel).
holds(3392, awning).
holds(3392, wallsign).

sample(3393).

sample(3394).

sample(3395).

sample(3396).
holds(3396, miscindustrial).
holds(3396, truck).

sample(3397).

sample(3398).
holds(3398, hotel).
holds(3398, awning).
holds(3398, wallsign).

sample(3399).
holds(3399, miscindustrial).
holds(3399, truck).

sample(3400).

sample(3401).

sample(3402).
holds(3402, miscindustrial).
holds(3402, truck).

sample(3403).

sample(3404).
holds(3404, hotel).
holds(3404, awning).
holds(3404, wallsign).

sample(3405).

sample(3406).

sample(3407).
holds(3407, hotel).
holds(3407, awning).
holds(3407, wallsign).

sample(3408).

sample(3409).

sample(3410).
holds(3410, hotel).
holds(3410, awning).
holds(3410, wallsign).

sample(3411).
holds(3411, miscindustrial).
holds(3411, truck).

sample(3412).

sample(3413).

sample(3414).
holds(3414, miscindustrial).
holds(3414, truck).

sample(3415).

sample(3416).
holds(3416, hotel).
holds(3416, awning).
holds(3416, wallsign).

sample(3417).
holds(3417, miscindustrial).
holds(3417, truck).

sample(3418).

sample(3419).
holds(3419, hotel).
holds(3419, awning).
holds(3419, wallsign).

sample(3420).

sample(3421).

sample(3422).

sample(3423).
holds(3423, miscindustrial).
holds(3423, truck).

sample(3424).

sample(3425).
holds(3425, hotel).
holds(3425, awning).
holds(3425, wallsign).

sample(3426).
holds(3426, miscindustrial).
holds(3426, truck).

sample(3427).

sample(3428).
holds(3428, hotel).
holds(3428, awning).
holds(3428, wallsign).

sample(3429).
holds(3429, miscindustrial).
holds(3429, truck).

sample(3430).

sample(3431).
holds(3431, hotel).
holds(3431, awning).
holds(3431, wallsign).

sample(3432).

sample(3433).

sample(3434).

sample(3435).

sample(3436).

sample(3437).
holds(3437, hotel).
holds(3437, awning).
holds(3437, wallsign).

sample(3438).
holds(3438, miscindustrial).
holds(3438, truck).

sample(3439).

sample(3440).

sample(3441).
holds(3441, miscindustrial).
holds(3441, truck).

sample(3442).

sample(3443).
holds(3443, hotel).
holds(3443, awning).
holds(3443, wallsign).

sample(3444).
holds(3444, miscindustrial).
holds(3444, truck).

sample(3445).

sample(3446).
holds(3446, hotel).
holds(3446, awning).
holds(3446, wallsign).

sample(3447).

sample(3448).

sample(3449).

sample(3450).
holds(3450, miscindustrial).
holds(3450, truck).

sample(3451).

sample(3452).

sample(3453).
holds(3453, miscindustrial).
holds(3453, truck).

sample(3454).

sample(3455).

sample(3456).
holds(3456, miscindustrial).
holds(3456, truck).

sample(3457).

sample(3458).
holds(3458, hotel).
holds(3458, awning).
holds(3458, wallsign).

sample(3459).
holds(3459, miscindustrial).
holds(3459, truck).

sample(3460).

sample(3461).

sample(3462).

sample(3463).

sample(3464).
holds(3464, hotel).
holds(3464, awning).
holds(3464, wallsign).

sample(3465).

sample(3466).

sample(3467).

sample(3468).

sample(3469).

sample(3470).
holds(3470, hotel).
holds(3470, awning).
holds(3470, wallsign).

sample(3471).

sample(3472).

sample(3473).
holds(3473, hotel).
holds(3473, awning).
holds(3473, wallsign).

sample(3474).

sample(3475).

sample(3476).

sample(3477).

sample(3478).

sample(3479).

sample(3480).
holds(3480, miscindustrial).
holds(3480, truck).

sample(3481).

sample(3482).
holds(3482, hotel).
holds(3482, awning).
holds(3482, wallsign).

sample(3483).
holds(3483, miscindustrial).
holds(3483, truck).

sample(3484).

sample(3485).

sample(3486).

sample(3487).

sample(3488).

sample(3489).

sample(3490).

sample(3491).
holds(3491, hotel).
holds(3491, awning).
holds(3491, wallsign).

sample(3492).

sample(3493).

sample(3494).
holds(3494, hotel).
holds(3494, awning).
holds(3494, wallsign).

sample(3495).

sample(3496).

sample(3497).
holds(3497, hotel).
holds(3497, awning).
holds(3497, wallsign).

sample(3498).

sample(3499).

sample(3500).
holds(3500, hotel).
holds(3500, awning).
holds(3500, wallsign).

sample(3501).
holds(3501, miscindustrial).
holds(3501, truck).

sample(3502).

sample(3503).
holds(3503, hotel).
holds(3503, awning).
holds(3503, wallsign).

sample(3504).
holds(3504, miscindustrial).
holds(3504, truck).

sample(3505).

sample(3506).
holds(3506, hotel).
holds(3506, awning).
holds(3506, wallsign).

sample(3507).

sample(3508).

sample(3509).

sample(3510).

sample(3511).

sample(3512).
holds(3512, hotel).
holds(3512, awning).
holds(3512, wallsign).

sample(3513).

sample(3514).

sample(3515).
holds(3515, hotel).
holds(3515, awning).
holds(3515, wallsign).

sample(3516).

sample(3517).

sample(3518).

sample(3519).

sample(3520).

sample(3521).
holds(3521, hotel).
holds(3521, awning).
holds(3521, wallsign).

sample(3522).

sample(3523).

sample(3524).
holds(3524, hotel).
holds(3524, awning).
holds(3524, wallsign).

sample(3525).

sample(3526).

sample(3527).

sample(3528).

sample(3529).

sample(3530).
holds(3530, hotel).
holds(3530, awning).
holds(3530, wallsign).

sample(3531).
holds(3531, miscindustrial).
holds(3531, truck).

sample(3532).

sample(3533).

sample(3534).
holds(3534, miscindustrial).
holds(3534, truck).

sample(3535).

sample(3536).
holds(3536, hotel).
holds(3536, awning).
holds(3536, wallsign).

sample(3537).
holds(3537, miscindustrial).
holds(3537, truck).

sample(3538).

sample(3539).

sample(3540).
holds(3540, miscindustrial).
holds(3540, truck).

sample(3541).

sample(3542).
holds(3542, hotel).
holds(3542, awning).
holds(3542, wallsign).

sample(3543).

sample(3544).

sample(3545).
holds(3545, hotel).
holds(3545, awning).
holds(3545, wallsign).

sample(3546).
holds(3546, miscindustrial).
holds(3546, truck).

sample(3547).

sample(3548).
holds(3548, hotel).
holds(3548, awning).
holds(3548, wallsign).

sample(3549).
holds(3549, miscindustrial).
holds(3549, truck).

sample(3550).

sample(3551).
holds(3551, hotel).
holds(3551, awning).
holds(3551, wallsign).

sample(3552).

sample(3553).

sample(3554).

sample(3555).
holds(3555, miscindustrial).
holds(3555, truck).

sample(3556).

sample(3557).

sample(3558).
holds(3558, miscindustrial).
holds(3558, truck).

sample(3559).

sample(3560).
holds(3560, hotel).
holds(3560, awning).
holds(3560, wallsign).

sample(3561).
holds(3561, miscindustrial).
holds(3561, truck).

sample(3562).

sample(3563).
holds(3563, hotel).
holds(3563, awning).
holds(3563, wallsign).

sample(3564).
holds(3564, miscindustrial).
holds(3564, truck).

sample(3565).

sample(3566).
holds(3566, hotel).
holds(3566, awning).
holds(3566, wallsign).

sample(3567).

sample(3568).

sample(3569).

sample(3570).
holds(3570, miscindustrial).
holds(3570, truck).

sample(3571).

sample(3572).

sample(3573).
holds(3573, miscindustrial).
holds(3573, truck).

sample(3574).

sample(3575).
holds(3575, hotel).
holds(3575, awning).
holds(3575, wallsign).

sample(3576).

sample(3577).

sample(3578).
holds(3578, hotel).
holds(3578, awning).
holds(3578, wallsign).

sample(3579).

sample(3580).

sample(3581).

sample(3582).

sample(3583).

sample(3584).
holds(3584, hotel).
holds(3584, awning).
holds(3584, wallsign).

sample(3585).

sample(3586).

sample(3587).
holds(3587, hotel).
holds(3587, awning).
holds(3587, wallsign).

sample(3588).

sample(3589).

sample(3590).

sample(3591).

sample(3592).

sample(3593).

sample(3594).

sample(3595).

sample(3596).

sample(3597).
holds(3597, miscindustrial).
holds(3597, truck).

sample(3598).

sample(3599).

sample(3600).
holds(3600, miscindustrial).
holds(3600, truck).

sample(3601).

sample(3602).
holds(3602, hotel).
holds(3602, awning).
holds(3602, wallsign).

sample(3603).
holds(3603, miscindustrial).
holds(3603, truck).

sample(3604).

sample(3605).
holds(3605, hotel).
holds(3605, awning).
holds(3605, wallsign).

sample(3606).

sample(3607).

sample(3608).

sample(3609).

sample(3610).

sample(3611).
holds(3611, hotel).
holds(3611, awning).
holds(3611, wallsign).

sample(3612).
holds(3612, miscindustrial).
holds(3612, truck).

sample(3613).

sample(3614).
holds(3614, hotel).
holds(3614, awning).
holds(3614, wallsign).

sample(3615).
holds(3615, miscindustrial).
holds(3615, truck).

sample(3616).

sample(3617).
holds(3617, hotel).
holds(3617, awning).
holds(3617, wallsign).

sample(3618).
holds(3618, miscindustrial).
holds(3618, truck).

sample(3619).

sample(3620).

sample(3621).
holds(3621, miscindustrial).
holds(3621, truck).

sample(3622).

sample(3623).

sample(3624).
holds(3624, miscindustrial).
holds(3624, truck).

sample(3625).

sample(3626).

sample(3627).
holds(3627, miscindustrial).
holds(3627, truck).

sample(3628).

sample(3629).

sample(3630).

sample(3631).

sample(3632).

sample(3633).
holds(3633, miscindustrial).
holds(3633, truck).

sample(3634).

sample(3635).
holds(3635, hotel).
holds(3635, awning).
holds(3635, wallsign).

sample(3636).

sample(3637).

sample(3638).

sample(3639).
holds(3639, miscindustrial).
holds(3639, truck).

sample(3640).

sample(3641).
holds(3641, hotel).
holds(3641, awning).
holds(3641, wallsign).

sample(3642).

sample(3643).

sample(3644).

sample(3645).
holds(3645, miscindustrial).
holds(3645, truck).

sample(3646).

sample(3647).

sample(3648).

sample(3649).

sample(3650).

sample(3651).
holds(3651, miscindustrial).
holds(3651, truck).

sample(3652).

sample(3653).
holds(3653, hotel).
holds(3653, awning).
holds(3653, wallsign).

sample(3654).
holds(3654, miscindustrial).
holds(3654, truck).

sample(3655).

sample(3656).

sample(3657).
holds(3657, miscindustrial).
holds(3657, truck).

sample(3658).

sample(3659).
holds(3659, hotel).
holds(3659, awning).
holds(3659, wallsign).

sample(3660).

sample(3661).

sample(3662).

sample(3663).

sample(3664).

sample(3665).
holds(3665, hotel).
holds(3665, awning).
holds(3665, wallsign).

sample(3666).
holds(3666, miscindustrial).
holds(3666, truck).

sample(3667).

sample(3668).

sample(3669).

sample(3670).

sample(3671).

sample(3672).
holds(3672, miscindustrial).
holds(3672, truck).

sample(3673).

sample(3674).
holds(3674, hotel).
holds(3674, awning).
holds(3674, wallsign).

sample(3675).

sample(3676).

sample(3677).
holds(3677, hotel).
holds(3677, awning).
holds(3677, wallsign).

sample(3678).
holds(3678, miscindustrial).
holds(3678, truck).

sample(3679).

sample(3680).
holds(3680, hotel).
holds(3680, awning).
holds(3680, wallsign).

sample(3681).
holds(3681, miscindustrial).
holds(3681, truck).

sample(3682).

sample(3683).

sample(3684).

sample(3685).

sample(3686).

sample(3687).
holds(3687, miscindustrial).
holds(3687, truck).

sample(3688).

sample(3689).
holds(3689, hotel).
holds(3689, awning).
holds(3689, wallsign).

sample(3690).

sample(3691).

sample(3692).

sample(3693).

sample(3694).

sample(3695).

sample(3696).
holds(3696, miscindustrial).
holds(3696, truck).

sample(3697).

sample(3698).
holds(3698, hotel).
holds(3698, awning).
holds(3698, wallsign).

sample(3699).
holds(3699, miscindustrial).
holds(3699, truck).

sample(3700).

sample(3701).

sample(3702).

sample(3703).

sample(3704).

sample(3705).

sample(3706).

sample(3707).
holds(3707, hotel).
holds(3707, awning).
holds(3707, wallsign).

sample(3708).
holds(3708, miscindustrial).
holds(3708, truck).

sample(3709).

sample(3710).
holds(3710, hotel).
holds(3710, awning).
holds(3710, wallsign).

sample(3711).

sample(3712).

sample(3713).
holds(3713, hotel).
holds(3713, awning).
holds(3713, wallsign).

sample(3714).
holds(3714, miscindustrial).
holds(3714, truck).

sample(3715).

sample(3716).
holds(3716, hotel).
holds(3716, awning).
holds(3716, wallsign).

sample(3717).

sample(3718).

sample(3719).

sample(3720).

sample(3721).

sample(3722).

sample(3723).

sample(3724).

sample(3725).
holds(3725, hotel).
holds(3725, awning).
holds(3725, wallsign).

sample(3726).

sample(3727).

sample(3728).
holds(3728, hotel).
holds(3728, awning).
holds(3728, wallsign).

sample(3729).

sample(3730).

sample(3731).

sample(3732).

sample(3733).

sample(3734).
holds(3734, hotel).
holds(3734, awning).
holds(3734, wallsign).

sample(3735).

sample(3736).

sample(3737).

sample(3738).

sample(3739).

sample(3740).
holds(3740, hotel).
holds(3740, awning).
holds(3740, wallsign).

sample(3741).
holds(3741, miscindustrial).
holds(3741, truck).

sample(3742).

sample(3743).
holds(3743, hotel).
holds(3743, awning).
holds(3743, wallsign).

sample(3744).
holds(3744, miscindustrial).
holds(3744, truck).

sample(3745).

sample(3746).
holds(3746, hotel).
holds(3746, awning).
holds(3746, wallsign).

sample(3747).
holds(3747, miscindustrial).
holds(3747, truck).

sample(3748).

sample(3749).
holds(3749, hotel).
holds(3749, awning).
holds(3749, wallsign).

sample(3750).
holds(3750, miscindustrial).
holds(3750, truck).

sample(3751).

sample(3752).

sample(3753).

sample(3754).

sample(3755).
holds(3755, hotel).
holds(3755, awning).
holds(3755, wallsign).

sample(3756).
holds(3756, miscindustrial).
holds(3756, truck).

sample(3757).

sample(3758).
holds(3758, hotel).
holds(3758, awning).
holds(3758, wallsign).

sample(3759).
holds(3759, miscindustrial).
holds(3759, truck).

sample(3760).

sample(3761).

sample(3762).

sample(3763).

sample(3764).
holds(3764, hotel).
holds(3764, awning).
holds(3764, wallsign).

sample(3765).

sample(3766).

sample(3767).
holds(3767, hotel).
holds(3767, awning).
holds(3767, wallsign).

sample(3768).
holds(3768, miscindustrial).
holds(3768, truck).

sample(3769).

sample(3770).

sample(3771).

sample(3772).

sample(3773).
holds(3773, hotel).
holds(3773, awning).
holds(3773, wallsign).

sample(3774).

sample(3775).

sample(3776).
holds(3776, hotel).
holds(3776, awning).
holds(3776, wallsign).

sample(3777).

sample(3778).

sample(3779).

sample(3780).
holds(3780, miscindustrial).
holds(3780, truck).

sample(3781).

sample(3782).

sample(3783).
holds(3783, miscindustrial).
holds(3783, truck).

sample(3784).

sample(3785).
holds(3785, hotel).
holds(3785, awning).
holds(3785, wallsign).

sample(3786).
holds(3786, miscindustrial).
holds(3786, truck).

sample(3787).

sample(3788).
holds(3788, hotel).
holds(3788, awning).
holds(3788, wallsign).

sample(3789).

sample(3790).

sample(3791).

sample(3792).
holds(3792, miscindustrial).
holds(3792, truck).

sample(3793).

sample(3794).

sample(3795).

sample(3796).

sample(3797).
holds(3797, hotel).
holds(3797, awning).
holds(3797, wallsign).

sample(3798).
holds(3798, miscindustrial).
holds(3798, truck).

sample(3799).

sample(3800).
holds(3800, hotel).
holds(3800, awning).
holds(3800, wallsign).

sample(3801).
holds(3801, miscindustrial).
holds(3801, truck).

sample(3802).

sample(3803).

sample(3804).

sample(3805).

sample(3806).
holds(3806, hotel).
holds(3806, awning).
holds(3806, wallsign).

sample(3807).
holds(3807, miscindustrial).
holds(3807, truck).

sample(3808).

sample(3809).
holds(3809, hotel).
holds(3809, awning).
holds(3809, wallsign).

sample(3810).
holds(3810, miscindustrial).
holds(3810, truck).

sample(3811).

sample(3812).

sample(3813).
holds(3813, miscindustrial).
holds(3813, truck).

sample(3814).

sample(3815).

sample(3816).

sample(3817).

sample(3818).
holds(3818, hotel).
holds(3818, awning).
holds(3818, wallsign).

sample(3819).
holds(3819, miscindustrial).
holds(3819, truck).

sample(3820).

sample(3821).
holds(3821, hotel).
holds(3821, awning).
holds(3821, wallsign).

sample(3822).
holds(3822, miscindustrial).
holds(3822, truck).

sample(3823).

sample(3824).

sample(3825).
holds(3825, miscindustrial).
holds(3825, truck).

sample(3826).

sample(3827).
holds(3827, hotel).
holds(3827, awning).
holds(3827, wallsign).

sample(3828).
holds(3828, miscindustrial).
holds(3828, truck).

sample(3829).

sample(3830).

sample(3831).
holds(3831, miscindustrial).
holds(3831, truck).

sample(3832).

sample(3833).
holds(3833, hotel).
holds(3833, awning).
holds(3833, wallsign).

sample(3834).

sample(3835).

sample(3836).
holds(3836, hotel).
holds(3836, awning).
holds(3836, wallsign).

sample(3837).

sample(3838).

sample(3839).
holds(3839, hotel).
holds(3839, awning).
holds(3839, wallsign).

sample(3840).
holds(3840, miscindustrial).
holds(3840, truck).

sample(3841).

sample(3842).
holds(3842, hotel).
holds(3842, awning).
holds(3842, wallsign).

sample(3843).
holds(3843, miscindustrial).
holds(3843, truck).

sample(3844).

sample(3845).

sample(3846).

sample(3847).

sample(3848).
holds(3848, hotel).
holds(3848, wallsign).

sample(3849).

sample(3850).

sample(3851).

sample(3852).
holds(3852, miscindustrial).
holds(3852, truck).

sample(3853).

sample(3854).
holds(3854, hotel).
holds(3854, awning).
holds(3854, wallsign).

sample(3855).
holds(3855, miscindustrial).
holds(3855, truck).

sample(3856).

sample(3857).
holds(3857, hotel).
holds(3857, awning).
holds(3857, wallsign).

sample(3858).

sample(3859).

sample(3860).

sample(3861).

sample(3862).

sample(3863).
holds(3863, hotel).
holds(3863, awning).
holds(3863, wallsign).

sample(3864).
holds(3864, miscindustrial).
holds(3864, truck).

sample(3865).

sample(3866).

sample(3867).
holds(3867, miscindustrial).
holds(3867, truck).

sample(3868).

sample(3869).

sample(3870).
holds(3870, miscindustrial).
holds(3870, truck).

sample(3871).

sample(3872).

sample(3873).
holds(3873, miscindustrial).
holds(3873, truck).

sample(3874).

sample(3875).
holds(3875, hotel).
holds(3875, awning).
holds(3875, wallsign).

sample(3876).

sample(3877).

sample(3878).

sample(3879).

sample(3880).

sample(3881).

sample(3882).
holds(3882, miscindustrial).
holds(3882, truck).

sample(3883).

sample(3884).

sample(3885).
holds(3885, miscindustrial).
holds(3885, truck).

sample(3886).

sample(3887).

sample(3888).

sample(3889).

sample(3890).
holds(3890, hotel).
holds(3890, awning).
holds(3890, wallsign).

sample(3891).

sample(3892).

sample(3893).
holds(3893, hotel).
holds(3893, awning).
holds(3893, wallsign).

sample(3894).

sample(3895).

sample(3896).

sample(3897).
holds(3897, miscindustrial).
holds(3897, truck).

sample(3898).

sample(3899).
holds(3899, hotel).
holds(3899, awning).
holds(3899, wallsign).

sample(3900).

sample(3901).

sample(3902).
holds(3902, hotel).
holds(3902, wallsign).

sample(3903).

sample(3904).

sample(3905).

sample(3906).
holds(3906, miscindustrial).
holds(3906, truck).

sample(3907).

sample(3908).

sample(3909).
holds(3909, miscindustrial).
holds(3909, truck).

sample(3910).

sample(3911).
holds(3911, hotel).
holds(3911, awning).
holds(3911, wallsign).

sample(3912).
holds(3912, miscindustrial).
holds(3912, truck).

sample(3913).

sample(3914).

sample(3915).

sample(3916).

sample(3917).
holds(3917, hotel).
holds(3917, awning).
holds(3917, wallsign).

sample(3918).

sample(3919).

sample(3920).

sample(3921).
holds(3921, miscindustrial).
holds(3921, truck).

sample(3922).

sample(3923).
holds(3923, hotel).
holds(3923, awning).
holds(3923, wallsign).

sample(3924).
holds(3924, miscindustrial).
holds(3924, truck).

sample(3925).

sample(3926).

sample(3927).

sample(3928).

sample(3929).

sample(3930).
holds(3930, miscindustrial).
holds(3930, truck).

sample(3931).

sample(3932).
holds(3932, hotel).
holds(3932, awning).
holds(3932, wallsign).

sample(3933).
holds(3933, miscindustrial).
holds(3933, truck).

sample(3934).

sample(3935).
holds(3935, hotel).
holds(3935, awning).
holds(3935, wallsign).

sample(3936).

sample(3937).

sample(3938).
holds(3938, hotel).
holds(3938, awning).
holds(3938, wallsign).

sample(3939).
holds(3939, miscindustrial).
holds(3939, truck).

sample(3940).

sample(3941).
holds(3941, hotel).
holds(3941, wallsign).

sample(3942).

sample(3943).

sample(3944).

sample(3945).
holds(3945, miscindustrial).
holds(3945, truck).

sample(3946).

sample(3947).
holds(3947, hotel).
holds(3947, awning).
holds(3947, wallsign).

sample(3948).
holds(3948, miscindustrial).
holds(3948, truck).

sample(3949).

sample(3950).
holds(3950, hotel).
holds(3950, awning).
holds(3950, wallsign).

sample(3951).

sample(3952).

sample(3953).
holds(3953, hotel).
holds(3953, awning).
holds(3953, wallsign).

sample(3954).

sample(3955).

sample(3956).
holds(3956, hotel).
holds(3956, awning).
holds(3956, wallsign).

sample(3957).
holds(3957, miscindustrial).
holds(3957, truck).

sample(3958).

sample(3959).

sample(3960).

sample(3961).

sample(3962).

sample(3963).
holds(3963, miscindustrial).
holds(3963, truck).

sample(3964).

sample(3965).
holds(3965, hotel).
holds(3965, awning).
holds(3965, wallsign).

sample(3966).

sample(3967).

sample(3968).
holds(3968, hotel).
holds(3968, awning).
holds(3968, wallsign).

sample(3969).

sample(3970).

sample(3971).
holds(3971, hotel).
holds(3971, awning).
holds(3971, wallsign).

sample(3972).

sample(3973).

sample(3974).
holds(3974, hotel).
holds(3974, awning).
holds(3974, wallsign).

sample(3975).
holds(3975, miscindustrial).
holds(3975, truck).

sample(3976).

sample(3977).
holds(3977, hotel).
holds(3977, awning).
holds(3977, wallsign).

sample(3978).

sample(3979).

sample(3980).

sample(3981).
holds(3981, miscindustrial).
holds(3981, truck).

sample(3982).

sample(3983).
holds(3983, hotel).
holds(3983, awning).
holds(3983, wallsign).

sample(3984).

sample(3985).

sample(3986).
holds(3986, hotel).
holds(3986, awning).
holds(3986, wallsign).

sample(3987).

sample(3988).

sample(3989).

sample(3990).

sample(3991).

sample(3992).
holds(3992, hotel).
holds(3992, awning).
holds(3992, wallsign).

sample(3993).

sample(3994).

sample(3995).

sample(3996).

sample(3997).

sample(3998).
holds(3998, hotel).
holds(3998, awning).
holds(3998, wallsign).

sample(3999).
holds(3999, miscindustrial).
holds(3999, truck).

