sample(0).
holds(0, commercial).
holds(0, hotel).
holds(0, restaurant).
holds(0, store).
holds(0, misccommercial).
holds(0, window).
holds(0, awning).
holds(0, billboard).
holds(0, sign).
holds(0, table).
holds(0, wallsign).
holds(0, truck).

sample(1).
holds(1, industrial).
holds(1, powerplant).
holds(1, door).
holds(1, awning).
holds(1, chimney).
holds(1, pipe).
holds(1, car).

sample(2).
holds(2, residential).
holds(2, miscresidential).
holds(2, door).
holds(2, awning).
holds(2, sign).
holds(2, tiledroof).
holds(2, tiledrooftop).
holds(2, tiledroofbottom).

sample(3).
holds(3, commercial).
holds(3, cafe).
holds(3, hotel).
holds(3, store).
holds(3, misccommercial).
holds(3, door).
holds(3, window).
holds(3, awning).
holds(3, billboard).
holds(3, table).
holds(3, tiledroof).
holds(3, tiledrooftop).
holds(3, tiledroofbottom).
holds(3, vendingmachine).
holds(3, wallsign).
holds(3, chimney).
holds(3, truck).

sample(4).
holds(4, industrial).
holds(4, miscindustrial).
holds(4, chimney).
holds(4, truck).

sample(5).
holds(5, residential).
holds(5, suburban).
holds(5, miscresidential).
holds(5, door).
holds(5, porch).
holds(5, tiledroof).
holds(5, tiledrooftop).
holds(5, tiledroofbottom).

sample(6).
holds(6, commercial).
holds(6, store).
holds(6, misccommercial).
holds(6, door).
holds(6, window).
holds(6, awning).
holds(6, billboard).
holds(6, table).
holds(6, chimney).
holds(6, car).

sample(7).
holds(7, industrial).
holds(7, watertreatment).
holds(7, door).
holds(7, window).
holds(7, awning).
holds(7, pipe).
holds(7, truck).

sample(8).
holds(8, residential).
holds(8, suburban).
holds(8, window).
holds(8, porch).
holds(8, table).

sample(9).
holds(9, commercial).
holds(9, cafe).
holds(9, hotel).
holds(9, store).
holds(9, misccommercial).
holds(9, door).
holds(9, awning).
holds(9, billboard).
holds(9, table).
holds(9, wallsign).
holds(9, statue).

sample(10).
holds(10, industrial).
holds(10, powerplant).
holds(10, door).
holds(10, window).
holds(10, awning).
holds(10, chimney).
holds(10, pipe).