sample(0).
holds(0, building).
holds(0, feature).
holds(0, constructionsite).
holds(0, powerplant).
holds(0, awning).
holds(0, table).
holds(0, chimney).
holds(0, pipe).
holds(0, machine).

sample(1).
holds(1, building).
holds(1, feature).
holds(1, suburban).
holds(1, residential).
holds(1, awning).
holds(1, porch).
holds(1, table).
holds(1, tiledroof).

sample(2).
holds(2, building).
holds(2, feature).
holds(2, awning).
holds(2, table).

sample(3).
holds(3, building).
holds(3, feature).
holds(3, miscindustrial).
holds(3, industrial).
holds(3, truck).

sample(4).
holds(4, building).
holds(4, feature).
holds(4, suburban).
holds(4, miscresidential).
holds(4, countryhouse).
holds(4, residential).
holds(4, porch).
holds(4, table).
holds(4, tiledroof).
holds(4, car).

sample(5).
holds(5, building).
holds(5, feature).
holds(5, awning).
holds(5, table).

sample(6).
holds(6, building).
holds(6, feature).
holds(6, miscindustrial).
holds(6, powerplant).
holds(6, watertreatment).
holds(6, industrial).
holds(6, chimney).
holds(6, pipe).
holds(6, truck).

sample(7).
holds(7, building).
holds(7, feature).
holds(7, suburban).
holds(7, miscresidential).
holds(7, residential).
holds(7, porch).
holds(7, table).
holds(7, tiledroof).

sample(8).
holds(8, building).
holds(8, feature).
holds(8, awning).
holds(8, table).

sample(9).
holds(9, building).
holds(9, feature).
holds(9, miscindustrial).
holds(9, industrial).
holds(9, truck).

sample(10).
holds(10, building).
holds(10, feature).
holds(10, suburban).
holds(10, residential).
holds(10, awning).
holds(10, porch).
holds(10, table).
holds(10, tiledroof).

sample(11).
holds(11, building).
holds(11, feature).
holds(11, awning).
holds(11, table).

sample(12).
holds(12, building).
holds(12, feature).
holds(12, miscindustrial).
holds(12, industrial).
holds(12, truck).

sample(13).
holds(13, building).
holds(13, feature).
holds(13, suburban).
holds(13, miscresidential).
holds(13, residential).
holds(13, porch).
holds(13, table).
holds(13, tiledroof).

sample(14).
holds(14, building).
holds(14, feature).
holds(14, awning).
holds(14, table).

sample(15).
holds(15, building).
holds(15, feature).
holds(15, miscindustrial).
holds(15, powerplant).
holds(15, watertreatment).
holds(15, industrial).
holds(15, chimney).
holds(15, pipe).
holds(15, truck).

sample(16).
holds(16, building).
holds(16, feature).
holds(16, suburban).
holds(16, miscresidential).
holds(16, residential).
holds(16, porch).
holds(16, table).
holds(16, tiledroof).

sample(17).
holds(17, building).
holds(17, feature).
holds(17, awning).
holds(17, table).

sample(18).
holds(18, building).
holds(18, feature).
holds(18, powerplant).
holds(18, watertreatment).
holds(18, industrial).
holds(18, awning).
holds(18, chimney).
holds(18, pipe).
holds(18, truck).

sample(19).
holds(19, building).
holds(19, feature).
holds(19, miscresidential).
holds(19, residential).
holds(19, table).
holds(19, tiledroof).

sample(20).
holds(20, building).
holds(20, feature).
holds(20, awning).
holds(20, table).

sample(21).
holds(21, building).
holds(21, feature).
holds(21, powerplant).
holds(21, industrial).
holds(21, awning).
holds(21, chimney).
holds(21, pipe).

sample(22).
holds(22, building).
holds(22, feature).
holds(22, suburban).
holds(22, miscresidential).
holds(22, residential).
holds(22, porch).
holds(22, table).
holds(22, tiledroof).

sample(23).
holds(23, building).
holds(23, feature).
holds(23, awning).
holds(23, table).

sample(24).
holds(24, building).
holds(24, feature).
holds(24, miscindustrial).
holds(24, industrial).
holds(24, truck).

sample(25).
holds(25, building).
holds(25, feature).
holds(25, suburban).
holds(25, miscresidential).
holds(25, residential).
holds(25, porch).
holds(25, table).
holds(25, tiledroof).

sample(26).
holds(26, building).
holds(26, feature).
holds(26, awning).
holds(26, table).

sample(27).
holds(27, building).
holds(27, feature).
holds(27, miscindustrial).
holds(27, powerplant).
holds(27, watertreatment).
holds(27, industrial).
holds(27, chimney).
holds(27, pipe).
holds(27, truck).

sample(28).
holds(28, building).
holds(28, feature).
holds(28, suburban).
holds(28, residential).
holds(28, awning).
holds(28, porch).
holds(28, table).
holds(28, tiledroof).

sample(29).
holds(29, building).
holds(29, feature).
holds(29, awning).
holds(29, table).

sample(30).
holds(30, building).
holds(30, feature).
holds(30, constructionsite).
holds(30, awning).
holds(30, table).
holds(30, machine).

sample(31).
holds(31, building).
holds(31, feature).
holds(31, suburban).
holds(31, miscresidential).
holds(31, countryhouse).
holds(31, residential).
holds(31, porch).
holds(31, table).
holds(31, tiledroof).
holds(31, car).

sample(32).
holds(32, building).
holds(32, feature).
holds(32, awning).
holds(32, table).

sample(33).
holds(33, building).
holds(33, feature).
holds(33, miscindustrial).
holds(33, watertreatment).
holds(33, industrial).
holds(33, truck).

sample(34).
holds(34, building).
holds(34, feature).
holds(34, suburban).
holds(34, residential).
holds(34, awning).
holds(34, porch).
holds(34, table).
holds(34, tiledroof).

sample(35).
holds(35, building).
holds(35, feature).
holds(35, awning).
holds(35, table).

sample(36).
holds(36, building).
holds(36, feature).
holds(36, miscindustrial).
holds(36, industrial).
holds(36, truck).

sample(37).
holds(37, building).
holds(37, feature).
holds(37, miscresidential).
holds(37, countryhouse).
holds(37, residential).
holds(37, table).
holds(37, tiledroof).
holds(37, car).

sample(38).
holds(38, building).
holds(38, feature).
holds(38, awning).
holds(38, table).

sample(39).
holds(39, building).
holds(39, feature).
holds(39, constructionsite).
holds(39, powerplant).
holds(39, awning).
holds(39, table).
holds(39, chimney).
holds(39, pipe).
holds(39, machine).

sample(40).
holds(40, building).
holds(40, feature).
holds(40, suburban).
holds(40, miscresidential).
holds(40, countryhouse).
holds(40, residential).
holds(40, porch).
holds(40, table).
holds(40, tiledroof).
holds(40, car).

sample(41).
holds(41, building).
holds(41, feature).
holds(41, awning).
holds(41, table).

sample(42).
holds(42, building).
holds(42, feature).
holds(42, constructionsite).
holds(42, powerplant).
holds(42, awning).
holds(42, table).
holds(42, chimney).
holds(42, pipe).
holds(42, machine).

sample(43).
holds(43, building).
holds(43, feature).
holds(43, suburban).
holds(43, miscresidential).
holds(43, countryhouse).
holds(43, residential).
holds(43, porch).
holds(43, table).
holds(43, tiledroof).
holds(43, car).

sample(44).
holds(44, building).
holds(44, feature).
holds(44, awning).
holds(44, pipe).

sample(45).
holds(45, building).
holds(45, feature).
holds(45, miscindustrial).
holds(45, watertreatment).
holds(45, industrial).
holds(45, pipe).
holds(45, truck).

sample(46).
holds(46, building).
holds(46, feature).
holds(46, suburban).
holds(46, miscresidential).
holds(46, residential).
holds(46, porch).
holds(46, table).
holds(46, tiledroof).

sample(47).
holds(47, building).
holds(47, feature).
holds(47, awning).
holds(47, table).

sample(48).
holds(48, building).
holds(48, feature).
holds(48, powerplant).
holds(48, industrial).
holds(48, awning).
holds(48, chimney).
holds(48, pipe).

sample(49).
holds(49, building).
holds(49, feature).
holds(49, miscresidential).
holds(49, countryhouse).
holds(49, residential).
holds(49, table).
holds(49, tiledroof).
holds(49, car).

sample(50).
holds(50, building).
holds(50, feature).
holds(50, awning).
holds(50, table).

sample(51).
holds(51, building).
holds(51, feature).
holds(51, constructionsite).
holds(51, powerplant).
holds(51, awning).
holds(51, table).
holds(51, chimney).
holds(51, pipe).
holds(51, machine).

sample(52).
holds(52, building).
holds(52, feature).
holds(52, miscresidential).
holds(52, residential).
holds(52, table).
holds(52, tiledroof).

sample(53).
holds(53, building).
holds(53, feature).
holds(53, awning).
holds(53, table).

sample(54).
holds(54, building).
holds(54, feature).
holds(54, constructionsite).
holds(54, powerplant).
holds(54, awning).
holds(54, table).
holds(54, chimney).
holds(54, pipe).
holds(54, machine).

sample(55).
holds(55, building).
holds(55, feature).
holds(55, suburban).
holds(55, miscresidential).
holds(55, countryhouse).
holds(55, residential).
holds(55, porch).
holds(55, table).
holds(55, tiledroof).
holds(55, car).

sample(56).
holds(56, building).
holds(56, feature).
holds(56, awning).
holds(56, table).

sample(57).
holds(57, building).
holds(57, feature).
holds(57, powerplant).
holds(57, industrial).
holds(57, awning).
holds(57, chimney).
holds(57, pipe).

sample(58).
holds(58, building).
holds(58, feature).
holds(58, suburban).
holds(58, residential).
holds(58, awning).
holds(58, porch).
holds(58, table).
holds(58, tiledroof).

sample(59).
holds(59, building).
holds(59, feature).
holds(59, awning).
holds(59, table).

sample(60).
holds(60, building).
holds(60, feature).
holds(60, miscindustrial).
holds(60, powerplant).
holds(60, watertreatment).
holds(60, industrial).
holds(60, chimney).
holds(60, pipe).
holds(60, truck).

sample(61).
holds(61, building).
holds(61, feature).
holds(61, suburban).
holds(61, miscresidential).
holds(61, residential).
holds(61, porch).
holds(61, table).
holds(61, tiledroof).

sample(62).
holds(62, building).
holds(62, feature).
holds(62, awning).
holds(62, table).

sample(63).
holds(63, building).
holds(63, feature).
holds(63, constructionsite).
holds(63, awning).
holds(63, table).
holds(63, machine).

sample(64).
holds(64, building).
holds(64, feature).
holds(64, suburban).
holds(64, miscresidential).
holds(64, countryhouse).
holds(64, residential).
holds(64, porch).
holds(64, table).
holds(64, tiledroof).
holds(64, car).

sample(65).
holds(65, building).
holds(65, feature).
holds(65, awning).
holds(65, table).

sample(66).
holds(66, building).
holds(66, feature).
holds(66, powerplant).
holds(66, industrial).
holds(66, awning).
holds(66, chimney).
holds(66, pipe).

sample(67).
holds(67, building).
holds(67, feature).
holds(67, suburban).
holds(67, miscresidential).
holds(67, residential).
holds(67, porch).
holds(67, table).
holds(67, tiledroof).

sample(68).
holds(68, building).
holds(68, feature).
holds(68, awning).
holds(68, table).

sample(69).
holds(69, building).
holds(69, feature).
holds(69, miscindustrial).
holds(69, powerplant).
holds(69, watertreatment).
holds(69, industrial).
holds(69, chimney).
holds(69, pipe).
holds(69, truck).

sample(70).
holds(70, building).
holds(70, feature).
holds(70, suburban).
holds(70, miscresidential).
holds(70, residential).
holds(70, porch).
holds(70, table).
holds(70, tiledroof).

sample(71).
holds(71, building).
holds(71, feature).
holds(71, awning).
holds(71, table).

sample(72).
holds(72, building).
holds(72, feature).
holds(72, powerplant).
holds(72, industrial).
holds(72, awning).
holds(72, chimney).
holds(72, pipe).

sample(73).
holds(73, building).
holds(73, feature).
holds(73, suburban).
holds(73, residential).
holds(73, awning).
holds(73, porch).
holds(73, table).
holds(73, tiledroof).

sample(74).
holds(74, building).
holds(74, feature).
holds(74, awning).
holds(74, table).

sample(75).
holds(75, building).
holds(75, feature).
holds(75, powerplant).
holds(75, watertreatment).
holds(75, industrial).
holds(75, awning).
holds(75, chimney).
holds(75, pipe).
holds(75, truck).

sample(76).
holds(76, building).
holds(76, feature).
holds(76, suburban).
holds(76, residential).
holds(76, awning).
holds(76, porch).
holds(76, table).
holds(76, tiledroof).

sample(77).
holds(77, building).
holds(77, feature).
holds(77, awning).
holds(77, table).

sample(78).
holds(78, building).
holds(78, feature).
holds(78, constructionsite).
holds(78, powerplant).
holds(78, awning).
holds(78, table).
holds(78, chimney).
holds(78, pipe).
holds(78, machine).

sample(79).
holds(79, building).
holds(79, feature).
holds(79, miscresidential).
holds(79, countryhouse).
holds(79, residential).
holds(79, table).
holds(79, tiledroof).
holds(79, car).

sample(80).
holds(80, building).
holds(80, feature).
holds(80, awning).
holds(80, table).

sample(81).
holds(81, building).
holds(81, feature).
holds(81, miscindustrial).
holds(81, powerplant).
holds(81, watertreatment).
holds(81, industrial).
holds(81, chimney).
holds(81, pipe).
holds(81, truck).

sample(82).
holds(82, building).
holds(82, feature).
holds(82, miscresidential).
holds(82, residential).
holds(82, table).
holds(82, tiledroof).

sample(83).
holds(83, building).
holds(83, feature).
holds(83, awning).
holds(83, table).

sample(84).
holds(84, building).
holds(84, feature).
holds(84, miscindustrial).
holds(84, industrial).
holds(84, truck).

sample(85).
holds(85, building).
holds(85, feature).
holds(85, suburban).
holds(85, residential).
holds(85, awning).
holds(85, porch).
holds(85, table).
holds(85, tiledroof).

sample(86).
holds(86, building).
holds(86, feature).
holds(86, awning).
holds(86, table).

sample(87).
holds(87, building).
holds(87, feature).
holds(87, miscindustrial).
holds(87, watertreatment).
holds(87, industrial).
holds(87, truck).

sample(88).
holds(88, building).
holds(88, feature).
holds(88, miscresidential).
holds(88, countryhouse).
holds(88, residential).
holds(88, table).
holds(88, tiledroof).
holds(88, car).

sample(89).
holds(89, building).
holds(89, feature).
holds(89, awning).
holds(89, table).

sample(90).
holds(90, building).
holds(90, feature).
holds(90, constructionsite).
holds(90, awning).
holds(90, table).
holds(90, machine).

sample(91).
holds(91, building).
holds(91, feature).
holds(91, suburban).
holds(91, miscresidential).
holds(91, residential).
holds(91, porch).
holds(91, table).
holds(91, tiledroof).

sample(92).
holds(92, building).
holds(92, feature).
holds(92, awning).
holds(92, table).

sample(93).
holds(93, building).
holds(93, feature).
holds(93, powerplant).
holds(93, industrial).
holds(93, awning).
holds(93, chimney).
holds(93, pipe).

sample(94).
holds(94, building).
holds(94, feature).
holds(94, suburban).
holds(94, miscresidential).
holds(94, residential).
holds(94, porch).
holds(94, table).
holds(94, tiledroof).

sample(95).
holds(95, building).
holds(95, feature).
holds(95, awning).
holds(95, table).

sample(96).
holds(96, building).
holds(96, feature).
holds(96, constructionsite).
holds(96, awning).
holds(96, table).
holds(96, machine).

sample(97).
holds(97, building).
holds(97, feature).
holds(97, miscresidential).
holds(97, countryhouse).
holds(97, residential).
holds(97, table).
holds(97, tiledroof).
holds(97, car).

sample(98).
holds(98, building).
holds(98, feature).
holds(98, awning).
holds(98, table).

sample(99).
holds(99, building).
holds(99, feature).
holds(99, miscindustrial).
holds(99, industrial).
holds(99, truck).

sample(100).
holds(100, building).
holds(100, feature).
holds(100, miscresidential).
holds(100, residential).
holds(100, table).
holds(100, tiledroof).

sample(101).
holds(101, building).
holds(101, feature).
holds(101, awning).
holds(101, table).

sample(102).
holds(102, building).
holds(102, feature).
holds(102, miscindustrial).
holds(102, powerplant).
holds(102, watertreatment).
holds(102, industrial).
holds(102, chimney).
holds(102, pipe).
holds(102, truck).

sample(103).
holds(103, building).
holds(103, feature).
holds(103, suburban).
holds(103, miscresidential).
holds(103, countryhouse).
holds(103, residential).
holds(103, porch).
holds(103, table).
holds(103, tiledroof).
holds(103, car).

sample(104).
holds(104, building).
holds(104, feature).
holds(104, awning).
holds(104, table).

sample(105).
holds(105, building).
holds(105, feature).
holds(105, constructionsite).
holds(105, awning).
holds(105, table).
holds(105, machine).

sample(106).
holds(106, building).
holds(106, feature).
holds(106, suburban).
holds(106, miscresidential).
holds(106, countryhouse).
holds(106, residential).
holds(106, porch).
holds(106, table).
holds(106, tiledroof).
holds(106, car).

sample(107).
holds(107, building).
holds(107, feature).
holds(107, awning).

sample(108).
holds(108, building).
holds(108, feature).
holds(108, constructionsite).
holds(108, powerplant).
holds(108, awning).
holds(108, table).
holds(108, chimney).
holds(108, pipe).
holds(108, machine).

sample(109).
holds(109, building).
holds(109, feature).
holds(109, miscresidential).
holds(109, countryhouse).
holds(109, residential).
holds(109, table).
holds(109, tiledroof).
holds(109, car).

sample(110).
holds(110, building).
holds(110, feature).
holds(110, awning).
holds(110, table).

sample(111).
holds(111, building).
holds(111, feature).
holds(111, constructionsite).
holds(111, awning).
holds(111, table).
holds(111, machine).

sample(112).
holds(112, building).
holds(112, feature).
holds(112, suburban).
holds(112, miscresidential).
holds(112, countryhouse).
holds(112, residential).
holds(112, porch).
holds(112, table).
holds(112, tiledroof).
holds(112, car).

sample(113).
holds(113, building).
holds(113, feature).
holds(113, awning).
holds(113, table).

sample(114).
holds(114, building).
holds(114, feature).
holds(114, powerplant).
holds(114, industrial).
holds(114, awning).
holds(114, chimney).
holds(114, pipe).

sample(115).
holds(115, building).
holds(115, feature).
holds(115, suburban).
holds(115, miscresidential).
holds(115, countryhouse).
holds(115, residential).
holds(115, porch).
holds(115, table).
holds(115, tiledroof).
holds(115, car).

sample(116).
holds(116, building).
holds(116, feature).
holds(116, awning).
holds(116, table).

sample(117).
holds(117, building).
holds(117, feature).
holds(117, miscindustrial).
holds(117, industrial).
holds(117, truck).

sample(118).
holds(118, building).
holds(118, feature).
holds(118, miscresidential).
holds(118, countryhouse).
holds(118, residential).
holds(118, table).
holds(118, tiledroof).
holds(118, car).

sample(119).
holds(119, building).
holds(119, feature).
holds(119, awning).
holds(119, table).

sample(120).
holds(120, building).
holds(120, feature).
holds(120, miscindustrial).
holds(120, powerplant).
holds(120, watertreatment).
holds(120, industrial).
holds(120, chimney).
holds(120, pipe).
holds(120, truck).

sample(121).
holds(121, building).
holds(121, feature).
holds(121, suburban).
holds(121, miscresidential).
holds(121, residential).
holds(121, porch).
holds(121, table).
holds(121, tiledroof).

sample(122).
holds(122, building).
holds(122, feature).
holds(122, awning).
holds(122, table).

sample(123).
holds(123, building).
holds(123, feature).
holds(123, constructionsite).
holds(123, powerplant).
holds(123, awning).
holds(123, table).
holds(123, chimney).
holds(123, pipe).
holds(123, machine).

sample(124).
holds(124, building).
holds(124, feature).
holds(124, suburban).
holds(124, residential).
holds(124, awning).
holds(124, porch).
holds(124, table).
holds(124, tiledroof).

sample(125).
holds(125, building).
holds(125, feature).
holds(125, awning).
holds(125, table).

sample(126).
holds(126, building).
holds(126, feature).
holds(126, miscindustrial).
holds(126, industrial).
holds(126, truck).

sample(127).
holds(127, building).
holds(127, feature).
holds(127, miscresidential).
holds(127, countryhouse).
holds(127, residential).
holds(127, table).
holds(127, tiledroof).
holds(127, car).

sample(128).
holds(128, building).
holds(128, feature).
holds(128, awning).
holds(128, table).

sample(129).
holds(129, building).
holds(129, feature).
holds(129, miscindustrial).
holds(129, industrial).
holds(129, truck).

sample(130).
holds(130, building).
holds(130, feature).
holds(130, suburban).
holds(130, residential).
holds(130, awning).
holds(130, porch).
holds(130, table).
holds(130, tiledroof).

sample(131).
holds(131, building).
holds(131, feature).
holds(131, awning).
holds(131, table).

sample(132).
holds(132, building).
holds(132, feature).
holds(132, constructionsite).
holds(132, awning).
holds(132, table).
holds(132, machine).

sample(133).
holds(133, building).
holds(133, feature).
holds(133, suburban).
holds(133, miscresidential).
holds(133, countryhouse).
holds(133, residential).
holds(133, porch).
holds(133, table).
holds(133, tiledroof).
holds(133, car).

sample(134).
holds(134, building).
holds(134, feature).
holds(134, awning).
holds(134, table).

sample(135).
holds(135, building).
holds(135, feature).
holds(135, powerplant).
holds(135, industrial).
holds(135, awning).
holds(135, chimney).
holds(135, pipe).

sample(136).
holds(136, building).
holds(136, feature).
holds(136, suburban).
holds(136, miscresidential).
holds(136, countryhouse).
holds(136, residential).
holds(136, porch).
holds(136, table).
holds(136, tiledroof).
holds(136, car).

sample(137).
holds(137, building).
holds(137, feature).
holds(137, awning).
holds(137, table).

sample(138).
holds(138, building).
holds(138, feature).
holds(138, miscindustrial).
holds(138, watertreatment).
holds(138, industrial).
holds(138, pipe).
holds(138, truck).

sample(139).
holds(139, building).
holds(139, feature).
holds(139, suburban).
holds(139, miscresidential).
holds(139, residential).
holds(139, porch).
holds(139, table).
holds(139, tiledroof).

sample(140).
holds(140, building).
holds(140, feature).
holds(140, awning).
holds(140, table).

sample(141).
holds(141, building).
holds(141, feature).
holds(141, constructionsite).
holds(141, awning).
holds(141, table).
holds(141, machine).

sample(142).
holds(142, building).
holds(142, feature).
holds(142, miscresidential).
holds(142, countryhouse).
holds(142, residential).
holds(142, table).
holds(142, tiledroof).
holds(142, car).

sample(143).
holds(143, building).
holds(143, feature).
holds(143, awning).
holds(143, table).

sample(144).
holds(144, building).
holds(144, feature).
holds(144, miscindustrial).
holds(144, industrial).
holds(144, truck).

sample(145).
holds(145, building).
holds(145, feature).
holds(145, suburban).
holds(145, miscresidential).
holds(145, residential).
holds(145, porch).
holds(145, table).
holds(145, tiledroof).

sample(146).
holds(146, building).
holds(146, feature).
holds(146, awning).
holds(146, table).

sample(147).
holds(147, building).
holds(147, feature).
holds(147, constructionsite).
holds(147, awning).
holds(147, table).
holds(147, machine).

sample(148).
holds(148, building).
holds(148, feature).
holds(148, suburban).
holds(148, miscresidential).
holds(148, residential).
holds(148, porch).
holds(148, table).
holds(148, tiledroof).

sample(149).
holds(149, building).
holds(149, feature).
holds(149, awning).
holds(149, table).

sample(150).
holds(150, building).
holds(150, feature).
holds(150, miscindustrial).
holds(150, watertreatment).
holds(150, industrial).
holds(150, pipe).
holds(150, truck).

sample(151).
holds(151, building).
holds(151, feature).
holds(151, suburban).
holds(151, miscresidential).
holds(151, residential).
holds(151, porch).
holds(151, table).
holds(151, tiledroof).

sample(152).
holds(152, building).
holds(152, feature).
holds(152, awning).
holds(152, table).

sample(153).
holds(153, building).
holds(153, feature).
holds(153, miscindustrial).
holds(153, industrial).
holds(153, truck).

sample(154).
holds(154, building).
holds(154, feature).
holds(154, suburban).
holds(154, residential).
holds(154, awning).
holds(154, porch).
holds(154, table).
holds(154, tiledroof).

sample(155).
holds(155, building).
holds(155, feature).
holds(155, awning).
holds(155, table).

sample(156).
holds(156, building).
holds(156, feature).
holds(156, powerplant).
holds(156, industrial).
holds(156, awning).
holds(156, chimney).
holds(156, pipe).

sample(157).
holds(157, building).
holds(157, feature).
holds(157, suburban).
holds(157, miscresidential).
holds(157, residential).
holds(157, porch).
holds(157, table).
holds(157, tiledroof).

sample(158).
holds(158, building).
holds(158, feature).
holds(158, awning).
holds(158, table).

sample(159).
holds(159, building).
holds(159, feature).
holds(159, constructionsite).
holds(159, powerplant).
holds(159, awning).
holds(159, table).
holds(159, chimney).
holds(159, pipe).
holds(159, machine).

sample(160).
holds(160, building).
holds(160, feature).
holds(160, miscresidential).
holds(160, residential).
holds(160, table).
holds(160, tiledroof).

sample(161).
holds(161, building).
holds(161, feature).
holds(161, awning).
holds(161, table).

sample(162).
holds(162, building).
holds(162, feature).
holds(162, miscindustrial).
holds(162, powerplant).
holds(162, watertreatment).
holds(162, industrial).
holds(162, chimney).
holds(162, pipe).
holds(162, truck).

sample(163).
holds(163, building).
holds(163, feature).
holds(163, miscresidential).
holds(163, residential).
holds(163, table).
holds(163, tiledroof).

sample(164).
holds(164, building).
holds(164, feature).
holds(164, awning).
holds(164, table).

sample(165).
holds(165, building).
holds(165, feature).
holds(165, constructionsite).
holds(165, awning).
holds(165, table).
holds(165, machine).

sample(166).
holds(166, building).
holds(166, feature).
holds(166, miscresidential).
holds(166, countryhouse).
holds(166, residential).
holds(166, table).
holds(166, tiledroof).
holds(166, car).

sample(167).
holds(167, building).
holds(167, feature).
holds(167, awning).
holds(167, table).

sample(168).
holds(168, building).
holds(168, feature).
holds(168, miscindustrial).
holds(168, powerplant).
holds(168, watertreatment).
holds(168, industrial).
holds(168, chimney).
holds(168, pipe).
holds(168, truck).

sample(169).
holds(169, building).
holds(169, feature).
holds(169, suburban).
holds(169, miscresidential).
holds(169, residential).
holds(169, porch).
holds(169, table).
holds(169, tiledroof).

sample(170).
holds(170, building).
holds(170, feature).
holds(170, awning).
holds(170, table).

sample(171).
holds(171, building).
holds(171, feature).
holds(171, powerplant).
holds(171, industrial).
holds(171, awning).
holds(171, chimney).
holds(171, pipe).

sample(172).
holds(172, building).
holds(172, feature).
holds(172, suburban).
holds(172, miscresidential).
holds(172, residential).
holds(172, porch).
holds(172, table).
holds(172, tiledroof).

sample(173).
holds(173, building).
holds(173, feature).
holds(173, awning).
holds(173, table).

sample(174).
holds(174, building).
holds(174, feature).
holds(174, powerplant).
holds(174, industrial).
holds(174, awning).
holds(174, chimney).
holds(174, pipe).

sample(175).
holds(175, building).
holds(175, feature).
holds(175, miscresidential).
holds(175, residential).
holds(175, table).
holds(175, tiledroof).

sample(176).
holds(176, building).
holds(176, feature).
holds(176, awning).
holds(176, table).

sample(177).
holds(177, building).
holds(177, feature).
holds(177, miscindustrial).
holds(177, watertreatment).
holds(177, industrial).
holds(177, pipe).
holds(177, truck).

sample(178).
holds(178, building).
holds(178, feature).
holds(178, suburban).
holds(178, residential).
holds(178, awning).
holds(178, porch).
holds(178, table).
holds(178, tiledroof).

sample(179).
holds(179, building).
holds(179, feature).
holds(179, awning).
holds(179, table).

sample(180).
holds(180, building).
holds(180, feature).
holds(180, miscindustrial).
holds(180, watertreatment).
holds(180, industrial).
holds(180, pipe).
holds(180, truck).

sample(181).
holds(181, building).
holds(181, feature).
holds(181, suburban).
holds(181, miscresidential).
holds(181, residential).
holds(181, porch).
holds(181, table).
holds(181, tiledroof).

sample(182).
holds(182, building).
holds(182, feature).
holds(182, awning).
holds(182, table).

sample(183).
holds(183, building).
holds(183, feature).
holds(183, constructionsite).
holds(183, powerplant).
holds(183, awning).
holds(183, table).
holds(183, chimney).
holds(183, pipe).
holds(183, machine).

sample(184).
holds(184, building).
holds(184, feature).
holds(184, miscresidential).
holds(184, countryhouse).
holds(184, residential).
holds(184, table).
holds(184, tiledroof).
holds(184, car).

sample(185).
holds(185, building).
holds(185, feature).
holds(185, awning).
holds(185, table).

sample(186).
holds(186, building).
holds(186, feature).
holds(186, powerplant).
holds(186, watertreatment).
holds(186, industrial).
holds(186, awning).
holds(186, chimney).
holds(186, pipe).
holds(186, truck).

sample(187).
holds(187, building).
holds(187, feature).
holds(187, miscresidential).
holds(187, countryhouse).
holds(187, residential).
holds(187, table).
holds(187, tiledroof).
holds(187, car).

sample(188).
holds(188, building).
holds(188, feature).
holds(188, awning).
holds(188, table).

sample(189).
holds(189, building).
holds(189, feature).
holds(189, miscindustrial).
holds(189, watertreatment).
holds(189, industrial).
holds(189, pipe).
holds(189, truck).

sample(190).
holds(190, building).
holds(190, feature).
holds(190, suburban).
holds(190, miscresidential).
holds(190, countryhouse).
holds(190, residential).
holds(190, porch).
holds(190, table).
holds(190, tiledroof).
holds(190, car).

sample(191).
holds(191, building).
holds(191, feature).
holds(191, awning).
holds(191, table).

sample(192).
holds(192, building).
holds(192, feature).
holds(192, constructionsite).
holds(192, powerplant).
holds(192, awning).
holds(192, table).
holds(192, chimney).
holds(192, pipe).
holds(192, machine).

sample(193).
holds(193, building).
holds(193, feature).
holds(193, suburban).
holds(193, miscresidential).
holds(193, residential).
holds(193, porch).
holds(193, table).
holds(193, tiledroof).

sample(194).
holds(194, building).
holds(194, feature).
holds(194, awning).
holds(194, table).

sample(195).
holds(195, building).
holds(195, feature).
holds(195, powerplant).
holds(195, watertreatment).
holds(195, industrial).
holds(195, awning).
holds(195, chimney).
holds(195, pipe).
holds(195, truck).

sample(196).
holds(196, building).
holds(196, feature).
holds(196, suburban).
holds(196, miscresidential).
holds(196, countryhouse).
holds(196, residential).
holds(196, porch).
holds(196, table).
holds(196, tiledroof).
holds(196, car).

sample(197).
holds(197, building).
holds(197, feature).
holds(197, awning).
holds(197, table).

sample(198).
holds(198, building).
holds(198, feature).
holds(198, miscindustrial).
holds(198, industrial).
holds(198, truck).

sample(199).
holds(199, building).
holds(199, feature).
holds(199, suburban).
holds(199, residential).
holds(199, awning).
holds(199, porch).
holds(199, table).
holds(199, tiledroof).

sample(200).
holds(200, building).
holds(200, feature).
holds(200, awning).
holds(200, table).

sample(201).
holds(201, building).
holds(201, feature).
holds(201, miscindustrial).
holds(201, industrial).
holds(201, truck).

sample(202).
holds(202, building).
holds(202, feature).
holds(202, suburban).
holds(202, residential).
holds(202, awning).
holds(202, porch).
holds(202, table).
holds(202, tiledroof).

sample(203).
holds(203, building).
holds(203, feature).
holds(203, awning).
holds(203, table).

sample(204).
holds(204, building).
holds(204, feature).
holds(204, powerplant).
holds(204, industrial).
holds(204, awning).
holds(204, chimney).
holds(204, pipe).

sample(205).
holds(205, building).
holds(205, feature).
holds(205, miscresidential).
holds(205, residential).
holds(205, table).
holds(205, tiledroof).

sample(206).
holds(206, building).
holds(206, feature).
holds(206, awning).
holds(206, table).

sample(207).
holds(207, building).
holds(207, feature).
holds(207, watertreatment).
holds(207, industrial).
holds(207, pipe).
holds(207, truck).

sample(208).
holds(208, building).
holds(208, feature).
holds(208, suburban).
holds(208, miscresidential).
holds(208, residential).
holds(208, porch).
holds(208, table).
holds(208, tiledroof).

sample(209).
holds(209, building).
holds(209, feature).
holds(209, awning).
holds(209, table).

sample(210).
holds(210, building).
holds(210, feature).
holds(210, constructionsite).
holds(210, powerplant).
holds(210, awning).
holds(210, table).
holds(210, chimney).
holds(210, pipe).
holds(210, machine).

sample(211).
holds(211, building).
holds(211, feature).
holds(211, suburban).
holds(211, miscresidential).
holds(211, residential).
holds(211, porch).
holds(211, table).
holds(211, tiledroof).

sample(212).
holds(212, building).
holds(212, feature).
holds(212, awning).
holds(212, table).

sample(213).
holds(213, building).
holds(213, feature).
holds(213, powerplant).
holds(213, industrial).
holds(213, awning).
holds(213, chimney).
holds(213, pipe).

sample(214).
holds(214, building).
holds(214, feature).
holds(214, suburban).
holds(214, miscresidential).
holds(214, residential).
holds(214, porch).
holds(214, table).
holds(214, tiledroof).

sample(215).
holds(215, building).
holds(215, feature).
holds(215, awning).
holds(215, table).

sample(216).
holds(216, building).
holds(216, feature).
holds(216, miscindustrial).
holds(216, industrial).
holds(216, truck).

sample(217).
holds(217, building).
holds(217, feature).
holds(217, suburban).
holds(217, miscresidential).
holds(217, residential).
holds(217, porch).
holds(217, table).
holds(217, tiledroof).

sample(218).
holds(218, building).
holds(218, feature).
holds(218, awning).
holds(218, table).

sample(219).
holds(219, building).
holds(219, feature).
holds(219, miscindustrial).
holds(219, powerplant).
holds(219, watertreatment).
holds(219, industrial).
holds(219, chimney).
holds(219, pipe).
holds(219, truck).

sample(220).
holds(220, building).
holds(220, feature).
holds(220, suburban).
holds(220, miscresidential).
holds(220, residential).
holds(220, porch).
holds(220, table).
holds(220, tiledroof).

sample(221).
holds(221, building).
holds(221, feature).
holds(221, awning).
holds(221, table).

sample(222).
holds(222, building).
holds(222, feature).
holds(222, powerplant).
holds(222, industrial).
holds(222, awning).
holds(222, chimney).
holds(222, pipe).

sample(223).
holds(223, building).
holds(223, feature).
holds(223, suburban).
holds(223, residential).
holds(223, awning).
holds(223, porch).
holds(223, table).
holds(223, tiledroof).

sample(224).
holds(224, building).
holds(224, feature).
holds(224, awning).
holds(224, table).

sample(225).
holds(225, building).
holds(225, feature).
holds(225, constructionsite).
holds(225, powerplant).
holds(225, awning).
holds(225, table).
holds(225, chimney).
holds(225, pipe).
holds(225, machine).

sample(226).
holds(226, building).
holds(226, feature).
holds(226, suburban).
holds(226, residential).
holds(226, awning).
holds(226, porch).
holds(226, table).
holds(226, tiledroof).

sample(227).
holds(227, building).
holds(227, feature).
holds(227, awning).
holds(227, table).

sample(228).
holds(228, building).
holds(228, feature).
holds(228, constructionsite).
holds(228, powerplant).
holds(228, awning).
holds(228, table).
holds(228, chimney).
holds(228, pipe).
holds(228, machine).

sample(229).
holds(229, building).
holds(229, feature).
holds(229, suburban).
holds(229, miscresidential).
holds(229, residential).
holds(229, porch).
holds(229, table).
holds(229, tiledroof).

sample(230).
holds(230, building).
holds(230, feature).
holds(230, awning).
holds(230, table).

sample(231).
holds(231, building).
holds(231, feature).
holds(231, miscindustrial).
holds(231, watertreatment).
holds(231, industrial).
holds(231, pipe).
holds(231, truck).

sample(232).
holds(232, building).
holds(232, feature).
holds(232, miscresidential).
holds(232, residential).
holds(232, table).
holds(232, tiledroof).

sample(233).
holds(233, building).
holds(233, feature).
holds(233, awning).
holds(233, table).

sample(234).
holds(234, building).
holds(234, feature).
holds(234, watertreatment).
holds(234, industrial).
holds(234, pipe).
holds(234, truck).

sample(235).
holds(235, building).
holds(235, feature).
holds(235, suburban).
holds(235, miscresidential).
holds(235, residential).
holds(235, porch).
holds(235, table).
holds(235, tiledroof).

sample(236).
holds(236, building).
holds(236, feature).
holds(236, awning).
holds(236, table).

sample(237).
holds(237, building).
holds(237, feature).
holds(237, miscindustrial).
holds(237, watertreatment).
holds(237, industrial).
holds(237, pipe).
holds(237, truck).

sample(238).
holds(238, building).
holds(238, feature).
holds(238, suburban).
holds(238, miscresidential).
holds(238, residential).
holds(238, porch).
holds(238, table).
holds(238, tiledroof).

sample(239).
holds(239, building).
holds(239, feature).
holds(239, awning).
holds(239, table).

sample(240).
holds(240, building).
holds(240, feature).
holds(240, constructionsite).
holds(240, powerplant).
holds(240, awning).
holds(240, table).
holds(240, chimney).
holds(240, pipe).
holds(240, machine).

sample(241).
holds(241, building).
holds(241, feature).
holds(241, suburban).
holds(241, miscresidential).
holds(241, countryhouse).
holds(241, residential).
holds(241, porch).
holds(241, table).
holds(241, tiledroof).
holds(241, car).

sample(242).
holds(242, building).
holds(242, feature).
holds(242, awning).
holds(242, table).

sample(243).
holds(243, building).
holds(243, feature).
holds(243, powerplant).
holds(243, industrial).
holds(243, awning).
holds(243, chimney).
holds(243, pipe).

sample(244).
holds(244, building).
holds(244, feature).
holds(244, miscresidential).
holds(244, residential).
holds(244, table).
holds(244, tiledroof).

sample(245).
holds(245, building).
holds(245, feature).
holds(245, awning).
holds(245, table).

sample(246).
holds(246, building).
holds(246, feature).
holds(246, miscindustrial).
holds(246, powerplant).
holds(246, watertreatment).
holds(246, industrial).
holds(246, chimney).
holds(246, pipe).
holds(246, truck).

sample(247).
holds(247, building).
holds(247, feature).
holds(247, miscresidential).
holds(247, countryhouse).
holds(247, residential).
holds(247, table).
holds(247, tiledroof).
holds(247, car).

sample(248).
holds(248, building).
holds(248, feature).
holds(248, awning).
holds(248, table).

sample(249).
holds(249, building).
holds(249, feature).
holds(249, constructionsite).
holds(249, awning).
holds(249, table).
holds(249, machine).

sample(250).
holds(250, building).
holds(250, feature).
holds(250, miscresidential).
holds(250, countryhouse).
holds(250, residential).
holds(250, table).
holds(250, tiledroof).
holds(250, car).

sample(251).
holds(251, building).
holds(251, feature).
holds(251, awning).
holds(251, table).

sample(252).
holds(252, building).
holds(252, feature).
holds(252, miscindustrial).
holds(252, industrial).
holds(252, truck).

sample(253).
holds(253, building).
holds(253, feature).
holds(253, suburban).
holds(253, miscresidential).
holds(253, residential).
holds(253, porch).
holds(253, table).
holds(253, tiledroof).

sample(254).
holds(254, building).
holds(254, feature).
holds(254, awning).
holds(254, table).

sample(255).
holds(255, building).
holds(255, feature).
holds(255, miscindustrial).
holds(255, watertreatment).
holds(255, industrial).
holds(255, pipe).
holds(255, truck).

sample(256).
holds(256, building).
holds(256, feature).
holds(256, suburban).
holds(256, miscresidential).
holds(256, countryhouse).
holds(256, residential).
holds(256, porch).
holds(256, table).
holds(256, tiledroof).
holds(256, car).

sample(257).
holds(257, building).
holds(257, feature).
holds(257, awning).
holds(257, table).

sample(258).
holds(258, building).
holds(258, feature).
holds(258, constructionsite).
holds(258, powerplant).
holds(258, awning).
holds(258, table).
holds(258, chimney).
holds(258, pipe).
holds(258, machine).

sample(259).
holds(259, building).
holds(259, feature).
holds(259, miscresidential).
holds(259, countryhouse).
holds(259, residential).
holds(259, table).
holds(259, tiledroof).
holds(259, car).

sample(260).
holds(260, building).
holds(260, feature).
holds(260, awning).
holds(260, table).

sample(261).
holds(261, building).
holds(261, feature).
holds(261, miscindustrial).
holds(261, watertreatment).
holds(261, industrial).
holds(261, pipe).
holds(261, truck).

sample(262).
holds(262, building).
holds(262, feature).
holds(262, suburban).
holds(262, miscresidential).
holds(262, residential).
holds(262, porch).
holds(262, table).
holds(262, tiledroof).

sample(263).
holds(263, building).
holds(263, feature).
holds(263, awning).
holds(263, table).

sample(264).
holds(264, building).
holds(264, feature).
holds(264, constructionsite).
holds(264, powerplant).
holds(264, awning).
holds(264, table).
holds(264, chimney).
holds(264, pipe).
holds(264, machine).

sample(265).
holds(265, building).
holds(265, feature).
holds(265, miscresidential).
holds(265, residential).
holds(265, table).
holds(265, tiledroof).

sample(266).
holds(266, building).
holds(266, feature).
holds(266, awning).
holds(266, table).

sample(267).
holds(267, building).
holds(267, feature).
holds(267, miscindustrial).
holds(267, powerplant).
holds(267, watertreatment).
holds(267, industrial).
holds(267, chimney).
holds(267, pipe).
holds(267, truck).

sample(268).
holds(268, building).
holds(268, feature).
holds(268, miscresidential).
holds(268, residential).
holds(268, table).
holds(268, tiledroof).

sample(269).
holds(269, building).
holds(269, feature).
holds(269, awning).
holds(269, table).

sample(270).
holds(270, building).
holds(270, feature).
holds(270, miscindustrial).
holds(270, industrial).
holds(270, truck).

sample(271).
holds(271, building).
holds(271, feature).
holds(271, suburban).
holds(271, miscresidential).
holds(271, countryhouse).
holds(271, residential).
holds(271, porch).
holds(271, table).
holds(271, tiledroof).
holds(271, car).

sample(272).
holds(272, building).
holds(272, feature).
holds(272, powerplant).
holds(272, industrial).
holds(272, awning).
holds(272, chimney).
holds(272, pipe).

sample(273).
holds(273, building).
holds(273, feature).
holds(273, constructionsite).
holds(273, awning).
holds(273, table).
holds(273, machine).

sample(274).
holds(274, building).
holds(274, feature).
holds(274, miscresidential).
holds(274, countryhouse).
holds(274, residential).
holds(274, table).
holds(274, tiledroof).
holds(274, car).

sample(275).
holds(275, building).
holds(275, feature).
holds(275, awning).
holds(275, table).

sample(276).
holds(276, building).
holds(276, feature).
holds(276, powerplant).
holds(276, industrial).
holds(276, awning).
holds(276, chimney).
holds(276, pipe).

sample(277).
holds(277, building).
holds(277, feature).
holds(277, miscresidential).
holds(277, countryhouse).
holds(277, residential).
holds(277, table).
holds(277, tiledroof).
holds(277, car).

sample(278).
holds(278, building).
holds(278, feature).
holds(278, awning).
holds(278, table).

sample(279).
holds(279, building).
holds(279, feature).
holds(279, miscindustrial).
holds(279, powerplant).
holds(279, watertreatment).
holds(279, industrial).
holds(279, chimney).
holds(279, pipe).
holds(279, truck).

sample(280).
holds(280, building).
holds(280, feature).
holds(280, miscresidential).
holds(280, residential).
holds(280, table).
holds(280, tiledroof).

sample(281).
holds(281, building).
holds(281, feature).
holds(281, awning).
holds(281, table).

sample(282).
holds(282, building).
holds(282, feature).
holds(282, constructionsite).
holds(282, powerplant).
holds(282, awning).
holds(282, table).
holds(282, chimney).
holds(282, pipe).
holds(282, machine).

sample(283).
holds(283, building).
holds(283, feature).
holds(283, suburban).
holds(283, miscresidential).
holds(283, residential).
holds(283, porch).
holds(283, table).
holds(283, tiledroof).

sample(284).
holds(284, building).
holds(284, feature).
holds(284, awning).
holds(284, table).

sample(285).
holds(285, building).
holds(285, feature).
holds(285, powerplant).
holds(285, industrial).
holds(285, awning).
holds(285, chimney).
holds(285, pipe).

sample(286).
holds(286, building).
holds(286, feature).
holds(286, suburban).
holds(286, miscresidential).
holds(286, countryhouse).
holds(286, residential).
holds(286, porch).
holds(286, table).
holds(286, tiledroof).
holds(286, car).

sample(287).
holds(287, building).
holds(287, feature).
holds(287, awning).
holds(287, table).

sample(288).
holds(288, building).
holds(288, feature).
holds(288, powerplant).
holds(288, industrial).
holds(288, awning).
holds(288, chimney).
holds(288, pipe).

sample(289).
holds(289, building).
holds(289, feature).
holds(289, miscresidential).
holds(289, countryhouse).
holds(289, residential).
holds(289, table).
holds(289, tiledroof).
holds(289, car).

sample(290).
holds(290, building).
holds(290, feature).
holds(290, awning).
holds(290, table).

sample(291).
holds(291, building).
holds(291, feature).
holds(291, miscindustrial).
holds(291, industrial).
holds(291, truck).

sample(292).
holds(292, building).
holds(292, feature).
holds(292, suburban).
holds(292, miscresidential).
holds(292, residential).
holds(292, porch).
holds(292, table).
holds(292, tiledroof).

sample(293).
holds(293, building).
holds(293, feature).
holds(293, awning).
holds(293, table).

sample(294).
holds(294, building).
holds(294, feature).
holds(294, miscindustrial).
holds(294, industrial).
holds(294, truck).

sample(295).
holds(295, building).
holds(295, feature).
holds(295, suburban).
holds(295, miscresidential).
holds(295, countryhouse).
holds(295, residential).
holds(295, porch).
holds(295, table).
holds(295, tiledroof).
holds(295, car).

sample(296).
holds(296, building).
holds(296, feature).
holds(296, awning).
holds(296, table).

sample(297).
holds(297, building).
holds(297, feature).
holds(297, miscindustrial).
holds(297, powerplant).
holds(297, watertreatment).
holds(297, industrial).
holds(297, chimney).
holds(297, pipe).
holds(297, truck).

sample(298).
holds(298, building).
holds(298, feature).
holds(298, suburban).
holds(298, miscresidential).
holds(298, countryhouse).
holds(298, residential).
holds(298, porch).
holds(298, table).
holds(298, tiledroof).
holds(298, car).

sample(299).
holds(299, building).
holds(299, feature).
holds(299, awning).
holds(299, table).

sample(300).
holds(300, building).
holds(300, feature).
holds(300, miscindustrial).
holds(300, powerplant).
holds(300, watertreatment).
holds(300, industrial).
holds(300, chimney).
holds(300, pipe).
holds(300, truck).

sample(301).
holds(301, building).
holds(301, feature).
holds(301, suburban).
holds(301, miscresidential).
holds(301, residential).
holds(301, porch).
holds(301, table).
holds(301, tiledroof).

sample(302).
holds(302, building).
holds(302, feature).
holds(302, awning).
holds(302, table).

sample(303).
holds(303, building).
holds(303, feature).
holds(303, miscindustrial).
holds(303, industrial).
holds(303, truck).

sample(304).
holds(304, building).
holds(304, feature).
holds(304, suburban).
holds(304, miscresidential).
holds(304, residential).
holds(304, porch).
holds(304, table).
holds(304, tiledroof).

sample(305).
holds(305, building).
holds(305, feature).
holds(305, awning).
holds(305, table).

sample(306).
holds(306, building).
holds(306, feature).
holds(306, constructionsite).
holds(306, awning).
holds(306, table).
holds(306, machine).

sample(307).
holds(307, building).
holds(307, feature).
holds(307, miscresidential).
holds(307, countryhouse).
holds(307, residential).
holds(307, table).
holds(307, tiledroof).
holds(307, car).

sample(308).
holds(308, building).
holds(308, feature).
holds(308, awning).
holds(308, table).

sample(309).
holds(309, building).
holds(309, feature).
holds(309, miscindustrial).
holds(309, powerplant).
holds(309, watertreatment).
holds(309, industrial).
holds(309, chimney).
holds(309, pipe).
holds(309, truck).

sample(310).
holds(310, building).
holds(310, feature).
holds(310, miscresidential).
holds(310, countryhouse).
holds(310, residential).
holds(310, table).
holds(310, tiledroof).
holds(310, car).

sample(311).
holds(311, building).
holds(311, feature).
holds(311, awning).
holds(311, table).

sample(312).
holds(312, building).
holds(312, feature).
holds(312, powerplant).
holds(312, industrial).
holds(312, awning).
holds(312, chimney).
holds(312, pipe).

sample(313).
holds(313, building).
holds(313, feature).
holds(313, suburban).
holds(313, residential).
holds(313, awning).
holds(313, porch).
holds(313, table).
holds(313, tiledroof).

sample(314).
holds(314, building).
holds(314, feature).
holds(314, awning).
holds(314, table).

sample(315).
holds(315, building).
holds(315, feature).
holds(315, miscindustrial).
holds(315, industrial).
holds(315, truck).

sample(316).
holds(316, building).
holds(316, feature).
holds(316, miscresidential).
holds(316, countryhouse).
holds(316, residential).
holds(316, table).
holds(316, tiledroof).
holds(316, car).

sample(317).
holds(317, building).
holds(317, feature).
holds(317, awning).
holds(317, table).

sample(318).
holds(318, building).
holds(318, feature).
holds(318, miscindustrial).
holds(318, watertreatment).
holds(318, industrial).
holds(318, pipe).
holds(318, truck).

sample(319).
holds(319, building).
holds(319, feature).
holds(319, suburban).
holds(319, residential).
holds(319, awning).
holds(319, porch).
holds(319, table).
holds(319, tiledroof).

sample(320).
holds(320, building).
holds(320, feature).
holds(320, awning).
holds(320, table).

sample(321).
holds(321, building).
holds(321, feature).
holds(321, miscindustrial).
holds(321, powerplant).
holds(321, watertreatment).
holds(321, industrial).
holds(321, chimney).
holds(321, pipe).
holds(321, truck).

sample(322).
holds(322, building).
holds(322, feature).
holds(322, suburban).
holds(322, miscresidential).
holds(322, residential).
holds(322, porch).
holds(322, table).
holds(322, tiledroof).

sample(323).
holds(323, building).
holds(323, feature).
holds(323, awning).
holds(323, table).

sample(324).
holds(324, building).
holds(324, feature).
holds(324, miscindustrial).
holds(324, watertreatment).
holds(324, industrial).
holds(324, pipe).
holds(324, truck).

sample(325).
holds(325, building).
holds(325, feature).
holds(325, suburban).
holds(325, miscresidential).
holds(325, residential).
holds(325, porch).
holds(325, table).
holds(325, tiledroof).

sample(326).
holds(326, building).
holds(326, feature).
holds(326, awning).
holds(326, table).

sample(327).
holds(327, building).
holds(327, feature).
holds(327, constructionsite).
holds(327, awning).
holds(327, table).
holds(327, machine).

sample(328).
holds(328, building).
holds(328, feature).
holds(328, suburban).
holds(328, miscresidential).
holds(328, countryhouse).
holds(328, residential).
holds(328, porch).
holds(328, table).
holds(328, tiledroof).
holds(328, car).

sample(329).
holds(329, building).
holds(329, feature).
holds(329, awning).
holds(329, table).

sample(330).
holds(330, building).
holds(330, feature).
holds(330, miscindustrial).
holds(330, industrial).
holds(330, truck).

sample(331).
holds(331, building).
holds(331, feature).
holds(331, suburban).
holds(331, residential).
holds(331, awning).
holds(331, porch).
holds(331, table).
holds(331, tiledroof).

sample(332).
holds(332, building).
holds(332, feature).
holds(332, awning).
holds(332, table).

sample(333).
holds(333, building).
holds(333, feature).
holds(333, powerplant).
holds(333, industrial).
holds(333, awning).
holds(333, chimney).
holds(333, pipe).

sample(334).
holds(334, building).
holds(334, feature).
holds(334, miscresidential).
holds(334, countryhouse).
holds(334, residential).
holds(334, table).
holds(334, tiledroof).
holds(334, car).

sample(335).
holds(335, building).
holds(335, feature).
holds(335, awning).
holds(335, table).

sample(336).
holds(336, building).
holds(336, feature).
holds(336, powerplant).
holds(336, industrial).
holds(336, awning).
holds(336, chimney).
holds(336, pipe).

sample(337).
holds(337, building).
holds(337, feature).
holds(337, suburban).
holds(337, residential).
holds(337, awning).
holds(337, porch).
holds(337, table).
holds(337, tiledroof).

sample(338).
holds(338, building).
holds(338, feature).
holds(338, awning).
holds(338, table).

sample(339).
holds(339, building).
holds(339, feature).
holds(339, miscindustrial).
holds(339, industrial).
holds(339, truck).

sample(340).
holds(340, building).
holds(340, feature).
holds(340, suburban).
holds(340, miscresidential).
holds(340, countryhouse).
holds(340, residential).
holds(340, porch).
holds(340, table).
holds(340, tiledroof).
holds(340, car).

sample(341).
holds(341, building).
holds(341, feature).
holds(341, awning).
holds(341, table).

sample(342).
holds(342, building).
holds(342, feature).
holds(342, constructionsite).
holds(342, awning).
holds(342, table).
holds(342, machine).

sample(343).
holds(343, building).
holds(343, feature).
holds(343, suburban).
holds(343, residential).
holds(343, awning).
holds(343, porch).
holds(343, table).
holds(343, tiledroof).

sample(344).
holds(344, building).
holds(344, feature).
holds(344, awning).
holds(344, table).

sample(345).
holds(345, building).
holds(345, feature).
holds(345, miscindustrial).
holds(345, industrial).
holds(345, truck).

sample(346).
holds(346, building).
holds(346, feature).
holds(346, suburban).
holds(346, miscresidential).
holds(346, countryhouse).
holds(346, residential).
holds(346, porch).
holds(346, table).
holds(346, tiledroof).
holds(346, car).

sample(347).
holds(347, building).
holds(347, feature).
holds(347, awning).
holds(347, table).

sample(348).
holds(348, building).
holds(348, feature).
holds(348, miscindustrial).
holds(348, watertreatment).
holds(348, industrial).
holds(348, pipe).
holds(348, truck).

sample(349).
holds(349, building).
holds(349, feature).
holds(349, suburban).
holds(349, residential).
holds(349, awning).
holds(349, porch).
holds(349, table).
holds(349, tiledroof).

sample(350).
holds(350, building).
holds(350, feature).
holds(350, awning).
holds(350, table).

sample(351).
holds(351, building).
holds(351, feature).
holds(351, constructionsite).
holds(351, awning).
holds(351, table).
holds(351, machine).

sample(352).
holds(352, building).
holds(352, feature).
holds(352, suburban).
holds(352, miscresidential).
holds(352, residential).
holds(352, porch).
holds(352, table).
holds(352, tiledroof).

sample(353).
holds(353, building).
holds(353, feature).
holds(353, awning).
holds(353, table).

sample(354).
holds(354, building).
holds(354, feature).
holds(354, powerplant).
holds(354, watertreatment).
holds(354, industrial).
holds(354, awning).
holds(354, chimney).
holds(354, pipe).
holds(354, truck).

sample(355).
holds(355, building).
holds(355, feature).
holds(355, suburban).
holds(355, residential).
holds(355, awning).
holds(355, porch).
holds(355, table).
holds(355, tiledroof).

sample(356).
holds(356, building).
holds(356, feature).
holds(356, awning).
holds(356, table).

sample(357).
holds(357, building).
holds(357, feature).
holds(357, powerplant).
holds(357, industrial).
holds(357, awning).
holds(357, chimney).
holds(357, pipe).

sample(358).
holds(358, building).
holds(358, feature).
holds(358, suburban).
holds(358, miscresidential).
holds(358, countryhouse).
holds(358, residential).
holds(358, porch).
holds(358, table).
holds(358, tiledroof).
holds(358, car).

sample(359).
holds(359, building).
holds(359, feature).
holds(359, awning).
holds(359, table).

sample(360).
holds(360, building).
holds(360, feature).
holds(360, powerplant).
holds(360, industrial).
holds(360, awning).
holds(360, chimney).
holds(360, pipe).

sample(361).
holds(361, building).
holds(361, feature).
holds(361, suburban).
holds(361, miscresidential).
holds(361, residential).
holds(361, porch).
holds(361, table).
holds(361, tiledroof).

sample(362).
holds(362, building).
holds(362, feature).
holds(362, awning).
holds(362, table).

sample(363).
holds(363, building).
holds(363, feature).
holds(363, constructionsite).
holds(363, powerplant).
holds(363, awning).
holds(363, table).
holds(363, chimney).
holds(363, pipe).
holds(363, machine).

sample(364).
holds(364, building).
holds(364, feature).
holds(364, suburban).
holds(364, miscresidential).
holds(364, countryhouse).
holds(364, residential).
holds(364, porch).
holds(364, table).
holds(364, tiledroof).
holds(364, car).

sample(365).
holds(365, building).
holds(365, feature).
holds(365, awning).
holds(365, table).

sample(366).
holds(366, building).
holds(366, feature).
holds(366, powerplant).
holds(366, industrial).
holds(366, awning).
holds(366, chimney).
holds(366, pipe).

sample(367).
holds(367, building).
holds(367, feature).
holds(367, suburban).
holds(367, miscresidential).
holds(367, countryhouse).
holds(367, residential).
holds(367, porch).
holds(367, table).
holds(367, tiledroof).
holds(367, car).

sample(368).
holds(368, building).
holds(368, feature).
holds(368, awning).
holds(368, table).

sample(369).
holds(369, building).
holds(369, feature).
holds(369, powerplant).
holds(369, watertreatment).
holds(369, industrial).
holds(369, awning).
holds(369, chimney).
holds(369, pipe).
holds(369, truck).

sample(370).
holds(370, building).
holds(370, feature).
holds(370, suburban).
holds(370, miscresidential).
holds(370, residential).
holds(370, porch).
holds(370, table).
holds(370, tiledroof).

sample(371).
holds(371, building).
holds(371, feature).
holds(371, awning).
holds(371, table).

sample(372).
holds(372, building).
holds(372, feature).
holds(372, powerplant).
holds(372, industrial).
holds(372, awning).
holds(372, chimney).
holds(372, pipe).

sample(373).
holds(373, building).
holds(373, feature).
holds(373, suburban).
holds(373, miscresidential).
holds(373, countryhouse).
holds(373, residential).
holds(373, porch).
holds(373, table).
holds(373, tiledroof).
holds(373, car).

sample(374).
holds(374, building).
holds(374, feature).
holds(374, awning).
holds(374, table).

sample(375).
holds(375, building).
holds(375, feature).
holds(375, constructionsite).
holds(375, awning).
holds(375, table).
holds(375, machine).

sample(376).
holds(376, building).
holds(376, feature).
holds(376, suburban).
holds(376, miscresidential).
holds(376, residential).
holds(376, porch).
holds(376, table).
holds(376, tiledroof).

sample(377).
holds(377, building).
holds(377, feature).
holds(377, awning).
holds(377, table).

sample(378).
holds(378, building).
holds(378, feature).
holds(378, miscindustrial).
holds(378, powerplant).
holds(378, watertreatment).
holds(378, industrial).
holds(378, chimney).
holds(378, pipe).
holds(378, truck).

sample(379).
holds(379, building).
holds(379, feature).
holds(379, miscresidential).
holds(379, countryhouse).
holds(379, residential).
holds(379, table).
holds(379, tiledroof).
holds(379, car).

sample(380).
holds(380, building).
holds(380, feature).
holds(380, awning).
holds(380, table).

sample(381).
holds(381, building).
holds(381, feature).
holds(381, powerplant).
holds(381, industrial).
holds(381, awning).
holds(381, chimney).
holds(381, pipe).

sample(382).
holds(382, building).
holds(382, feature).
holds(382, suburban).
holds(382, miscresidential).
holds(382, countryhouse).
holds(382, residential).
holds(382, porch).
holds(382, table).
holds(382, tiledroof).
holds(382, car).

sample(383).
holds(383, building).
holds(383, feature).
holds(383, awning).
holds(383, table).

sample(384).
holds(384, building).
holds(384, feature).
holds(384, constructionsite).
holds(384, powerplant).
holds(384, awning).
holds(384, table).
holds(384, chimney).
holds(384, pipe).
holds(384, machine).

sample(385).
holds(385, building).
holds(385, feature).
holds(385, suburban).
holds(385, residential).
holds(385, awning).
holds(385, porch).
holds(385, table).
holds(385, tiledroof).

sample(386).
holds(386, building).
holds(386, feature).
holds(386, awning).
holds(386, table).

sample(387).
holds(387, building).
holds(387, feature).
holds(387, constructionsite).
holds(387, awning).
holds(387, table).
holds(387, machine).

sample(388).
holds(388, building).
holds(388, feature).
holds(388, miscresidential).
holds(388, countryhouse).
holds(388, residential).
holds(388, table).
holds(388, tiledroof).
holds(388, car).

sample(389).
holds(389, building).
holds(389, feature).
holds(389, awning).
holds(389, table).

sample(390).
holds(390, building).
holds(390, feature).
holds(390, powerplant).
holds(390, industrial).
holds(390, awning).
holds(390, chimney).
holds(390, pipe).

sample(391).
holds(391, building).
holds(391, feature).
holds(391, miscresidential).
holds(391, residential).
holds(391, table).
holds(391, tiledroof).

sample(392).
holds(392, building).
holds(392, feature).
holds(392, awning).
holds(392, table).

sample(393).
holds(393, building).
holds(393, feature).
holds(393, powerplant).
holds(393, industrial).
holds(393, awning).
holds(393, chimney).
holds(393, pipe).

sample(394).
holds(394, building).
holds(394, feature).
holds(394, suburban).
holds(394, miscresidential).
holds(394, countryhouse).
holds(394, residential).
holds(394, porch).
holds(394, table).
holds(394, tiledroof).
holds(394, car).

sample(395).
holds(395, building).
holds(395, feature).
holds(395, awning).
holds(395, table).

sample(396).
holds(396, building).
holds(396, feature).
holds(396, powerplant).
holds(396, industrial).
holds(396, awning).
holds(396, chimney).
holds(396, pipe).

sample(397).
holds(397, building).
holds(397, feature).
holds(397, miscresidential).
holds(397, residential).
holds(397, table).
holds(397, tiledroof).

sample(398).
holds(398, building).
holds(398, feature).
holds(398, awning).
holds(398, table).

sample(399).
holds(399, building).
holds(399, feature).
holds(399, constructionsite).
holds(399, powerplant).
holds(399, awning).
holds(399, table).
holds(399, chimney).
holds(399, pipe).
holds(399, machine).

sample(400).
holds(400, building).
holds(400, feature).
holds(400, suburban).
holds(400, miscresidential).
holds(400, countryhouse).
holds(400, residential).
holds(400, porch).
holds(400, table).
holds(400, tiledroof).
holds(400, car).

sample(401).
holds(401, building).
holds(401, feature).
holds(401, awning).
holds(401, table).

sample(402).
holds(402, building).
holds(402, feature).
holds(402, constructionsite).
holds(402, awning).
holds(402, table).
holds(402, machine).

sample(403).
holds(403, building).
holds(403, feature).
holds(403, miscresidential).
holds(403, residential).
holds(403, table).
holds(403, tiledroof).

sample(404).
holds(404, building).
holds(404, feature).
holds(404, awning).
holds(404, table).

sample(405).
holds(405, building).
holds(405, feature).
holds(405, powerplant).
holds(405, industrial).
holds(405, awning).
holds(405, chimney).
holds(405, pipe).

sample(406).
holds(406, building).
holds(406, feature).
holds(406, suburban).
holds(406, miscresidential).
holds(406, countryhouse).
holds(406, residential).
holds(406, porch).
holds(406, table).
holds(406, tiledroof).
holds(406, car).

sample(407).
holds(407, building).
holds(407, feature).
holds(407, awning).
holds(407, table).

sample(408).
holds(408, building).
holds(408, feature).
holds(408, constructionsite).
holds(408, awning).
holds(408, table).
holds(408, machine).

sample(409).
holds(409, building).
holds(409, feature).
holds(409, suburban).
holds(409, residential).
holds(409, awning).
holds(409, porch).
holds(409, table).
holds(409, tiledroof).

sample(410).
holds(410, building).
holds(410, feature).
holds(410, awning).
holds(410, table).

sample(411).
holds(411, building).
holds(411, feature).
holds(411, powerplant).
holds(411, industrial).
holds(411, awning).
holds(411, chimney).
holds(411, pipe).

sample(412).
holds(412, building).
holds(412, feature).
holds(412, suburban).
holds(412, miscresidential).
holds(412, countryhouse).
holds(412, residential).
holds(412, porch).
holds(412, table).
holds(412, tiledroof).
holds(412, car).

sample(413).
holds(413, building).
holds(413, feature).
holds(413, awning).
holds(413, table).

sample(414).
holds(414, building).
holds(414, feature).
holds(414, constructionsite).
holds(414, awning).
holds(414, table).
holds(414, machine).

sample(415).
holds(415, building).
holds(415, feature).
holds(415, miscresidential).
holds(415, countryhouse).
holds(415, residential).
holds(415, table).
holds(415, tiledroof).
holds(415, car).

sample(416).
holds(416, building).
holds(416, feature).
holds(416, awning).
holds(416, table).

sample(417).
holds(417, building).
holds(417, feature).
holds(417, miscindustrial).
holds(417, powerplant).
holds(417, watertreatment).
holds(417, industrial).
holds(417, chimney).
holds(417, pipe).
holds(417, truck).

sample(418).
holds(418, building).
holds(418, feature).
holds(418, suburban).
holds(418, miscresidential).
holds(418, residential).
holds(418, porch).
holds(418, table).
holds(418, tiledroof).

sample(419).
holds(419, building).
holds(419, feature).
holds(419, awning).
holds(419, table).

sample(420).
holds(420, building).
holds(420, feature).
holds(420, miscindustrial).
holds(420, industrial).
holds(420, truck).

sample(421).
holds(421, building).
holds(421, feature).
holds(421, suburban).
holds(421, miscresidential).
holds(421, countryhouse).
holds(421, residential).
holds(421, porch).
holds(421, table).
holds(421, tiledroof).
holds(421, car).

sample(422).
holds(422, building).
holds(422, feature).
holds(422, awning).
holds(422, table).

sample(423).
holds(423, building).
holds(423, feature).
holds(423, constructionsite).
holds(423, awning).
holds(423, table).
holds(423, machine).

sample(424).
holds(424, building).
holds(424, feature).
holds(424, miscresidential).
holds(424, countryhouse).
holds(424, residential).
holds(424, table).
holds(424, tiledroof).
holds(424, car).

sample(425).
holds(425, building).
holds(425, feature).
holds(425, awning).
holds(425, table).

sample(426).
holds(426, building).
holds(426, feature).
holds(426, miscindustrial).
holds(426, industrial).
holds(426, truck).

sample(427).
holds(427, building).
holds(427, feature).
holds(427, suburban).
holds(427, miscresidential).
holds(427, residential).
holds(427, porch).
holds(427, table).
holds(427, tiledroof).

sample(428).
holds(428, building).
holds(428, feature).
holds(428, awning).
holds(428, table).

sample(429).
holds(429, building).
holds(429, feature).
holds(429, miscindustrial).
holds(429, industrial).
holds(429, truck).

sample(430).
holds(430, building).
holds(430, feature).
holds(430, miscresidential).
holds(430, residential).
holds(430, table).
holds(430, tiledroof).

sample(431).
holds(431, building).
holds(431, feature).
holds(431, awning).
holds(431, table).

sample(432).
holds(432, building).
holds(432, feature).
holds(432, constructionsite).
holds(432, awning).
holds(432, table).
holds(432, machine).

sample(433).
holds(433, building).
holds(433, feature).
holds(433, suburban).
holds(433, miscresidential).
holds(433, residential).
holds(433, porch).
holds(433, table).
holds(433, tiledroof).

sample(434).
holds(434, building).
holds(434, feature).
holds(434, awning).
holds(434, table).

sample(435).
holds(435, building).
holds(435, feature).
holds(435, constructionsite).
holds(435, awning).
holds(435, table).
holds(435, machine).

sample(436).
holds(436, building).
holds(436, feature).
holds(436, suburban).
holds(436, miscresidential).
holds(436, residential).
holds(436, porch).
holds(436, table).
holds(436, tiledroof).

sample(437).
holds(437, building).
holds(437, feature).
holds(437, awning).
holds(437, table).

sample(438).
holds(438, building).
holds(438, feature).
holds(438, miscindustrial).
holds(438, watertreatment).
holds(438, industrial).
holds(438, pipe).
holds(438, truck).

sample(439).
holds(439, building).
holds(439, feature).
holds(439, suburban).
holds(439, miscresidential).
holds(439, countryhouse).
holds(439, residential).
holds(439, porch).
holds(439, table).
holds(439, tiledroof).
holds(439, car).

sample(440).
holds(440, building).
holds(440, feature).
holds(440, awning).
holds(440, table).

sample(441).
holds(441, building).
holds(441, feature).
holds(441, miscindustrial).
holds(441, powerplant).
holds(441, watertreatment).
holds(441, industrial).
holds(441, chimney).
holds(441, pipe).
holds(441, truck).

sample(442).
holds(442, building).
holds(442, feature).
holds(442, suburban).
holds(442, residential).
holds(442, awning).
holds(442, porch).
holds(442, table).
holds(442, tiledroof).

sample(443).
holds(443, building).
holds(443, feature).
holds(443, awning).
holds(443, table).

sample(444).
holds(444, building).
holds(444, feature).
holds(444, constructionsite).
holds(444, awning).
holds(444, table).
holds(444, machine).

sample(445).
holds(445, building).
holds(445, feature).
holds(445, suburban).
holds(445, miscresidential).
holds(445, countryhouse).
holds(445, residential).
holds(445, porch).
holds(445, table).
holds(445, tiledroof).
holds(445, car).

sample(446).
holds(446, building).
holds(446, feature).
holds(446, awning).
holds(446, table).

sample(447).
holds(447, building).
holds(447, feature).
holds(447, miscindustrial).
holds(447, watertreatment).
holds(447, industrial).
holds(447, pipe).
holds(447, truck).

sample(448).
holds(448, building).
holds(448, feature).
holds(448, suburban).
holds(448, miscresidential).
holds(448, residential).
holds(448, porch).
holds(448, table).
holds(448, tiledroof).

sample(449).
holds(449, building).
holds(449, feature).
holds(449, awning).
holds(449, table).

sample(450).
holds(450, building).
holds(450, feature).
holds(450, miscindustrial).
holds(450, industrial).
holds(450, truck).

sample(451).
holds(451, building).
holds(451, feature).
holds(451, miscresidential).
holds(451, countryhouse).
holds(451, residential).
holds(451, table).
holds(451, tiledroof).
holds(451, car).

sample(452).
holds(452, building).
holds(452, feature).
holds(452, awning).
holds(452, table).

sample(453).
holds(453, building).
holds(453, feature).
holds(453, constructionsite).
holds(453, awning).
holds(453, table).
holds(453, machine).

sample(454).
holds(454, building).
holds(454, feature).
holds(454, suburban).
holds(454, residential).
holds(454, awning).
holds(454, porch).
holds(454, table).
holds(454, tiledroof).

sample(455).
holds(455, building).
holds(455, feature).
holds(455, awning).
holds(455, table).

sample(456).
holds(456, building).
holds(456, feature).
holds(456, miscindustrial).
holds(456, watertreatment).
holds(456, industrial).
holds(456, truck).

sample(457).
holds(457, building).
holds(457, feature).
holds(457, suburban).
holds(457, miscresidential).
holds(457, residential).
holds(457, porch).
holds(457, table).
holds(457, tiledroof).

sample(458).
holds(458, building).
holds(458, feature).
holds(458, awning).
holds(458, table).

sample(459).
holds(459, building).
holds(459, feature).
holds(459, constructionsite).
holds(459, awning).
holds(459, table).
holds(459, machine).

sample(460).
holds(460, building).
holds(460, feature).
holds(460, suburban).
holds(460, miscresidential).
holds(460, residential).
holds(460, porch).
holds(460, table).
holds(460, tiledroof).

sample(461).
holds(461, building).
holds(461, feature).
holds(461, awning).
holds(461, table).

sample(462).
holds(462, building).
holds(462, feature).
holds(462, miscindustrial).
holds(462, watertreatment).
holds(462, industrial).
holds(462, pipe).
holds(462, truck).

sample(463).
holds(463, building).
holds(463, feature).
holds(463, miscresidential).
holds(463, residential).
holds(463, table).
holds(463, tiledroof).

sample(464).
holds(464, building).
holds(464, feature).
holds(464, awning).
holds(464, table).

sample(465).
holds(465, building).
holds(465, feature).
holds(465, miscindustrial).
holds(465, powerplant).
holds(465, watertreatment).
holds(465, industrial).
holds(465, chimney).
holds(465, pipe).
holds(465, truck).

sample(466).
holds(466, building).
holds(466, feature).
holds(466, suburban).
holds(466, miscresidential).
holds(466, residential).
holds(466, porch).
holds(466, table).
holds(466, tiledroof).

sample(467).
holds(467, building).
holds(467, feature).
holds(467, awning).
holds(467, table).

sample(468).
holds(468, building).
holds(468, feature).
holds(468, miscindustrial).
holds(468, industrial).
holds(468, truck).

sample(469).
holds(469, building).
holds(469, feature).
holds(469, suburban).
holds(469, miscresidential).
holds(469, residential).
holds(469, porch).
holds(469, table).
holds(469, tiledroof).

sample(470).
holds(470, building).
holds(470, feature).
holds(470, awning).
holds(470, table).

sample(471).
holds(471, building).
holds(471, feature).
holds(471, constructionsite).
holds(471, awning).
holds(471, table).
holds(471, machine).

sample(472).
holds(472, building).
holds(472, feature).
holds(472, suburban).
holds(472, miscresidential).
holds(472, countryhouse).
holds(472, residential).
holds(472, porch).
holds(472, table).
holds(472, tiledroof).
holds(472, car).

sample(473).
holds(473, building).
holds(473, feature).
holds(473, awning).
holds(473, table).

sample(474).
holds(474, building).
holds(474, feature).
holds(474, miscindustrial).
holds(474, powerplant).
holds(474, watertreatment).
holds(474, industrial).
holds(474, chimney).
holds(474, pipe).
holds(474, truck).

sample(475).
holds(475, building).
holds(475, feature).
holds(475, suburban).
holds(475, miscresidential).
holds(475, countryhouse).
holds(475, residential).
holds(475, porch).
holds(475, table).
holds(475, tiledroof).
holds(475, car).

sample(476).
holds(476, building).
holds(476, feature).
holds(476, awning).
holds(476, table).

sample(477).
holds(477, building).
holds(477, feature).
holds(477, constructionsite).
holds(477, powerplant).
holds(477, awning).
holds(477, table).
holds(477, chimney).
holds(477, pipe).
holds(477, machine).

sample(478).
holds(478, building).
holds(478, feature).
holds(478, suburban).
holds(478, miscresidential).
holds(478, residential).
holds(478, porch).
holds(478, table).
holds(478, tiledroof).

sample(479).
holds(479, building).
holds(479, feature).
holds(479, awning).
holds(479, table).

sample(480).
holds(480, building).
holds(480, feature).
holds(480, powerplant).
holds(480, industrial).
holds(480, awning).
holds(480, chimney).
holds(480, pipe).

sample(481).
holds(481, building).
holds(481, feature).
holds(481, suburban).
holds(481, miscresidential).
holds(481, countryhouse).
holds(481, residential).
holds(481, porch).
holds(481, table).
holds(481, tiledroof).
holds(481, car).

sample(482).
holds(482, building).
holds(482, feature).
holds(482, awning).
holds(482, table).

sample(483).
holds(483, building).
holds(483, feature).
holds(483, miscindustrial).
holds(483, industrial).
holds(483, truck).

sample(484).
holds(484, building).
holds(484, feature).
holds(484, miscresidential).
holds(484, residential).
holds(484, table).
holds(484, tiledroof).

sample(485).
holds(485, building).
holds(485, feature).
holds(485, awning).
holds(485, table).

sample(486).
holds(486, building).
holds(486, feature).
holds(486, miscindustrial).
holds(486, industrial).
holds(486, truck).

sample(487).
holds(487, building).
holds(487, feature).
holds(487, suburban).
holds(487, miscresidential).
holds(487, residential).
holds(487, porch).
holds(487, table).
holds(487, tiledroof).

sample(488).
holds(488, building).
holds(488, feature).
holds(488, awning).
holds(488, table).

sample(489).
holds(489, building).
holds(489, feature).
holds(489, powerplant).
holds(489, industrial).
holds(489, awning).
holds(489, chimney).
holds(489, pipe).

sample(490).
holds(490, building).
holds(490, feature).
holds(490, suburban).
holds(490, miscresidential).
holds(490, residential).
holds(490, porch).
holds(490, table).
holds(490, tiledroof).

sample(491).
holds(491, building).
holds(491, feature).
holds(491, awning).
holds(491, table).

sample(492).
holds(492, building).
holds(492, feature).
holds(492, powerplant).
holds(492, industrial).
holds(492, awning).
holds(492, chimney).
holds(492, pipe).

sample(493).
holds(493, building).
holds(493, feature).
holds(493, suburban).
holds(493, miscresidential).
holds(493, residential).
holds(493, porch).
holds(493, table).
holds(493, tiledroof).

sample(494).
holds(494, building).
holds(494, feature).
holds(494, awning).
holds(494, table).

sample(495).
holds(495, building).
holds(495, feature).
holds(495, constructionsite).
holds(495, powerplant).
holds(495, awning).
holds(495, table).
holds(495, chimney).
holds(495, pipe).
holds(495, machine).

sample(496).
holds(496, building).
holds(496, feature).
holds(496, miscresidential).
holds(496, countryhouse).
holds(496, residential).
holds(496, table).
holds(496, tiledroof).
holds(496, car).

sample(497).
holds(497, building).
holds(497, feature).
holds(497, awning).
holds(497, table).

sample(498).
holds(498, building).
holds(498, feature).
holds(498, constructionsite).
holds(498, awning).
holds(498, table).
holds(498, machine).

sample(499).
holds(499, building).
holds(499, feature).
holds(499, suburban).
holds(499, miscresidential).
holds(499, countryhouse).
holds(499, residential).
holds(499, porch).
holds(499, table).
holds(499, tiledroof).
holds(499, car).

sample(500).
holds(500, building).
holds(500, feature).
holds(500, awning).
holds(500, table).

sample(501).
holds(501, building).
holds(501, feature).
holds(501, watertreatment).
holds(501, industrial).
holds(501, awning).
holds(501, pipe).
holds(501, truck).

sample(502).
holds(502, building).
holds(502, feature).
holds(502, suburban).
holds(502, miscresidential).
holds(502, countryhouse).
holds(502, residential).
holds(502, porch).
holds(502, table).
holds(502, tiledroof).
holds(502, car).

sample(503).
holds(503, building).
holds(503, feature).
holds(503, awning).
holds(503, table).

sample(504).
holds(504, building).
holds(504, feature).
holds(504, constructionsite).
holds(504, powerplant).
holds(504, awning).
holds(504, table).
holds(504, chimney).
holds(504, pipe).
holds(504, machine).

sample(505).
holds(505, building).
holds(505, feature).
holds(505, suburban).
holds(505, miscresidential).
holds(505, residential).
holds(505, porch).
holds(505, table).
holds(505, tiledroof).

sample(506).
holds(506, building).
holds(506, feature).
holds(506, awning).
holds(506, table).

sample(507).
holds(507, building).
holds(507, feature).
holds(507, constructionsite).
holds(507, powerplant).
holds(507, awning).
holds(507, table).
holds(507, chimney).
holds(507, pipe).
holds(507, machine).

sample(508).
holds(508, building).
holds(508, feature).
holds(508, miscresidential).
holds(508, residential).
holds(508, table).
holds(508, tiledroof).

sample(509).
holds(509, building).
holds(509, feature).
holds(509, awning).
holds(509, table).

sample(510).
holds(510, building).
holds(510, feature).
holds(510, miscindustrial).
holds(510, industrial).
holds(510, truck).

sample(511).
holds(511, building).
holds(511, feature).
holds(511, suburban).
holds(511, miscresidential).
holds(511, countryhouse).
holds(511, residential).
holds(511, porch).
holds(511, table).
holds(511, tiledroof).
holds(511, car).

sample(512).
holds(512, building).
holds(512, feature).
holds(512, awning).
holds(512, table).

sample(513).
holds(513, building).
holds(513, feature).
holds(513, powerplant).
holds(513, industrial).
holds(513, awning).
holds(513, chimney).
holds(513, pipe).

sample(514).
holds(514, building).
holds(514, feature).
holds(514, miscresidential).
holds(514, residential).
holds(514, table).
holds(514, tiledroof).

sample(515).
holds(515, building).
holds(515, feature).
holds(515, awning).
holds(515, table).

sample(516).
holds(516, building).
holds(516, feature).
holds(516, constructionsite).
holds(516, awning).
holds(516, table).
holds(516, machine).

sample(517).
holds(517, building).
holds(517, feature).
holds(517, suburban).
holds(517, residential).
holds(517, awning).
holds(517, porch).
holds(517, table).
holds(517, tiledroof).

sample(518).
holds(518, building).
holds(518, feature).
holds(518, awning).
holds(518, table).

sample(519).
holds(519, building).
holds(519, feature).
holds(519, powerplant).
holds(519, industrial).
holds(519, awning).
holds(519, chimney).
holds(519, pipe).

sample(520).
holds(520, building).
holds(520, feature).
holds(520, suburban).
holds(520, miscresidential).
holds(520, residential).
holds(520, porch).
holds(520, table).
holds(520, tiledroof).

sample(521).
holds(521, building).
holds(521, feature).
holds(521, awning).
holds(521, table).

sample(522).
holds(522, building).
holds(522, feature).
holds(522, miscindustrial).
holds(522, powerplant).
holds(522, watertreatment).
holds(522, industrial).
holds(522, chimney).
holds(522, pipe).
holds(522, truck).

sample(523).
holds(523, building).
holds(523, feature).
holds(523, suburban).
holds(523, miscresidential).
holds(523, countryhouse).
holds(523, residential).
holds(523, porch).
holds(523, table).
holds(523, tiledroof).
holds(523, car).

sample(524).
holds(524, building).
holds(524, feature).
holds(524, awning).

sample(525).
holds(525, building).
holds(525, feature).
holds(525, miscindustrial).
holds(525, industrial).
holds(525, truck).

sample(526).
holds(526, building).
holds(526, feature).
holds(526, miscresidential).
holds(526, residential).
holds(526, table).
holds(526, tiledroof).

sample(527).
holds(527, building).
holds(527, feature).
holds(527, awning).
holds(527, table).

sample(528).
holds(528, building).
holds(528, feature).
holds(528, miscindustrial).
holds(528, powerplant).
holds(528, watertreatment).
holds(528, industrial).
holds(528, chimney).
holds(528, pipe).
holds(528, truck).

sample(529).
holds(529, building).
holds(529, feature).
holds(529, miscresidential).
holds(529, countryhouse).
holds(529, residential).
holds(529, table).
holds(529, tiledroof).
holds(529, car).

sample(530).
holds(530, building).
holds(530, feature).
holds(530, awning).
holds(530, table).

sample(531).
holds(531, building).
holds(531, feature).
holds(531, miscindustrial).
holds(531, powerplant).
holds(531, watertreatment).
holds(531, industrial).
holds(531, chimney).
holds(531, pipe).
holds(531, truck).

sample(532).
holds(532, building).
holds(532, feature).
holds(532, miscresidential).
holds(532, countryhouse).
holds(532, residential).
holds(532, table).
holds(532, tiledroof).
holds(532, car).

sample(533).
holds(533, building).
holds(533, feature).
holds(533, awning).
holds(533, table).

sample(534).
holds(534, building).
holds(534, feature).
holds(534, constructionsite).
holds(534, awning).
holds(534, table).
holds(534, machine).

sample(535).
holds(535, building).
holds(535, feature).
holds(535, suburban).
holds(535, miscresidential).
holds(535, countryhouse).
holds(535, residential).
holds(535, porch).
holds(535, table).
holds(535, tiledroof).
holds(535, car).

sample(536).
holds(536, building).
holds(536, feature).
holds(536, awning).
holds(536, table).

sample(537).
holds(537, building).
holds(537, feature).
holds(537, miscindustrial).
holds(537, powerplant).
holds(537, watertreatment).
holds(537, industrial).
holds(537, chimney).
holds(537, pipe).
holds(537, truck).

sample(538).
holds(538, building).
holds(538, feature).
holds(538, miscresidential).
holds(538, countryhouse).
holds(538, residential).
holds(538, table).
holds(538, tiledroof).
holds(538, car).

sample(539).
holds(539, building).
holds(539, feature).
holds(539, awning).
holds(539, table).

sample(540).
holds(540, building).
holds(540, feature).
holds(540, powerplant).
holds(540, watertreatment).
holds(540, industrial).
holds(540, awning).
holds(540, chimney).
holds(540, pipe).
holds(540, truck).

sample(541).
holds(541, building).
holds(541, feature).
holds(541, miscresidential).
holds(541, countryhouse).
holds(541, residential).
holds(541, table).
holds(541, tiledroof).
holds(541, car).

sample(542).
holds(542, building).
holds(542, feature).
holds(542, awning).
holds(542, table).

sample(543).
holds(543, building).
holds(543, feature).
holds(543, miscindustrial).
holds(543, powerplant).
holds(543, watertreatment).
holds(543, industrial).
holds(543, chimney).
holds(543, pipe).
holds(543, truck).

sample(544).
holds(544, building).
holds(544, feature).
holds(544, suburban).
holds(544, miscresidential).
holds(544, countryhouse).
holds(544, residential).
holds(544, porch).
holds(544, table).
holds(544, tiledroof).
holds(544, car).

sample(545).
holds(545, building).
holds(545, feature).
holds(545, awning).
holds(545, table).

sample(546).
holds(546, building).
holds(546, feature).
holds(546, miscindustrial).
holds(546, watertreatment).
holds(546, industrial).
holds(546, truck).

sample(547).
holds(547, building).
holds(547, feature).
holds(547, suburban).
holds(547, miscresidential).
holds(547, countryhouse).
holds(547, residential).
holds(547, porch).
holds(547, table).
holds(547, tiledroof).
holds(547, car).

sample(548).
holds(548, building).
holds(548, feature).
holds(548, awning).
holds(548, table).

sample(549).
holds(549, building).
holds(549, feature).
holds(549, constructionsite).
holds(549, awning).
holds(549, table).
holds(549, machine).

sample(550).
holds(550, building).
holds(550, feature).
holds(550, suburban).
holds(550, miscresidential).
holds(550, residential).
holds(550, porch).
holds(550, table).
holds(550, tiledroof).

sample(551).
holds(551, building).
holds(551, feature).
holds(551, awning).
holds(551, table).

sample(552).
holds(552, building).
holds(552, feature).
holds(552, miscindustrial).
holds(552, industrial).
holds(552, truck).

sample(553).
holds(553, building).
holds(553, feature).
holds(553, miscresidential).
holds(553, residential).
holds(553, table).
holds(553, tiledroof).

sample(554).
holds(554, building).
holds(554, feature).
holds(554, awning).
holds(554, table).

sample(555).
holds(555, building).
holds(555, feature).
holds(555, constructionsite).
holds(555, awning).
holds(555, table).
holds(555, machine).

sample(556).
holds(556, building).
holds(556, feature).
holds(556, miscresidential).
holds(556, residential).
holds(556, table).
holds(556, tiledroof).

sample(557).
holds(557, building).
holds(557, feature).
holds(557, awning).
holds(557, table).

sample(558).
holds(558, building).
holds(558, feature).
holds(558, powerplant).
holds(558, industrial).
holds(558, awning).
holds(558, chimney).
holds(558, pipe).

sample(559).
holds(559, building).
holds(559, feature).
holds(559, suburban).
holds(559, residential).
holds(559, awning).
holds(559, porch).
holds(559, table).
holds(559, tiledroof).

sample(560).
holds(560, building).
holds(560, feature).
holds(560, awning).
holds(560, table).

sample(561).
holds(561, building).
holds(561, feature).
holds(561, powerplant).
holds(561, industrial).
holds(561, awning).
holds(561, chimney).
holds(561, pipe).

sample(562).
holds(562, building).
holds(562, feature).
holds(562, suburban).
holds(562, residential).
holds(562, awning).
holds(562, porch).
holds(562, table).
holds(562, tiledroof).

sample(563).
holds(563, building).
holds(563, feature).
holds(563, awning).
holds(563, table).

sample(564).
holds(564, building).
holds(564, feature).
holds(564, powerplant).
holds(564, industrial).
holds(564, awning).
holds(564, chimney).
holds(564, pipe).

sample(565).
holds(565, building).
holds(565, feature).
holds(565, suburban).
holds(565, miscresidential).
holds(565, countryhouse).
holds(565, residential).
holds(565, porch).
holds(565, table).
holds(565, tiledroof).
holds(565, car).

sample(566).
holds(566, building).
holds(566, feature).
holds(566, awning).
holds(566, table).

sample(567).
holds(567, building).
holds(567, feature).
holds(567, watertreatment).
holds(567, industrial).
holds(567, awning).
holds(567, pipe).
holds(567, truck).

sample(568).
holds(568, building).
holds(568, feature).
holds(568, miscresidential).
holds(568, residential).
holds(568, table).
holds(568, tiledroof).

sample(569).
holds(569, building).
holds(569, feature).
holds(569, awning).
holds(569, table).

sample(570).
holds(570, building).
holds(570, feature).
holds(570, miscindustrial).
holds(570, industrial).
holds(570, truck).

sample(571).
holds(571, building).
holds(571, feature).
holds(571, miscresidential).
holds(571, countryhouse).
holds(571, residential).
holds(571, table).
holds(571, tiledroof).
holds(571, car).

sample(572).
holds(572, building).
holds(572, feature).
holds(572, awning).
holds(572, table).

sample(573).
holds(573, building).
holds(573, feature).
holds(573, constructionsite).
holds(573, awning).
holds(573, table).
holds(573, machine).

sample(574).
holds(574, building).
holds(574, feature).
holds(574, suburban).
holds(574, residential).
holds(574, awning).
holds(574, porch).
holds(574, table).
holds(574, tiledroof).

sample(575).
holds(575, building).
holds(575, feature).
holds(575, awning).
holds(575, table).

sample(576).
holds(576, building).
holds(576, feature).
holds(576, miscindustrial).
holds(576, powerplant).
holds(576, watertreatment).
holds(576, industrial).
holds(576, chimney).
holds(576, pipe).
holds(576, truck).

sample(577).
holds(577, building).
holds(577, feature).
holds(577, miscresidential).
holds(577, residential).
holds(577, table).
holds(577, tiledroof).

sample(578).
holds(578, building).
holds(578, feature).
holds(578, awning).
holds(578, table).

sample(579).
holds(579, building).
holds(579, feature).
holds(579, powerplant).
holds(579, industrial).
holds(579, awning).
holds(579, chimney).
holds(579, pipe).

sample(580).
holds(580, building).
holds(580, feature).
holds(580, suburban).
holds(580, miscresidential).
holds(580, countryhouse).
holds(580, residential).
holds(580, porch).
holds(580, table).
holds(580, tiledroof).
holds(580, car).

sample(581).
holds(581, building).
holds(581, feature).
holds(581, awning).
holds(581, table).

sample(582).
holds(582, building).
holds(582, feature).
holds(582, miscindustrial).
holds(582, industrial).
holds(582, truck).

sample(583).
holds(583, building).
holds(583, feature).
holds(583, miscresidential).
holds(583, countryhouse).
holds(583, residential).
holds(583, table).
holds(583, tiledroof).
holds(583, car).

sample(584).
holds(584, building).
holds(584, feature).
holds(584, awning).
holds(584, table).

sample(585).
holds(585, building).
holds(585, feature).
holds(585, miscindustrial).
holds(585, watertreatment).
holds(585, industrial).
holds(585, truck).

sample(586).
holds(586, building).
holds(586, feature).
holds(586, suburban).
holds(586, miscresidential).
holds(586, residential).
holds(586, porch).
holds(586, table).
holds(586, tiledroof).

sample(587).
holds(587, building).
holds(587, feature).
holds(587, awning).
holds(587, table).

sample(588).
holds(588, building).
holds(588, feature).
holds(588, miscindustrial).
holds(588, watertreatment).
holds(588, industrial).
holds(588, pipe).
holds(588, truck).

sample(589).
holds(589, building).
holds(589, feature).
holds(589, suburban).
holds(589, residential).
holds(589, awning).
holds(589, porch).
holds(589, table).
holds(589, tiledroof).

sample(590).
holds(590, building).
holds(590, feature).
holds(590, awning).
holds(590, table).

sample(591).
holds(591, building).
holds(591, feature).
holds(591, miscindustrial).
holds(591, powerplant).
holds(591, watertreatment).
holds(591, industrial).
holds(591, chimney).
holds(591, pipe).
holds(591, truck).

sample(592).
holds(592, building).
holds(592, feature).
holds(592, suburban).
holds(592, residential).
holds(592, awning).
holds(592, porch).
holds(592, table).
holds(592, tiledroof).

sample(593).
holds(593, building).
holds(593, feature).
holds(593, awning).
holds(593, table).

sample(594).
holds(594, building).
holds(594, feature).
holds(594, miscindustrial).
holds(594, powerplant).
holds(594, watertreatment).
holds(594, industrial).
holds(594, chimney).
holds(594, pipe).
holds(594, truck).

sample(595).
holds(595, building).
holds(595, feature).
holds(595, suburban).
holds(595, miscresidential).
holds(595, residential).
holds(595, porch).
holds(595, table).
holds(595, tiledroof).

sample(596).
holds(596, building).
holds(596, feature).
holds(596, awning).
holds(596, table).

sample(597).
holds(597, building).
holds(597, feature).
holds(597, miscindustrial).
holds(597, industrial).
holds(597, truck).

sample(598).
holds(598, building).
holds(598, feature).
holds(598, suburban).
holds(598, miscresidential).
holds(598, residential).
holds(598, porch).
holds(598, table).
holds(598, tiledroof).

sample(599).
holds(599, building).
holds(599, feature).
holds(599, awning).
holds(599, table).

sample(600).
holds(600, building).
holds(600, feature).
holds(600, miscindustrial).
holds(600, watertreatment).
holds(600, industrial).
holds(600, pipe).
holds(600, truck).

sample(601).
holds(601, building).
holds(601, feature).
holds(601, suburban).
holds(601, miscresidential).
holds(601, residential).
holds(601, porch).
holds(601, table).
holds(601, tiledroof).

sample(602).
holds(602, building).
holds(602, feature).
holds(602, awning).
holds(602, table).

sample(603).
holds(603, building).
holds(603, feature).
holds(603, miscindustrial).
holds(603, watertreatment).
holds(603, industrial).
holds(603, pipe).
holds(603, truck).

sample(604).
holds(604, building).
holds(604, feature).
holds(604, miscresidential).
holds(604, countryhouse).
holds(604, residential).
holds(604, table).
holds(604, tiledroof).
holds(604, car).

sample(605).
holds(605, building).
holds(605, feature).
holds(605, awning).
holds(605, table).

sample(606).
holds(606, building).
holds(606, feature).
holds(606, constructionsite).
holds(606, awning).
holds(606, table).
holds(606, machine).

sample(607).
holds(607, building).
holds(607, feature).
holds(607, miscresidential).
holds(607, countryhouse).
holds(607, residential).
holds(607, table).
holds(607, tiledroof).
holds(607, car).

sample(608).
holds(608, building).
holds(608, feature).
holds(608, awning).
holds(608, table).

sample(609).
holds(609, building).
holds(609, feature).
holds(609, watertreatment).
holds(609, industrial).
holds(609, awning).
holds(609, pipe).
holds(609, truck).

sample(610).
holds(610, building).
holds(610, feature).
holds(610, suburban).
holds(610, residential).
holds(610, awning).
holds(610, porch).
holds(610, table).
holds(610, tiledroof).

sample(611).
holds(611, building).
holds(611, feature).
holds(611, awning).
holds(611, table).

sample(612).
holds(612, building).
holds(612, feature).
holds(612, powerplant).
holds(612, watertreatment).
holds(612, industrial).
holds(612, awning).
holds(612, chimney).
holds(612, pipe).
holds(612, truck).

sample(613).
holds(613, building).
holds(613, feature).
holds(613, suburban).
holds(613, miscresidential).
holds(613, countryhouse).
holds(613, residential).
holds(613, porch).
holds(613, table).
holds(613, tiledroof).
holds(613, car).

sample(614).
holds(614, building).
holds(614, feature).
holds(614, awning).
holds(614, table).

sample(615).
holds(615, building).
holds(615, feature).
holds(615, miscindustrial).
holds(615, watertreatment).
holds(615, industrial).
holds(615, pipe).
holds(615, truck).

sample(616).
holds(616, building).
holds(616, feature).
holds(616, suburban).
holds(616, miscresidential).
holds(616, residential).
holds(616, porch).
holds(616, table).
holds(616, tiledroof).

sample(617).
holds(617, building).
holds(617, feature).
holds(617, awning).
holds(617, table).

sample(618).
holds(618, building).
holds(618, feature).
holds(618, constructionsite).
holds(618, awning).
holds(618, table).
holds(618, chimney).
holds(618, machine).

sample(619).
holds(619, building).
holds(619, feature).
holds(619, suburban).
holds(619, miscresidential).
holds(619, residential).
holds(619, porch).
holds(619, table).
holds(619, tiledroof).

sample(620).
holds(620, building).
holds(620, feature).
holds(620, awning).
holds(620, table).

sample(621).
holds(621, building).
holds(621, feature).
holds(621, miscindustrial).
holds(621, watertreatment).
holds(621, industrial).
holds(621, pipe).
holds(621, truck).

sample(622).
holds(622, building).
holds(622, feature).
holds(622, suburban).
holds(622, miscresidential).
holds(622, residential).
holds(622, porch).
holds(622, table).
holds(622, tiledroof).

sample(623).
holds(623, building).
holds(623, feature).
holds(623, awning).
holds(623, table).

sample(624).
holds(624, building).
holds(624, feature).
holds(624, powerplant).
holds(624, industrial).
holds(624, awning).
holds(624, chimney).
holds(624, pipe).

sample(625).
holds(625, building).
holds(625, feature).
holds(625, miscresidential).
holds(625, countryhouse).
holds(625, residential).
holds(625, table).
holds(625, tiledroof).
holds(625, car).

sample(626).
holds(626, building).
holds(626, feature).
holds(626, awning).
holds(626, table).

sample(627).
holds(627, building).
holds(627, feature).
holds(627, constructionsite).
holds(627, powerplant).
holds(627, awning).
holds(627, table).
holds(627, chimney).
holds(627, pipe).
holds(627, machine).

sample(628).
holds(628, building).
holds(628, feature).
holds(628, suburban).
holds(628, miscresidential).
holds(628, residential).
holds(628, porch).
holds(628, table).
holds(628, tiledroof).

sample(629).
holds(629, building).
holds(629, feature).
holds(629, awning).
holds(629, table).

sample(630).
holds(630, building).
holds(630, feature).
holds(630, constructionsite).
holds(630, awning).
holds(630, table).
holds(630, machine).

sample(631).
holds(631, building).
holds(631, feature).
holds(631, suburban).
holds(631, miscresidential).
holds(631, countryhouse).
holds(631, residential).
holds(631, porch).
holds(631, table).
holds(631, tiledroof).
holds(631, car).

sample(632).
holds(632, building).
holds(632, feature).
holds(632, awning).
holds(632, table).

sample(633).
holds(633, building).
holds(633, feature).
holds(633, powerplant).
holds(633, industrial).
holds(633, awning).
holds(633, chimney).
holds(633, pipe).

sample(634).
holds(634, building).
holds(634, feature).
holds(634, miscresidential).
holds(634, countryhouse).
holds(634, residential).
holds(634, table).
holds(634, tiledroof).
holds(634, car).

sample(635).
holds(635, building).
holds(635, feature).
holds(635, awning).
holds(635, table).

sample(636).
holds(636, building).
holds(636, feature).
holds(636, miscindustrial).
holds(636, powerplant).
holds(636, watertreatment).
holds(636, industrial).
holds(636, chimney).
holds(636, pipe).
holds(636, truck).

sample(637).
holds(637, building).
holds(637, feature).
holds(637, miscresidential).
holds(637, countryhouse).
holds(637, residential).
holds(637, table).
holds(637, tiledroof).
holds(637, car).

sample(638).
holds(638, building).
holds(638, feature).
holds(638, awning).
holds(638, table).

sample(639).
holds(639, building).
holds(639, feature).
holds(639, powerplant).
holds(639, industrial).
holds(639, awning).
holds(639, chimney).
holds(639, pipe).

sample(640).
holds(640, building).
holds(640, feature).
holds(640, miscresidential).
holds(640, residential).
holds(640, table).
holds(640, tiledroof).

sample(641).
holds(641, building).
holds(641, feature).
holds(641, awning).
holds(641, table).

sample(642).
holds(642, building).
holds(642, feature).
holds(642, powerplant).
holds(642, industrial).
holds(642, awning).
holds(642, chimney).
holds(642, pipe).

sample(643).
holds(643, building).
holds(643, feature).
holds(643, suburban).
holds(643, residential).
holds(643, awning).
holds(643, porch).
holds(643, table).
holds(643, tiledroof).

sample(644).
holds(644, building).
holds(644, feature).
holds(644, awning).
holds(644, table).

sample(645).
holds(645, building).
holds(645, feature).
holds(645, miscindustrial).
holds(645, powerplant).
holds(645, watertreatment).
holds(645, industrial).
holds(645, chimney).
holds(645, pipe).
holds(645, truck).

sample(646).
holds(646, building).
holds(646, feature).
holds(646, suburban).
holds(646, miscresidential).
holds(646, residential).
holds(646, porch).
holds(646, table).
holds(646, tiledroof).

sample(647).
holds(647, building).
holds(647, feature).
holds(647, awning).
holds(647, table).

sample(648).
holds(648, building).
holds(648, feature).
holds(648, miscindustrial).
holds(648, watertreatment).
holds(648, industrial).
holds(648, pipe).
holds(648, truck).

sample(649).
holds(649, building).
holds(649, feature).
holds(649, suburban).
holds(649, miscresidential).
holds(649, residential).
holds(649, porch).
holds(649, table).
holds(649, tiledroof).

sample(650).
holds(650, building).
holds(650, feature).
holds(650, awning).
holds(650, table).

sample(651).
holds(651, building).
holds(651, feature).
holds(651, miscindustrial).
holds(651, industrial).
holds(651, truck).

sample(652).
holds(652, building).
holds(652, feature).
holds(652, suburban).
holds(652, miscresidential).
holds(652, residential).
holds(652, porch).
holds(652, table).
holds(652, tiledroof).

sample(653).
holds(653, building).
holds(653, feature).
holds(653, awning).
holds(653, table).

sample(654).
holds(654, building).
holds(654, feature).
holds(654, watertreatment).
holds(654, industrial).
holds(654, awning).
holds(654, pipe).
holds(654, truck).

sample(655).
holds(655, building).
holds(655, feature).
holds(655, miscresidential).
holds(655, countryhouse).
holds(655, residential).
holds(655, table).
holds(655, tiledroof).
holds(655, car).

sample(656).
holds(656, building).
holds(656, feature).
holds(656, awning).
holds(656, table).

sample(657).
holds(657, building).
holds(657, feature).
holds(657, powerplant).
holds(657, industrial).
holds(657, awning).
holds(657, chimney).
holds(657, pipe).

sample(658).
holds(658, building).
holds(658, feature).
holds(658, miscresidential).
holds(658, countryhouse).
holds(658, residential).
holds(658, table).
holds(658, tiledroof).
holds(658, car).

sample(659).
holds(659, building).
holds(659, feature).
holds(659, awning).
holds(659, table).

sample(660).
holds(660, building).
holds(660, feature).
holds(660, miscindustrial).
holds(660, powerplant).
holds(660, watertreatment).
holds(660, industrial).
holds(660, chimney).
holds(660, pipe).
holds(660, truck).

sample(661).
holds(661, building).
holds(661, feature).
holds(661, miscresidential).
holds(661, countryhouse).
holds(661, residential).
holds(661, table).
holds(661, tiledroof).
holds(661, car).

sample(662).
holds(662, building).
holds(662, feature).
holds(662, awning).
holds(662, table).

sample(663).
holds(663, building).
holds(663, feature).
holds(663, constructionsite).
holds(663, powerplant).
holds(663, awning).
holds(663, table).
holds(663, chimney).
holds(663, pipe).
holds(663, machine).

sample(664).
holds(664, building).
holds(664, feature).
holds(664, suburban).
holds(664, miscresidential).
holds(664, countryhouse).
holds(664, residential).
holds(664, porch).
holds(664, table).
holds(664, tiledroof).
holds(664, car).

sample(665).
holds(665, building).
holds(665, feature).
holds(665, awning).
holds(665, table).

sample(666).
holds(666, building).
holds(666, feature).
holds(666, miscindustrial).
holds(666, powerplant).
holds(666, watertreatment).
holds(666, industrial).
holds(666, chimney).
holds(666, pipe).
holds(666, truck).

sample(667).
holds(667, building).
holds(667, feature).
holds(667, suburban).
holds(667, residential).
holds(667, awning).
holds(667, porch).
holds(667, table).
holds(667, tiledroof).

sample(668).
holds(668, building).
holds(668, feature).
holds(668, awning).
holds(668, table).

sample(669).
holds(669, building).
holds(669, feature).
holds(669, constructionsite).
holds(669, awning).
holds(669, table).
holds(669, machine).

sample(670).
holds(670, building).
holds(670, feature).
holds(670, miscresidential).
holds(670, countryhouse).
holds(670, residential).
holds(670, table).
holds(670, tiledroof).
holds(670, car).

sample(671).
holds(671, building).
holds(671, feature).
holds(671, awning).
holds(671, table).

sample(672).
holds(672, building).
holds(672, feature).
holds(672, miscindustrial).
holds(672, watertreatment).
holds(672, industrial).
holds(672, pipe).
holds(672, truck).

sample(673).
holds(673, building).
holds(673, feature).
holds(673, suburban).
holds(673, miscresidential).
holds(673, countryhouse).
holds(673, residential).
holds(673, porch).
holds(673, table).
holds(673, tiledroof).
holds(673, car).

sample(674).
holds(674, building).
holds(674, feature).
holds(674, awning).
holds(674, table).

sample(675).
holds(675, building).
holds(675, feature).
holds(675, miscindustrial).
holds(675, powerplant).
holds(675, watertreatment).
holds(675, industrial).
holds(675, chimney).
holds(675, pipe).
holds(675, truck).

sample(676).
holds(676, building).
holds(676, feature).
holds(676, miscresidential).
holds(676, residential).
holds(676, table).
holds(676, tiledroof).

sample(677).
holds(677, building).
holds(677, feature).
holds(677, awning).
holds(677, table).

sample(678).
holds(678, building).
holds(678, feature).
holds(678, miscindustrial).
holds(678, powerplant).
holds(678, watertreatment).
holds(678, industrial).
holds(678, chimney).
holds(678, pipe).
holds(678, truck).

sample(679).
holds(679, building).
holds(679, feature).
holds(679, miscresidential).
holds(679, countryhouse).
holds(679, residential).
holds(679, table).
holds(679, tiledroof).
holds(679, car).

sample(680).
holds(680, building).
holds(680, feature).
holds(680, awning).
holds(680, table).

sample(681).
holds(681, building).
holds(681, feature).
holds(681, constructionsite).
holds(681, powerplant).
holds(681, awning).
holds(681, table).
holds(681, chimney).
holds(681, pipe).
holds(681, machine).

sample(682).
holds(682, building).
holds(682, feature).
holds(682, miscresidential).
holds(682, residential).
holds(682, table).
holds(682, tiledroof).

sample(683).
holds(683, building).
holds(683, feature).
holds(683, awning).
holds(683, table).

sample(684).
holds(684, building).
holds(684, feature).
holds(684, powerplant).
holds(684, watertreatment).
holds(684, industrial).
holds(684, chimney).
holds(684, pipe).
holds(684, truck).

sample(685).
holds(685, building).
holds(685, feature).
holds(685, suburban).
holds(685, miscresidential).
holds(685, countryhouse).
holds(685, residential).
holds(685, porch).
holds(685, table).
holds(685, tiledroof).
holds(685, car).

sample(686).
holds(686, building).
holds(686, feature).
holds(686, awning).
holds(686, table).

sample(687).
holds(687, building).
holds(687, feature).
holds(687, constructionsite).
holds(687, awning).
holds(687, table).
holds(687, machine).

sample(688).
holds(688, building).
holds(688, feature).
holds(688, suburban).
holds(688, miscresidential).
holds(688, countryhouse).
holds(688, residential).
holds(688, porch).
holds(688, table).
holds(688, tiledroof).
holds(688, car).

sample(689).
holds(689, building).
holds(689, feature).
holds(689, awning).
holds(689, table).

sample(690).
holds(690, building).
holds(690, feature).
holds(690, miscindustrial).
holds(690, powerplant).
holds(690, watertreatment).
holds(690, industrial).
holds(690, chimney).
holds(690, pipe).
holds(690, truck).

sample(691).
holds(691, building).
holds(691, feature).
holds(691, suburban).
holds(691, miscresidential).
holds(691, residential).
holds(691, porch).
holds(691, table).
holds(691, tiledroof).

sample(692).
holds(692, building).
holds(692, feature).
holds(692, awning).
holds(692, table).

sample(693).
holds(693, building).
holds(693, feature).
holds(693, constructionsite).
holds(693, awning).
holds(693, table).
holds(693, machine).

sample(694).
holds(694, building).
holds(694, feature).
holds(694, suburban).
holds(694, miscresidential).
holds(694, countryhouse).
holds(694, residential).
holds(694, porch).
holds(694, table).
holds(694, tiledroof).
holds(694, car).

sample(695).
holds(695, building).
holds(695, feature).
holds(695, awning).
holds(695, table).

sample(696).
holds(696, building).
holds(696, feature).
holds(696, constructionsite).
holds(696, powerplant).
holds(696, awning).
holds(696, table).
holds(696, chimney).
holds(696, pipe).
holds(696, machine).

sample(697).
holds(697, building).
holds(697, feature).
holds(697, miscresidential).
holds(697, residential).
holds(697, table).
holds(697, tiledroof).

sample(698).
holds(698, building).
holds(698, feature).
holds(698, powerplant).
holds(698, industrial).
holds(698, awning).
holds(698, chimney).
holds(698, pipe).

sample(699).
holds(699, building).
holds(699, feature).
holds(699, powerplant).
holds(699, industrial).
holds(699, awning).
holds(699, chimney).
holds(699, pipe).

sample(700).
holds(700, building).
holds(700, feature).
holds(700, miscresidential).
holds(700, countryhouse).
holds(700, residential).
holds(700, table).
holds(700, tiledroof).
holds(700, car).

sample(701).
holds(701, building).
holds(701, feature).
holds(701, awning).
holds(701, table).

sample(702).
holds(702, building).
holds(702, feature).
holds(702, miscindustrial).
holds(702, watertreatment).
holds(702, industrial).
holds(702, pipe).
holds(702, truck).

sample(703).
holds(703, building).
holds(703, feature).
holds(703, miscresidential).
holds(703, countryhouse).
holds(703, residential).
holds(703, table).
holds(703, tiledroof).
holds(703, car).

sample(704).
holds(704, building).
holds(704, feature).
holds(704, awning).
holds(704, table).

sample(705).
holds(705, building).
holds(705, feature).
holds(705, constructionsite).
holds(705, powerplant).
holds(705, awning).
holds(705, table).
holds(705, chimney).
holds(705, pipe).
holds(705, machine).

sample(706).
holds(706, building).
holds(706, feature).
holds(706, miscresidential).
holds(706, countryhouse).
holds(706, residential).
holds(706, table).
holds(706, tiledroof).
holds(706, car).

sample(707).
holds(707, building).
holds(707, feature).
holds(707, awning).
holds(707, table).

sample(708).
holds(708, building).
holds(708, feature).
holds(708, miscindustrial).
holds(708, watertreatment).
holds(708, industrial).
holds(708, pipe).
holds(708, truck).

sample(709).
holds(709, building).
holds(709, feature).
holds(709, suburban).
holds(709, miscresidential).
holds(709, countryhouse).
holds(709, residential).
holds(709, porch).
holds(709, table).
holds(709, tiledroof).
holds(709, car).

sample(710).
holds(710, building).
holds(710, feature).
holds(710, awning).
holds(710, table).

sample(711).
holds(711, building).
holds(711, feature).
holds(711, constructionsite).
holds(711, awning).
holds(711, table).
holds(711, machine).

sample(712).
holds(712, building).
holds(712, feature).
holds(712, suburban).
holds(712, miscresidential).
holds(712, countryhouse).
holds(712, residential).
holds(712, porch).
holds(712, table).
holds(712, tiledroof).
holds(712, car).

sample(713).
holds(713, building).
holds(713, feature).
holds(713, table).

sample(714).
holds(714, building).
holds(714, feature).
holds(714, miscindustrial).
holds(714, powerplant).
holds(714, watertreatment).
holds(714, industrial).
holds(714, chimney).
holds(714, pipe).
holds(714, truck).

sample(715).
holds(715, building).
holds(715, feature).
holds(715, suburban).
holds(715, miscresidential).
holds(715, residential).
holds(715, porch).
holds(715, table).
holds(715, tiledroof).

sample(716).
holds(716, building).
holds(716, feature).
holds(716, awning).
holds(716, table).

sample(717).
holds(717, building).
holds(717, feature).
holds(717, miscindustrial).
holds(717, watertreatment).
holds(717, industrial).
holds(717, truck).

sample(718).
holds(718, building).
holds(718, feature).
holds(718, suburban).
holds(718, residential).
holds(718, awning).
holds(718, porch).
holds(718, table).
holds(718, tiledroof).

sample(719).
holds(719, building).
holds(719, feature).
holds(719, awning).
holds(719, table).

sample(720).
holds(720, building).
holds(720, feature).
holds(720, powerplant).
holds(720, industrial).
holds(720, awning).
holds(720, chimney).
holds(720, pipe).

sample(721).
holds(721, building).
holds(721, feature).
holds(721, suburban).
holds(721, miscresidential).
holds(721, residential).
holds(721, porch).
holds(721, table).
holds(721, tiledroof).

sample(722).
holds(722, building).
holds(722, feature).
holds(722, awning).
holds(722, table).

sample(723).
holds(723, building).
holds(723, feature).
holds(723, miscindustrial).
holds(723, industrial).
holds(723, truck).

sample(724).
holds(724, building).
holds(724, feature).
holds(724, suburban).
holds(724, miscresidential).
holds(724, countryhouse).
holds(724, residential).
holds(724, porch).
holds(724, table).
holds(724, tiledroof).
holds(724, car).

sample(725).
holds(725, building).
holds(725, feature).
holds(725, awning).
holds(725, table).

sample(726).
holds(726, building).
holds(726, feature).
holds(726, constructionsite).
holds(726, powerplant).
holds(726, awning).
holds(726, table).
holds(726, chimney).
holds(726, pipe).
holds(726, machine).

sample(727).
holds(727, building).
holds(727, feature).
holds(727, miscresidential).
holds(727, countryhouse).
holds(727, residential).
holds(727, table).
holds(727, tiledroof).
holds(727, car).

sample(728).
holds(728, building).
holds(728, feature).
holds(728, awning).
holds(728, table).

sample(729).
holds(729, building).
holds(729, feature).
holds(729, miscindustrial).
holds(729, industrial).
holds(729, truck).

sample(730).
holds(730, building).
holds(730, feature).
holds(730, suburban).
holds(730, residential).
holds(730, awning).
holds(730, porch).
holds(730, table).
holds(730, tiledroof).

sample(731).
holds(731, building).
holds(731, feature).
holds(731, awning).
holds(731, table).

sample(732).
holds(732, building).
holds(732, feature).
holds(732, miscindustrial).
holds(732, powerplant).
holds(732, watertreatment).
holds(732, industrial).
holds(732, chimney).
holds(732, pipe).
holds(732, truck).

sample(733).
holds(733, building).
holds(733, feature).
holds(733, suburban).
holds(733, residential).
holds(733, awning).
holds(733, porch).
holds(733, table).
holds(733, tiledroof).

sample(734).
holds(734, building).
holds(734, feature).
holds(734, awning).
holds(734, table).

sample(735).
holds(735, building).
holds(735, feature).
holds(735, constructionsite).
holds(735, powerplant).
holds(735, awning).
holds(735, table).
holds(735, chimney).
holds(735, pipe).
holds(735, machine).

sample(736).
holds(736, building).
holds(736, feature).
holds(736, suburban).
holds(736, miscresidential).
holds(736, countryhouse).
holds(736, residential).
holds(736, porch).
holds(736, table).
holds(736, tiledroof).
holds(736, car).

sample(737).
holds(737, building).
holds(737, feature).
holds(737, awning).
holds(737, table).

sample(738).
holds(738, building).
holds(738, feature).
holds(738, powerplant).
holds(738, industrial).
holds(738, awning).
holds(738, chimney).
holds(738, pipe).

sample(739).
holds(739, building).
holds(739, feature).
holds(739, suburban).
holds(739, residential).
holds(739, awning).
holds(739, porch).
holds(739, table).
holds(739, tiledroof).

sample(740).
holds(740, building).
holds(740, feature).
holds(740, awning).
holds(740, table).

sample(741).
holds(741, building).
holds(741, feature).
holds(741, constructionsite).
holds(741, awning).
holds(741, table).
holds(741, machine).

sample(742).
holds(742, building).
holds(742, feature).
holds(742, miscresidential).
holds(742, countryhouse).
holds(742, residential).
holds(742, table).
holds(742, tiledroof).
holds(742, car).

sample(743).
holds(743, building).
holds(743, feature).
holds(743, awning).
holds(743, table).

sample(744).
holds(744, building).
holds(744, feature).
holds(744, miscindustrial).
holds(744, watertreatment).
holds(744, industrial).
holds(744, truck).

sample(745).
holds(745, building).
holds(745, feature).
holds(745, miscresidential).
holds(745, residential).
holds(745, table).
holds(745, tiledroof).

sample(746).
holds(746, building).
holds(746, feature).
holds(746, awning).
holds(746, table).

sample(747).
holds(747, building).
holds(747, feature).
holds(747, miscindustrial).
holds(747, powerplant).
holds(747, watertreatment).
holds(747, industrial).
holds(747, chimney).
holds(747, pipe).
holds(747, truck).

sample(748).
holds(748, building).
holds(748, feature).
holds(748, suburban).
holds(748, miscresidential).
holds(748, residential).
holds(748, porch).
holds(748, table).
holds(748, tiledroof).

sample(749).
holds(749, building).
holds(749, feature).
holds(749, awning).
holds(749, table).

sample(750).
holds(750, building).
holds(750, feature).
holds(750, constructionsite).
holds(750, awning).
holds(750, table).
holds(750, machine).

sample(751).
holds(751, building).
holds(751, feature).
holds(751, miscresidential).
holds(751, residential).
holds(751, table).
holds(751, tiledroof).

sample(752).
holds(752, building).
holds(752, feature).
holds(752, awning).
holds(752, table).

sample(753).
holds(753, building).
holds(753, feature).
holds(753, miscindustrial).
holds(753, watertreatment).
holds(753, industrial).
holds(753, truck).

sample(754).
holds(754, building).
holds(754, feature).
holds(754, suburban).
holds(754, miscresidential).
holds(754, residential).
holds(754, porch).
holds(754, table).
holds(754, tiledroof).

sample(755).
holds(755, building).
holds(755, feature).
holds(755, awning).
holds(755, table).

sample(756).
holds(756, building).
holds(756, feature).
holds(756, constructionsite).
holds(756, powerplant).
holds(756, awning).
holds(756, table).
holds(756, chimney).
holds(756, pipe).
holds(756, machine).

sample(757).
holds(757, building).
holds(757, feature).
holds(757, miscresidential).
holds(757, residential).
holds(757, table).
holds(757, tiledroof).

sample(758).
holds(758, building).
holds(758, feature).
holds(758, awning).
holds(758, table).

sample(759).
holds(759, building).
holds(759, feature).
holds(759, miscindustrial).
holds(759, watertreatment).
holds(759, industrial).
holds(759, truck).

sample(760).
holds(760, building).
holds(760, feature).
holds(760, suburban).
holds(760, residential).
holds(760, awning).
holds(760, porch).
holds(760, table).
holds(760, tiledroof).

sample(761).
holds(761, building).
holds(761, feature).
holds(761, awning).
holds(761, table).

sample(762).
holds(762, building).
holds(762, feature).
holds(762, powerplant).
holds(762, watertreatment).
holds(762, industrial).
holds(762, awning).
holds(762, chimney).
holds(762, pipe).
holds(762, truck).

sample(763).
holds(763, building).
holds(763, feature).
holds(763, suburban).
holds(763, residential).
holds(763, awning).
holds(763, porch).
holds(763, table).
holds(763, tiledroof).

sample(764).
holds(764, building).
holds(764, feature).
holds(764, awning).
holds(764, table).

sample(765).
holds(765, building).
holds(765, feature).
holds(765, powerplant).
holds(765, industrial).
holds(765, awning).
holds(765, chimney).
holds(765, pipe).

sample(766).
holds(766, building).
holds(766, feature).
holds(766, miscresidential).
holds(766, countryhouse).
holds(766, residential).
holds(766, table).
holds(766, tiledroof).
holds(766, car).

sample(767).
holds(767, building).
holds(767, feature).
holds(767, awning).
holds(767, table).

sample(768).
holds(768, building).
holds(768, feature).
holds(768, powerplant).
holds(768, industrial).
holds(768, awning).
holds(768, chimney).
holds(768, pipe).

sample(769).
holds(769, building).
holds(769, feature).
holds(769, suburban).
holds(769, residential).
holds(769, awning).
holds(769, porch).
holds(769, table).
holds(769, tiledroof).

sample(770).
holds(770, building).
holds(770, feature).
holds(770, table).

sample(771).
holds(771, building).
holds(771, feature).
holds(771, powerplant).
holds(771, industrial).
holds(771, awning).
holds(771, chimney).
holds(771, pipe).

sample(772).
holds(772, building).
holds(772, feature).
holds(772, suburban).
holds(772, residential).
holds(772, awning).
holds(772, porch).
holds(772, table).
holds(772, tiledroof).

sample(773).
holds(773, building).
holds(773, feature).
holds(773, awning).
holds(773, table).

sample(774).
holds(774, building).
holds(774, feature).
holds(774, miscindustrial).
holds(774, powerplant).
holds(774, watertreatment).
holds(774, industrial).
holds(774, chimney).
holds(774, pipe).
holds(774, truck).

sample(775).
holds(775, building).
holds(775, feature).
holds(775, suburban).
holds(775, miscresidential).
holds(775, countryhouse).
holds(775, residential).
holds(775, porch).
holds(775, table).
holds(775, tiledroof).
holds(775, car).

sample(776).
holds(776, building).
holds(776, feature).
holds(776, awning).
holds(776, table).

sample(777).
holds(777, building).
holds(777, feature).
holds(777, miscindustrial).
holds(777, watertreatment).
holds(777, industrial).
holds(777, pipe).
holds(777, truck).

sample(778).
holds(778, building).
holds(778, feature).
holds(778, suburban).
holds(778, miscresidential).
holds(778, countryhouse).
holds(778, residential).
holds(778, porch).
holds(778, table).
holds(778, tiledroof).
holds(778, car).

sample(779).
holds(779, building).
holds(779, feature).
holds(779, awning).
holds(779, table).

sample(780).
holds(780, building).
holds(780, feature).
holds(780, powerplant).
holds(780, watertreatment).
holds(780, industrial).
holds(780, awning).
holds(780, chimney).
holds(780, pipe).
holds(780, truck).

sample(781).
holds(781, building).
holds(781, feature).
holds(781, miscresidential).
holds(781, countryhouse).
holds(781, residential).
holds(781, table).
holds(781, tiledroof).
holds(781, car).

sample(782).
holds(782, building).
holds(782, feature).
holds(782, awning).
holds(782, table).

sample(783).
holds(783, building).
holds(783, feature).
holds(783, miscindustrial).
holds(783, watertreatment).
holds(783, industrial).
holds(783, pipe).
holds(783, truck).

sample(784).
holds(784, building).
holds(784, feature).
holds(784, suburban).
holds(784, miscresidential).
holds(784, residential).
holds(784, porch).
holds(784, table).
holds(784, tiledroof).

sample(785).
holds(785, building).
holds(785, feature).
holds(785, awning).
holds(785, table).

sample(786).
holds(786, building).
holds(786, feature).
holds(786, constructionsite).
holds(786, awning).
holds(786, table).
holds(786, machine).

sample(787).
holds(787, building).
holds(787, feature).
holds(787, suburban).
holds(787, miscresidential).
holds(787, countryhouse).
holds(787, residential).
holds(787, porch).
holds(787, table).
holds(787, tiledroof).
holds(787, car).

sample(788).
holds(788, building).
holds(788, feature).
holds(788, awning).
holds(788, table).

sample(789).
holds(789, building).
holds(789, feature).
holds(789, constructionsite).
holds(789, awning).
holds(789, table).
holds(789, machine).

sample(790).
holds(790, building).
holds(790, feature).
holds(790, suburban).
holds(790, miscresidential).
holds(790, countryhouse).
holds(790, residential).
holds(790, porch).
holds(790, table).
holds(790, tiledroof).
holds(790, car).

sample(791).
holds(791, building).
holds(791, feature).
holds(791, awning).
holds(791, table).

sample(792).
holds(792, building).
holds(792, feature).
holds(792, watertreatment).
holds(792, industrial).
holds(792, pipe).
holds(792, truck).

sample(793).
holds(793, building).
holds(793, feature).
holds(793, miscresidential).
holds(793, residential).
holds(793, table).
holds(793, tiledroof).

sample(794).
holds(794, building).
holds(794, feature).
holds(794, awning).
holds(794, table).

sample(795).
holds(795, building).
holds(795, feature).
holds(795, constructionsite).
holds(795, awning).
holds(795, table).
holds(795, machine).

sample(796).
holds(796, building).
holds(796, feature).
holds(796, miscresidential).
holds(796, residential).
holds(796, table).
holds(796, tiledroof).

sample(797).
holds(797, building).
holds(797, feature).
holds(797, awning).
holds(797, table).

sample(798).
holds(798, building).
holds(798, feature).
holds(798, miscindustrial).
holds(798, industrial).
holds(798, truck).

sample(799).
holds(799, building).
holds(799, feature).
holds(799, suburban).
holds(799, miscresidential).
holds(799, residential).
holds(799, porch).
holds(799, table).
holds(799, tiledroof).

sample(800).
holds(800, building).
holds(800, feature).
holds(800, awning).
holds(800, table).

sample(801).
holds(801, building).
holds(801, feature).
holds(801, powerplant).
holds(801, industrial).
holds(801, awning).
holds(801, chimney).
holds(801, pipe).

sample(802).
holds(802, building).
holds(802, feature).
holds(802, suburban).
holds(802, miscresidential).
holds(802, residential).
holds(802, porch).
holds(802, table).
holds(802, tiledroof).

sample(803).
holds(803, building).
holds(803, feature).
holds(803, awning).
holds(803, table).

sample(804).
holds(804, building).
holds(804, feature).
holds(804, powerplant).
holds(804, industrial).
holds(804, awning).
holds(804, chimney).
holds(804, pipe).

sample(805).
holds(805, building).
holds(805, feature).
holds(805, miscresidential).
holds(805, residential).
holds(805, table).
holds(805, tiledroof).

sample(806).
holds(806, building).
holds(806, feature).
holds(806, awning).
holds(806, table).

sample(807).
holds(807, building).
holds(807, feature).
holds(807, powerplant).
holds(807, industrial).
holds(807, awning).
holds(807, chimney).
holds(807, pipe).

sample(808).
holds(808, building).
holds(808, feature).
holds(808, suburban).
holds(808, miscresidential).
holds(808, residential).
holds(808, porch).
holds(808, table).
holds(808, tiledroof).

sample(809).
holds(809, building).
holds(809, feature).
holds(809, awning).
holds(809, table).

sample(810).
holds(810, building).
holds(810, feature).
holds(810, miscindustrial).
holds(810, powerplant).
holds(810, watertreatment).
holds(810, industrial).
holds(810, chimney).
holds(810, pipe).
holds(810, truck).

sample(811).
holds(811, building).
holds(811, feature).
holds(811, suburban).
holds(811, residential).
holds(811, awning).
holds(811, porch).
holds(811, table).
holds(811, tiledroof).

sample(812).
holds(812, building).
holds(812, feature).
holds(812, awning).
holds(812, table).

sample(813).
holds(813, building).
holds(813, feature).
holds(813, constructionsite).
holds(813, powerplant).
holds(813, awning).
holds(813, table).
holds(813, chimney).
holds(813, pipe).
holds(813, machine).

sample(814).
holds(814, building).
holds(814, feature).
holds(814, suburban).
holds(814, miscresidential).
holds(814, residential).
holds(814, porch).
holds(814, table).
holds(814, tiledroof).

sample(815).
holds(815, building).
holds(815, feature).
holds(815, awning).
holds(815, table).

sample(816).
holds(816, building).
holds(816, feature).
holds(816, constructionsite).
holds(816, awning).
holds(816, table).
holds(816, machine).

sample(817).
holds(817, building).
holds(817, feature).
holds(817, miscresidential).
holds(817, countryhouse).
holds(817, residential).
holds(817, table).
holds(817, tiledroof).
holds(817, car).

sample(818).
holds(818, building).
holds(818, feature).
holds(818, awning).
holds(818, table).

sample(819).
holds(819, building).
holds(819, feature).
holds(819, miscindustrial).
holds(819, industrial).
holds(819, truck).

sample(820).
holds(820, building).
holds(820, feature).
holds(820, suburban).
holds(820, miscresidential).
holds(820, residential).
holds(820, porch).
holds(820, table).
holds(820, tiledroof).

sample(821).
holds(821, building).
holds(821, feature).
holds(821, awning).
holds(821, table).

sample(822).
holds(822, building).
holds(822, feature).
holds(822, miscindustrial).
holds(822, industrial).
holds(822, truck).

sample(823).
holds(823, building).
holds(823, feature).
holds(823, suburban).
holds(823, miscresidential).
holds(823, countryhouse).
holds(823, residential).
holds(823, porch).
holds(823, table).
holds(823, tiledroof).
holds(823, car).

sample(824).
holds(824, building).
holds(824, feature).
holds(824, awning).
holds(824, table).

sample(825).
holds(825, building).
holds(825, feature).
holds(825, miscindustrial).
holds(825, watertreatment).
holds(825, industrial).
holds(825, pipe).
holds(825, truck).

sample(826).
holds(826, building).
holds(826, feature).
holds(826, suburban).
holds(826, residential).
holds(826, awning).
holds(826, porch).
holds(826, table).
holds(826, tiledroof).

sample(827).
holds(827, building).
holds(827, feature).
holds(827, awning).
holds(827, table).

sample(828).
holds(828, building).
holds(828, feature).
holds(828, constructionsite).
holds(828, awning).
holds(828, table).
holds(828, machine).

sample(829).
holds(829, building).
holds(829, feature).
holds(829, miscresidential).
holds(829, residential).
holds(829, table).
holds(829, tiledroof).

sample(830).
holds(830, building).
holds(830, feature).
holds(830, awning).
holds(830, table).

sample(831).
holds(831, building).
holds(831, feature).
holds(831, miscindustrial).
holds(831, watertreatment).
holds(831, industrial).
holds(831, pipe).
holds(831, truck).

sample(832).
holds(832, building).
holds(832, feature).
holds(832, miscresidential).
holds(832, countryhouse).
holds(832, residential).
holds(832, table).
holds(832, tiledroof).
holds(832, car).

sample(833).
holds(833, building).
holds(833, feature).
holds(833, awning).
holds(833, table).

sample(834).
holds(834, building).
holds(834, feature).
holds(834, miscindustrial).
holds(834, industrial).
holds(834, truck).

sample(835).
holds(835, building).
holds(835, feature).
holds(835, suburban).
holds(835, miscresidential).
holds(835, residential).
holds(835, porch).
holds(835, table).
holds(835, tiledroof).

sample(836).
holds(836, building).
holds(836, feature).
holds(836, awning).
holds(836, table).

sample(837).
holds(837, building).
holds(837, feature).
holds(837, miscindustrial).
holds(837, watertreatment).
holds(837, industrial).
holds(837, pipe).
holds(837, truck).

sample(838).
holds(838, building).
holds(838, feature).
holds(838, suburban).
holds(838, miscresidential).
holds(838, countryhouse).
holds(838, residential).
holds(838, porch).
holds(838, table).
holds(838, tiledroof).
holds(838, car).

sample(839).
holds(839, building).
holds(839, feature).
holds(839, awning).
holds(839, table).

sample(840).
holds(840, building).
holds(840, feature).
holds(840, watertreatment).
holds(840, industrial).
holds(840, awning).
holds(840, pipe).
holds(840, truck).

sample(841).
holds(841, building).
holds(841, feature).
holds(841, suburban).
holds(841, residential).
holds(841, awning).
holds(841, porch).
holds(841, table).
holds(841, tiledroof).

sample(842).
holds(842, building).
holds(842, feature).
holds(842, awning).
holds(842, table).

sample(843).
holds(843, building).
holds(843, feature).
holds(843, miscindustrial).
holds(843, powerplant).
holds(843, watertreatment).
holds(843, industrial).
holds(843, chimney).
holds(843, pipe).
holds(843, truck).

sample(844).
holds(844, building).
holds(844, feature).
holds(844, suburban).
holds(844, miscresidential).
holds(844, residential).
holds(844, porch).
holds(844, table).
holds(844, tiledroof).

sample(845).
holds(845, building).
holds(845, feature).
holds(845, awning).
holds(845, table).

sample(846).
holds(846, building).
holds(846, feature).
holds(846, miscindustrial).
holds(846, powerplant).
holds(846, watertreatment).
holds(846, industrial).
holds(846, chimney).
holds(846, pipe).
holds(846, truck).

sample(847).
holds(847, building).
holds(847, feature).
holds(847, suburban).
holds(847, miscresidential).
holds(847, residential).
holds(847, porch).
holds(847, table).
holds(847, tiledroof).

sample(848).
holds(848, building).
holds(848, feature).
holds(848, awning).
holds(848, table).

sample(849).
holds(849, building).
holds(849, feature).
holds(849, miscindustrial).
holds(849, powerplant).
holds(849, watertreatment).
holds(849, industrial).
holds(849, chimney).
holds(849, pipe).
holds(849, truck).

sample(850).
holds(850, building).
holds(850, feature).
holds(850, suburban).
holds(850, residential).
holds(850, awning).
holds(850, porch).
holds(850, table).
holds(850, tiledroof).

sample(851).
holds(851, building).
holds(851, feature).
holds(851, awning).
holds(851, table).

sample(852).
holds(852, building).
holds(852, feature).
holds(852, constructionsite).
holds(852, powerplant).
holds(852, awning).
holds(852, table).
holds(852, chimney).
holds(852, pipe).
holds(852, machine).

sample(853).
holds(853, building).
holds(853, feature).
holds(853, suburban).
holds(853, miscresidential).
holds(853, countryhouse).
holds(853, residential).
holds(853, porch).
holds(853, table).
holds(853, tiledroof).
holds(853, car).

sample(854).
holds(854, building).
holds(854, feature).
holds(854, awning).
holds(854, table).

sample(855).
holds(855, building).
holds(855, feature).
holds(855, powerplant).
holds(855, industrial).
holds(855, awning).
holds(855, chimney).
holds(855, pipe).

sample(856).
holds(856, building).
holds(856, feature).
holds(856, miscresidential).
holds(856, residential).
holds(856, table).
holds(856, tiledroof).

sample(857).
holds(857, building).
holds(857, feature).
holds(857, awning).
holds(857, table).

sample(858).
holds(858, building).
holds(858, feature).
holds(858, constructionsite).
holds(858, awning).
holds(858, table).
holds(858, machine).

sample(859).
holds(859, building).
holds(859, feature).
holds(859, suburban).
holds(859, miscresidential).
holds(859, countryhouse).
holds(859, residential).
holds(859, porch).
holds(859, table).
holds(859, tiledroof).
holds(859, car).

sample(860).
holds(860, building).
holds(860, feature).
holds(860, awning).
holds(860, table).

sample(861).
holds(861, building).
holds(861, feature).
holds(861, miscindustrial).
holds(861, industrial).
holds(861, truck).

sample(862).
holds(862, building).
holds(862, feature).
holds(862, suburban).
holds(862, residential).
holds(862, awning).
holds(862, porch).
holds(862, table).
holds(862, tiledroof).

sample(863).
holds(863, building).
holds(863, feature).
holds(863, awning).
holds(863, table).

sample(864).
holds(864, building).
holds(864, feature).
holds(864, powerplant).
holds(864, industrial).
holds(864, awning).
holds(864, chimney).
holds(864, pipe).

sample(865).
holds(865, building).
holds(865, feature).
holds(865, miscresidential).
holds(865, residential).
holds(865, table).
holds(865, tiledroof).

sample(866).
holds(866, building).
holds(866, feature).
holds(866, awning).
holds(866, table).

sample(867).
holds(867, building).
holds(867, feature).
holds(867, powerplant).
holds(867, watertreatment).
holds(867, industrial).
holds(867, awning).
holds(867, chimney).
holds(867, pipe).
holds(867, truck).

sample(868).
holds(868, building).
holds(868, feature).
holds(868, suburban).
holds(868, residential).
holds(868, awning).
holds(868, porch).
holds(868, table).
holds(868, tiledroof).

sample(869).
holds(869, building).
holds(869, feature).
holds(869, awning).
holds(869, table).

sample(870).
holds(870, building).
holds(870, feature).
holds(870, miscindustrial).
holds(870, watertreatment).
holds(870, industrial).
holds(870, pipe).
holds(870, truck).

sample(871).
holds(871, building).
holds(871, feature).
holds(871, miscresidential).
holds(871, countryhouse).
holds(871, residential).
holds(871, table).
holds(871, tiledroof).
holds(871, car).

sample(872).
holds(872, building).
holds(872, feature).
holds(872, awning).
holds(872, table).

sample(873).
holds(873, building).
holds(873, feature).
holds(873, miscindustrial).
holds(873, watertreatment).
holds(873, industrial).
holds(873, pipe).
holds(873, truck).

sample(874).
holds(874, building).
holds(874, feature).
holds(874, miscresidential).
holds(874, residential).
holds(874, table).
holds(874, tiledroof).

sample(875).
holds(875, building).
holds(875, feature).
holds(875, awning).
holds(875, table).

sample(876).
holds(876, building).
holds(876, feature).
holds(876, powerplant).
holds(876, watertreatment).
holds(876, industrial).
holds(876, chimney).
holds(876, pipe).
holds(876, truck).

sample(877).
holds(877, building).
holds(877, feature).
holds(877, suburban).
holds(877, residential).
holds(877, awning).
holds(877, porch).
holds(877, table).
holds(877, tiledroof).

sample(878).
holds(878, building).
holds(878, feature).
holds(878, awning).
holds(878, table).

sample(879).
holds(879, building).
holds(879, feature).
holds(879, powerplant).
holds(879, watertreatment).
holds(879, industrial).
holds(879, awning).
holds(879, chimney).
holds(879, pipe).
holds(879, truck).

sample(880).
holds(880, building).
holds(880, feature).
holds(880, suburban).
holds(880, miscresidential).
holds(880, residential).
holds(880, porch).
holds(880, table).
holds(880, tiledroof).

sample(881).
holds(881, building).
holds(881, feature).
holds(881, awning).
holds(881, table).

sample(882).
holds(882, building).
holds(882, feature).
holds(882, powerplant).
holds(882, industrial).
holds(882, awning).
holds(882, chimney).
holds(882, pipe).

sample(883).
holds(883, building).
holds(883, feature).
holds(883, suburban).
holds(883, miscresidential).
holds(883, residential).
holds(883, porch).
holds(883, table).
holds(883, tiledroof).

sample(884).
holds(884, building).
holds(884, feature).
holds(884, awning).
holds(884, table).

sample(885).
holds(885, building).
holds(885, feature).
holds(885, miscindustrial).
holds(885, powerplant).
holds(885, watertreatment).
holds(885, industrial).
holds(885, chimney).
holds(885, pipe).
holds(885, truck).

sample(886).
holds(886, building).
holds(886, feature).
holds(886, suburban).
holds(886, miscresidential).
holds(886, residential).
holds(886, porch).
holds(886, table).
holds(886, tiledroof).

sample(887).
holds(887, building).
holds(887, feature).
holds(887, awning).
holds(887, table).

sample(888).
holds(888, building).
holds(888, feature).
holds(888, miscindustrial).
holds(888, powerplant).
holds(888, watertreatment).
holds(888, industrial).
holds(888, chimney).
holds(888, pipe).
holds(888, truck).

sample(889).
holds(889, building).
holds(889, feature).
holds(889, suburban).
holds(889, miscresidential).
holds(889, residential).
holds(889, porch).
holds(889, table).
holds(889, tiledroof).

sample(890).
holds(890, building).
holds(890, feature).
holds(890, awning).
holds(890, table).

sample(891).
holds(891, building).
holds(891, feature).
holds(891, miscindustrial).
holds(891, watertreatment).
holds(891, industrial).
holds(891, truck).

sample(892).
holds(892, building).
holds(892, feature).
holds(892, suburban).
holds(892, miscresidential).
holds(892, countryhouse).
holds(892, residential).
holds(892, porch).
holds(892, table).
holds(892, tiledroof).
holds(892, car).

sample(893).
holds(893, building).
holds(893, feature).
holds(893, awning).
holds(893, table).

sample(894).
holds(894, building).
holds(894, feature).
holds(894, constructionsite).
holds(894, powerplant).
holds(894, awning).
holds(894, table).
holds(894, chimney).
holds(894, pipe).
holds(894, machine).

sample(895).
holds(895, building).
holds(895, feature).
holds(895, suburban).
holds(895, miscresidential).
holds(895, countryhouse).
holds(895, residential).
holds(895, porch).
holds(895, table).
holds(895, tiledroof).
holds(895, car).

sample(896).
holds(896, building).
holds(896, feature).
holds(896, table).

sample(897).
holds(897, building).
holds(897, feature).
holds(897, powerplant).
holds(897, watertreatment).
holds(897, industrial).
holds(897, chimney).
holds(897, pipe).
holds(897, truck).

sample(898).
holds(898, building).
holds(898, feature).
holds(898, suburban).
holds(898, residential).
holds(898, awning).
holds(898, porch).
holds(898, table).
holds(898, tiledroof).

sample(899).
holds(899, building).
holds(899, feature).
holds(899, awning).
holds(899, table).

sample(900).
holds(900, building).
holds(900, feature).
holds(900, miscindustrial).
holds(900, powerplant).
holds(900, watertreatment).
holds(900, industrial).
holds(900, chimney).
holds(900, pipe).
holds(900, truck).

sample(901).
holds(901, building).
holds(901, feature).
holds(901, suburban).
holds(901, miscresidential).
holds(901, countryhouse).
holds(901, residential).
holds(901, porch).
holds(901, table).
holds(901, tiledroof).
holds(901, car).

sample(902).
holds(902, building).
holds(902, feature).
holds(902, awning).
holds(902, table).

sample(903).
holds(903, building).
holds(903, feature).
holds(903, miscindustrial).
holds(903, powerplant).
holds(903, watertreatment).
holds(903, industrial).
holds(903, chimney).
holds(903, pipe).
holds(903, truck).

sample(904).
holds(904, building).
holds(904, feature).
holds(904, suburban).
holds(904, miscresidential).
holds(904, countryhouse).
holds(904, residential).
holds(904, porch).
holds(904, table).
holds(904, tiledroof).
holds(904, car).

sample(905).
holds(905, building).
holds(905, feature).
holds(905, awning).
holds(905, table).

sample(906).
holds(906, building).
holds(906, feature).
holds(906, miscindustrial).
holds(906, powerplant).
holds(906, watertreatment).
holds(906, industrial).
holds(906, pipe).
holds(906, truck).

sample(907).
holds(907, building).
holds(907, feature).
holds(907, suburban).
holds(907, miscresidential).
holds(907, countryhouse).
holds(907, residential).
holds(907, porch).
holds(907, table).
holds(907, tiledroof).
holds(907, car).

sample(908).
holds(908, building).
holds(908, feature).
holds(908, awning).
holds(908, table).

sample(909).
holds(909, building).
holds(909, feature).
holds(909, constructionsite).
holds(909, awning).
holds(909, table).
holds(909, machine).

sample(910).
holds(910, building).
holds(910, feature).
holds(910, miscresidential).
holds(910, residential).
holds(910, table).
holds(910, tiledroof).

sample(911).
holds(911, building).
holds(911, feature).
holds(911, awning).
holds(911, table).

sample(912).
holds(912, building).
holds(912, feature).
holds(912, miscindustrial).
holds(912, watertreatment).
holds(912, industrial).
holds(912, truck).

sample(913).
holds(913, building).
holds(913, feature).
holds(913, suburban).
holds(913, miscresidential).
holds(913, countryhouse).
holds(913, residential).
holds(913, porch).
holds(913, table).
holds(913, tiledroof).
holds(913, car).

sample(914).
holds(914, building).
holds(914, feature).
holds(914, awning).
holds(914, table).

sample(915).
holds(915, building).
holds(915, feature).
holds(915, miscindustrial).
holds(915, watertreatment).
holds(915, industrial).
holds(915, pipe).
holds(915, truck).

sample(916).
holds(916, building).
holds(916, feature).
holds(916, suburban).
holds(916, miscresidential).
holds(916, countryhouse).
holds(916, residential).
holds(916, porch).
holds(916, table).
holds(916, tiledroof).
holds(916, car).

sample(917).
holds(917, building).
holds(917, feature).
holds(917, awning).
holds(917, table).

sample(918).
holds(918, building).
holds(918, feature).
holds(918, miscindustrial).
holds(918, powerplant).
holds(918, watertreatment).
holds(918, industrial).
holds(918, chimney).
holds(918, pipe).
holds(918, truck).

sample(919).
holds(919, building).
holds(919, feature).
holds(919, suburban).
holds(919, miscresidential).
holds(919, residential).
holds(919, porch).
holds(919, table).
holds(919, tiledroof).

sample(920).
holds(920, building).
holds(920, feature).
holds(920, awning).
holds(920, table).

sample(921).
holds(921, building).
holds(921, feature).
holds(921, miscindustrial).
holds(921, powerplant).
holds(921, watertreatment).
holds(921, industrial).
holds(921, chimney).
holds(921, pipe).
holds(921, truck).

sample(922).
holds(922, building).
holds(922, feature).
holds(922, miscresidential).
holds(922, countryhouse).
holds(922, residential).
holds(922, table).
holds(922, tiledroof).
holds(922, car).

sample(923).
holds(923, building).
holds(923, feature).
holds(923, awning).
holds(923, table).

sample(924).
holds(924, building).
holds(924, feature).
holds(924, miscindustrial).
holds(924, powerplant).
holds(924, watertreatment).
holds(924, industrial).
holds(924, chimney).
holds(924, pipe).
holds(924, truck).

sample(925).
holds(925, building).
holds(925, feature).
holds(925, suburban).
holds(925, miscresidential).
holds(925, countryhouse).
holds(925, residential).
holds(925, porch).
holds(925, table).
holds(925, tiledroof).
holds(925, car).

sample(926).
holds(926, building).
holds(926, feature).
holds(926, awning).
holds(926, table).

sample(927).
holds(927, building).
holds(927, feature).
holds(927, miscindustrial).
holds(927, powerplant).
holds(927, watertreatment).
holds(927, industrial).
holds(927, chimney).
holds(927, pipe).
holds(927, truck).

sample(928).
holds(928, building).
holds(928, feature).
holds(928, suburban).
holds(928, residential).
holds(928, awning).
holds(928, porch).
holds(928, table).
holds(928, tiledroof).

sample(929).
holds(929, building).
holds(929, feature).
holds(929, awning).
holds(929, table).

sample(930).
holds(930, building).
holds(930, feature).
holds(930, constructionsite).
holds(930, powerplant).
holds(930, awning).
holds(930, table).
holds(930, chimney).
holds(930, pipe).
holds(930, machine).

sample(931).
holds(931, building).
holds(931, feature).
holds(931, suburban).
holds(931, residential).
holds(931, awning).
holds(931, porch).
holds(931, table).
holds(931, tiledroof).

sample(932).
holds(932, building).
holds(932, feature).
holds(932, awning).
holds(932, table).

sample(933).
holds(933, building).
holds(933, feature).
holds(933, powerplant).
holds(933, industrial).
holds(933, awning).
holds(933, chimney).
holds(933, pipe).

sample(934).
holds(934, building).
holds(934, feature).
holds(934, miscresidential).
holds(934, residential).
holds(934, table).
holds(934, tiledroof).

sample(935).
holds(935, building).
holds(935, feature).
holds(935, awning).
holds(935, table).

sample(936).
holds(936, building).
holds(936, feature).
holds(936, powerplant).
holds(936, industrial).
holds(936, awning).
holds(936, chimney).
holds(936, pipe).

sample(937).
holds(937, building).
holds(937, feature).
holds(937, suburban).
holds(937, residential).
holds(937, awning).
holds(937, porch).
holds(937, table).
holds(937, tiledroof).

sample(938).
holds(938, building).
holds(938, feature).
holds(938, awning).
holds(938, table).

sample(939).
holds(939, building).
holds(939, feature).
holds(939, miscindustrial).
holds(939, industrial).
holds(939, truck).

sample(940).
holds(940, building).
holds(940, feature).
holds(940, suburban).
holds(940, miscresidential).
holds(940, residential).
holds(940, porch).
holds(940, table).
holds(940, tiledroof).

sample(941).
holds(941, building).
holds(941, feature).
holds(941, awning).
holds(941, table).

sample(942).
holds(942, building).
holds(942, feature).
holds(942, powerplant).
holds(942, watertreatment).
holds(942, industrial).
holds(942, chimney).
holds(942, pipe).
holds(942, truck).

sample(943).
holds(943, building).
holds(943, feature).
holds(943, miscresidential).
holds(943, residential).
holds(943, table).
holds(943, tiledroof).

sample(944).
holds(944, building).
holds(944, feature).
holds(944, awning).
holds(944, table).

sample(945).
holds(945, building).
holds(945, feature).
holds(945, miscindustrial).
holds(945, industrial).
holds(945, truck).

sample(946).
holds(946, building).
holds(946, feature).
holds(946, miscresidential).
holds(946, countryhouse).
holds(946, residential).
holds(946, table).
holds(946, tiledroof).
holds(946, car).

sample(947).
holds(947, building).
holds(947, feature).
holds(947, awning).
holds(947, table).

sample(948).
holds(948, building).
holds(948, feature).
holds(948, constructionsite).
holds(948, powerplant).
holds(948, awning).
holds(948, table).
holds(948, chimney).
holds(948, pipe).
holds(948, machine).

sample(949).
holds(949, building).
holds(949, feature).
holds(949, suburban).
holds(949, miscresidential).
holds(949, countryhouse).
holds(949, residential).
holds(949, porch).
holds(949, table).
holds(949, tiledroof).
holds(949, car).

sample(950).
holds(950, building).
holds(950, feature).
holds(950, awning).
holds(950, table).

sample(951).
holds(951, building).
holds(951, feature).
holds(951, watertreatment).
holds(951, industrial).
holds(951, pipe).
holds(951, truck).

sample(952).
holds(952, building).
holds(952, feature).
holds(952, miscresidential).
holds(952, residential).
holds(952, table).
holds(952, tiledroof).

sample(953).
holds(953, building).
holds(953, feature).
holds(953, awning).
holds(953, table).

sample(954).
holds(954, building).
holds(954, feature).
holds(954, miscindustrial).
holds(954, watertreatment).
holds(954, industrial).
holds(954, pipe).
holds(954, truck).

sample(955).
holds(955, building).
holds(955, feature).
holds(955, suburban).
holds(955, miscresidential).
holds(955, residential).
holds(955, porch).
holds(955, table).
holds(955, tiledroof).

sample(956).
holds(956, building).
holds(956, feature).
holds(956, awning).
holds(956, table).

sample(957).
holds(957, building).
holds(957, feature).
holds(957, constructionsite).
holds(957, awning).
holds(957, table).
holds(957, machine).

sample(958).
holds(958, building).
holds(958, feature).
holds(958, miscresidential).
holds(958, residential).
holds(958, table).
holds(958, tiledroof).

sample(959).
holds(959, building).
holds(959, feature).
holds(959, powerplant).
holds(959, watertreatment).
holds(959, industrial).
holds(959, awning).
holds(959, chimney).
holds(959, pipe).
holds(959, truck).

sample(960).
holds(960, building).
holds(960, feature).
holds(960, watertreatment).
holds(960, industrial).
holds(960, awning).
holds(960, pipe).
holds(960, truck).

sample(961).
holds(961, building).
holds(961, feature).
holds(961, suburban).
holds(961, miscresidential).
holds(961, countryhouse).
holds(961, residential).
holds(961, porch).
holds(961, table).
holds(961, tiledroof).
holds(961, car).

sample(962).
holds(962, building).
holds(962, feature).
holds(962, awning).
holds(962, table).

sample(963).
holds(963, building).
holds(963, feature).
holds(963, miscindustrial).
holds(963, watertreatment).
holds(963, industrial).
holds(963, pipe).
holds(963, truck).

sample(964).
holds(964, building).
holds(964, feature).
holds(964, suburban).
holds(964, miscresidential).
holds(964, countryhouse).
holds(964, residential).
holds(964, porch).
holds(964, table).
holds(964, tiledroof).
holds(964, car).

sample(965).
holds(965, building).
holds(965, feature).
holds(965, awning).
holds(965, table).

sample(966).
holds(966, building).
holds(966, feature).
holds(966, constructionsite).
holds(966, awning).
holds(966, table).
holds(966, machine).

sample(967).
holds(967, building).
holds(967, feature).
holds(967, miscresidential).
holds(967, countryhouse).
holds(967, residential).
holds(967, table).
holds(967, tiledroof).
holds(967, car).

sample(968).
holds(968, building).
holds(968, feature).
holds(968, awning).
holds(968, table).

sample(969).
holds(969, building).
holds(969, feature).
holds(969, powerplant).
holds(969, watertreatment).
holds(969, industrial).
holds(969, awning).
holds(969, chimney).
holds(969, pipe).
holds(969, truck).

sample(970).
holds(970, building).
holds(970, feature).
holds(970, suburban).
holds(970, miscresidential).
holds(970, countryhouse).
holds(970, residential).
holds(970, porch).
holds(970, table).
holds(970, tiledroof).
holds(970, car).

sample(971).
holds(971, building).
holds(971, feature).
holds(971, awning).
holds(971, table).

sample(972).
holds(972, building).
holds(972, feature).
holds(972, miscindustrial).
holds(972, powerplant).
holds(972, watertreatment).
holds(972, industrial).
holds(972, chimney).
holds(972, pipe).
holds(972, truck).

sample(973).
holds(973, building).
holds(973, feature).
holds(973, miscresidential).
holds(973, residential).
holds(973, table).
holds(973, tiledroof).

sample(974).
holds(974, building).
holds(974, feature).
holds(974, awning).
holds(974, table).

sample(975).
holds(975, building).
holds(975, feature).
holds(975, constructionsite).
holds(975, awning).
holds(975, table).
holds(975, machine).

sample(976).
holds(976, building).
holds(976, feature).
holds(976, suburban).
holds(976, miscresidential).
holds(976, countryhouse).
holds(976, residential).
holds(976, porch).
holds(976, table).
holds(976, tiledroof).
holds(976, car).

sample(977).
holds(977, building).
holds(977, feature).
holds(977, awning).
holds(977, table).

sample(978).
holds(978, building).
holds(978, feature).
holds(978, powerplant).
holds(978, industrial).
holds(978, awning).
holds(978, chimney).
holds(978, pipe).

sample(979).
holds(979, building).
holds(979, feature).
holds(979, suburban).
holds(979, residential).
holds(979, awning).
holds(979, porch).
holds(979, table).
holds(979, tiledroof).

sample(980).
holds(980, building).
holds(980, feature).
holds(980, awning).
holds(980, table).

sample(981).
holds(981, building).
holds(981, feature).
holds(981, constructionsite).
holds(981, awning).
holds(981, table).
holds(981, machine).

sample(982).
holds(982, building).
holds(982, feature).
holds(982, suburban).
holds(982, miscresidential).
holds(982, countryhouse).
holds(982, residential).
holds(982, porch).
holds(982, table).
holds(982, tiledroof).
holds(982, car).

sample(983).
holds(983, building).
holds(983, feature).
holds(983, awning).
holds(983, table).

sample(984).
holds(984, building).
holds(984, feature).
holds(984, constructionsite).
holds(984, awning).
holds(984, table).
holds(984, machine).

sample(985).
holds(985, building).
holds(985, feature).
holds(985, suburban).
holds(985, miscresidential).
holds(985, residential).
holds(985, porch).
holds(985, table).
holds(985, tiledroof).

sample(986).
holds(986, building).
holds(986, feature).
holds(986, awning).
holds(986, table).

sample(987).
holds(987, building).
holds(987, feature).
holds(987, constructionsite).
holds(987, awning).
holds(987, table).
holds(987, machine).

sample(988).
holds(988, building).
holds(988, feature).
holds(988, suburban).
holds(988, miscresidential).
holds(988, countryhouse).
holds(988, residential).
holds(988, porch).
holds(988, table).
holds(988, tiledroof).
holds(988, car).

sample(989).
holds(989, building).
holds(989, feature).
holds(989, awning).
holds(989, table).

sample(990).
holds(990, building).
holds(990, feature).
holds(990, powerplant).
holds(990, watertreatment).
holds(990, industrial).
holds(990, chimney).
holds(990, pipe).
holds(990, truck).

sample(991).
holds(991, building).
holds(991, feature).
holds(991, suburban).
holds(991, miscresidential).
holds(991, residential).
holds(991, porch).
holds(991, table).
holds(991, tiledroof).

sample(992).
holds(992, building).
holds(992, feature).
holds(992, awning).
holds(992, table).

sample(993).
holds(993, building).
holds(993, feature).
holds(993, powerplant).
holds(993, industrial).
holds(993, awning).
holds(993, chimney).
holds(993, pipe).

sample(994).
holds(994, building).
holds(994, feature).
holds(994, miscresidential).
holds(994, countryhouse).
holds(994, residential).
holds(994, table).
holds(994, tiledroof).
holds(994, car).

sample(995).
holds(995, building).
holds(995, feature).
holds(995, awning).
holds(995, table).

sample(996).
holds(996, building).
holds(996, feature).
holds(996, miscindustrial).
holds(996, watertreatment).
holds(996, industrial).
holds(996, pipe).
holds(996, truck).

sample(997).
holds(997, building).
holds(997, feature).
holds(997, miscresidential).
holds(997, countryhouse).
holds(997, residential).
holds(997, table).
holds(997, tiledroof).
holds(997, car).

sample(998).
holds(998, building).
holds(998, feature).
holds(998, awning).
holds(998, table).

sample(999).
holds(999, building).
holds(999, feature).
holds(999, constructionsite).
holds(999, awning).
holds(999, table).
holds(999, machine).

sample(1000).
holds(1000, building).
holds(1000, feature).
holds(1000, miscresidential).
holds(1000, residential).
holds(1000, table).
holds(1000, tiledroof).

sample(1001).
holds(1001, building).
holds(1001, feature).
holds(1001, awning).
holds(1001, table).

sample(1002).
holds(1002, building).
holds(1002, feature).
holds(1002, powerplant).
holds(1002, industrial).
holds(1002, awning).
holds(1002, chimney).
holds(1002, pipe).

sample(1003).
holds(1003, building).
holds(1003, feature).
holds(1003, suburban).
holds(1003, miscresidential).
holds(1003, residential).
holds(1003, porch).
holds(1003, table).
holds(1003, tiledroof).

sample(1004).
holds(1004, building).
holds(1004, feature).
holds(1004, awning).
holds(1004, table).

sample(1005).
holds(1005, building).
holds(1005, feature).
holds(1005, constructionsite).
holds(1005, powerplant).
holds(1005, awning).
holds(1005, table).
holds(1005, chimney).
holds(1005, pipe).
holds(1005, machine).

sample(1006).
holds(1006, building).
holds(1006, feature).
holds(1006, suburban).
holds(1006, miscresidential).
holds(1006, residential).
holds(1006, porch).
holds(1006, table).
holds(1006, tiledroof).

sample(1007).
holds(1007, building).
holds(1007, feature).
holds(1007, awning).
holds(1007, table).

sample(1008).
holds(1008, building).
holds(1008, feature).
holds(1008, miscindustrial).
holds(1008, industrial).
holds(1008, truck).

sample(1009).
holds(1009, building).
holds(1009, feature).
holds(1009, suburban).
holds(1009, miscresidential).
holds(1009, countryhouse).
holds(1009, residential).
holds(1009, porch).
holds(1009, table).
holds(1009, tiledroof).
holds(1009, car).

sample(1010).
holds(1010, building).
holds(1010, feature).
holds(1010, awning).
holds(1010, table).

sample(1011).
holds(1011, building).
holds(1011, feature).
holds(1011, constructionsite).
holds(1011, powerplant).
holds(1011, awning).
holds(1011, table).
holds(1011, chimney).
holds(1011, pipe).
holds(1011, machine).

sample(1012).
holds(1012, building).
holds(1012, feature).
holds(1012, suburban).
holds(1012, miscresidential).
holds(1012, countryhouse).
holds(1012, residential).
holds(1012, porch).
holds(1012, table).
holds(1012, tiledroof).
holds(1012, car).

sample(1013).
holds(1013, building).
holds(1013, feature).
holds(1013, awning).
holds(1013, table).

sample(1014).
holds(1014, building).
holds(1014, feature).
holds(1014, constructionsite).
holds(1014, awning).
holds(1014, table).
holds(1014, machine).

sample(1015).
holds(1015, building).
holds(1015, feature).
holds(1015, suburban).
holds(1015, miscresidential).
holds(1015, residential).
holds(1015, porch).
holds(1015, table).
holds(1015, tiledroof).

sample(1016).
holds(1016, building).
holds(1016, feature).
holds(1016, awning).
holds(1016, table).

sample(1017).
holds(1017, building).
holds(1017, feature).
holds(1017, constructionsite).
holds(1017, awning).
holds(1017, table).
holds(1017, machine).

sample(1018).
holds(1018, building).
holds(1018, feature).
holds(1018, suburban).
holds(1018, residential).
holds(1018, awning).
holds(1018, porch).
holds(1018, table).
holds(1018, tiledroof).

sample(1019).
holds(1019, building).
holds(1019, feature).
holds(1019, awning).
holds(1019, table).

sample(1020).
holds(1020, building).
holds(1020, feature).
holds(1020, constructionsite).
holds(1020, awning).
holds(1020, table).
holds(1020, machine).

sample(1021).
holds(1021, building).
holds(1021, feature).
holds(1021, miscresidential).
holds(1021, countryhouse).
holds(1021, residential).
holds(1021, table).
holds(1021, tiledroof).
holds(1021, car).

sample(1022).
holds(1022, building).
holds(1022, feature).
holds(1022, awning).
holds(1022, table).

sample(1023).
holds(1023, building).
holds(1023, feature).
holds(1023, watertreatment).
holds(1023, industrial).
holds(1023, pipe).
holds(1023, truck).

sample(1024).
holds(1024, building).
holds(1024, feature).
holds(1024, suburban).
holds(1024, miscresidential).
holds(1024, countryhouse).
holds(1024, residential).
holds(1024, porch).
holds(1024, table).
holds(1024, tiledroof).
holds(1024, car).

sample(1025).
holds(1025, building).
holds(1025, feature).
holds(1025, awning).
holds(1025, table).

sample(1026).
holds(1026, building).
holds(1026, feature).
holds(1026, miscindustrial).
holds(1026, industrial).
holds(1026, truck).

sample(1027).
holds(1027, building).
holds(1027, feature).
holds(1027, suburban).
holds(1027, miscresidential).
holds(1027, countryhouse).
holds(1027, residential).
holds(1027, porch).
holds(1027, table).
holds(1027, tiledroof).
holds(1027, car).

sample(1028).
holds(1028, building).
holds(1028, feature).
holds(1028, awning).
holds(1028, table).

sample(1029).
holds(1029, building).
holds(1029, feature).
holds(1029, powerplant).
holds(1029, industrial).
holds(1029, awning).
holds(1029, chimney).
holds(1029, pipe).

sample(1030).
holds(1030, building).
holds(1030, feature).
holds(1030, suburban).
holds(1030, residential).
holds(1030, awning).
holds(1030, porch).
holds(1030, table).
holds(1030, tiledroof).

sample(1031).
holds(1031, building).
holds(1031, feature).
holds(1031, awning).
holds(1031, table).

sample(1032).
holds(1032, building).
holds(1032, feature).
holds(1032, miscindustrial).
holds(1032, powerplant).
holds(1032, watertreatment).
holds(1032, industrial).
holds(1032, chimney).
holds(1032, pipe).
holds(1032, truck).

sample(1033).
holds(1033, building).
holds(1033, feature).
holds(1033, suburban).
holds(1033, miscresidential).
holds(1033, countryhouse).
holds(1033, residential).
holds(1033, porch).
holds(1033, table).
holds(1033, tiledroof).
holds(1033, car).

sample(1034).
holds(1034, building).
holds(1034, feature).
holds(1034, awning).
holds(1034, table).

sample(1035).
holds(1035, building).
holds(1035, feature).
holds(1035, miscindustrial).
holds(1035, powerplant).
holds(1035, watertreatment).
holds(1035, industrial).
holds(1035, chimney).
holds(1035, pipe).
holds(1035, truck).

sample(1036).
holds(1036, building).
holds(1036, feature).
holds(1036, suburban).
holds(1036, miscresidential).
holds(1036, residential).
holds(1036, porch).
holds(1036, table).
holds(1036, tiledroof).

sample(1037).
holds(1037, building).
holds(1037, feature).
holds(1037, awning).
holds(1037, table).

sample(1038).
holds(1038, building).
holds(1038, feature).
holds(1038, powerplant).
holds(1038, industrial).
holds(1038, awning).
holds(1038, chimney).
holds(1038, pipe).

sample(1039).
holds(1039, building).
holds(1039, feature).
holds(1039, suburban).
holds(1039, miscresidential).
holds(1039, residential).
holds(1039, porch).
holds(1039, table).
holds(1039, tiledroof).

sample(1040).
holds(1040, building).
holds(1040, feature).
holds(1040, table).

sample(1041).
holds(1041, building).
holds(1041, feature).
holds(1041, constructionsite).
holds(1041, awning).
holds(1041, table).
holds(1041, machine).

sample(1042).
holds(1042, building).
holds(1042, feature).
holds(1042, suburban).
holds(1042, miscresidential).
holds(1042, residential).
holds(1042, porch).
holds(1042, table).
holds(1042, tiledroof).

sample(1043).
holds(1043, building).
holds(1043, feature).
holds(1043, awning).
holds(1043, table).

sample(1044).
holds(1044, building).
holds(1044, feature).
holds(1044, miscindustrial).
holds(1044, powerplant).
holds(1044, watertreatment).
holds(1044, industrial).
holds(1044, chimney).
holds(1044, pipe).
holds(1044, truck).

sample(1045).
holds(1045, building).
holds(1045, feature).
holds(1045, suburban).
holds(1045, residential).
holds(1045, awning).
holds(1045, porch).
holds(1045, table).
holds(1045, tiledroof).

sample(1046).
holds(1046, building).
holds(1046, feature).
holds(1046, awning).
holds(1046, table).

sample(1047).
holds(1047, building).
holds(1047, feature).
holds(1047, powerplant).
holds(1047, watertreatment).
holds(1047, industrial).
holds(1047, awning).
holds(1047, chimney).
holds(1047, pipe).
holds(1047, truck).

sample(1048).
holds(1048, building).
holds(1048, feature).
holds(1048, miscresidential).
holds(1048, countryhouse).
holds(1048, residential).
holds(1048, table).
holds(1048, tiledroof).
holds(1048, car).

sample(1049).
holds(1049, building).
holds(1049, feature).
holds(1049, awning).
holds(1049, table).

sample(1050).
holds(1050, building).
holds(1050, feature).
holds(1050, constructionsite).
holds(1050, awning).
holds(1050, table).
holds(1050, machine).

sample(1051).
holds(1051, building).
holds(1051, feature).
holds(1051, miscresidential).
holds(1051, countryhouse).
holds(1051, residential).
holds(1051, table).
holds(1051, tiledroof).
holds(1051, car).

sample(1052).
holds(1052, building).
holds(1052, feature).
holds(1052, awning).
holds(1052, table).

sample(1053).
holds(1053, building).
holds(1053, feature).
holds(1053, miscindustrial).
holds(1053, watertreatment).
holds(1053, industrial).
holds(1053, truck).

sample(1054).
holds(1054, building).
holds(1054, feature).
holds(1054, miscresidential).
holds(1054, countryhouse).
holds(1054, residential).
holds(1054, table).
holds(1054, tiledroof).
holds(1054, car).

sample(1055).
holds(1055, building).
holds(1055, feature).
holds(1055, awning).
holds(1055, table).

sample(1056).
holds(1056, building).
holds(1056, feature).
holds(1056, miscindustrial).
holds(1056, powerplant).
holds(1056, watertreatment).
holds(1056, industrial).
holds(1056, chimney).
holds(1056, pipe).
holds(1056, truck).

sample(1057).
holds(1057, building).
holds(1057, feature).
holds(1057, suburban).
holds(1057, miscresidential).
holds(1057, residential).
holds(1057, porch).
holds(1057, table).
holds(1057, tiledroof).

sample(1058).
holds(1058, building).
holds(1058, feature).
holds(1058, awning).
holds(1058, table).

sample(1059).
holds(1059, building).
holds(1059, feature).
holds(1059, miscindustrial).
holds(1059, watertreatment).
holds(1059, industrial).
holds(1059, pipe).
holds(1059, truck).

sample(1060).
holds(1060, building).
holds(1060, feature).
holds(1060, suburban).
holds(1060, residential).
holds(1060, awning).
holds(1060, porch).
holds(1060, table).
holds(1060, tiledroof).

sample(1061).
holds(1061, building).
holds(1061, feature).
holds(1061, awning).
holds(1061, table).

sample(1062).
holds(1062, building).
holds(1062, feature).
holds(1062, powerplant).
holds(1062, industrial).
holds(1062, awning).
holds(1062, chimney).
holds(1062, pipe).

sample(1063).
holds(1063, building).
holds(1063, feature).
holds(1063, suburban).
holds(1063, residential).
holds(1063, awning).
holds(1063, porch).
holds(1063, table).
holds(1063, tiledroof).

sample(1064).
holds(1064, building).
holds(1064, feature).
holds(1064, awning).
holds(1064, table).

sample(1065).
holds(1065, building).
holds(1065, feature).
holds(1065, powerplant).
holds(1065, industrial).
holds(1065, awning).
holds(1065, chimney).
holds(1065, pipe).

sample(1066).
holds(1066, building).
holds(1066, feature).
holds(1066, suburban).
holds(1066, miscresidential).
holds(1066, residential).
holds(1066, porch).
holds(1066, table).
holds(1066, tiledroof).

sample(1067).
holds(1067, building).
holds(1067, feature).
holds(1067, awning).
holds(1067, table).

sample(1068).
holds(1068, building).
holds(1068, feature).
holds(1068, powerplant).
holds(1068, industrial).
holds(1068, awning).
holds(1068, chimney).
holds(1068, pipe).

sample(1069).
holds(1069, building).
holds(1069, feature).
holds(1069, miscresidential).
holds(1069, countryhouse).
holds(1069, residential).
holds(1069, table).
holds(1069, tiledroof).
holds(1069, car).

sample(1070).
holds(1070, building).
holds(1070, feature).
holds(1070, awning).
holds(1070, table).

sample(1071).
holds(1071, building).
holds(1071, feature).
holds(1071, constructionsite).
holds(1071, awning).
holds(1071, table).
holds(1071, machine).

sample(1072).
holds(1072, building).
holds(1072, feature).
holds(1072, suburban).
holds(1072, miscresidential).
holds(1072, residential).
holds(1072, porch).
holds(1072, table).
holds(1072, tiledroof).

sample(1073).
holds(1073, building).
holds(1073, feature).
holds(1073, awning).
holds(1073, table).

sample(1074).
holds(1074, building).
holds(1074, feature).
holds(1074, constructionsite).
holds(1074, awning).
holds(1074, table).
holds(1074, machine).

sample(1075).
holds(1075, building).
holds(1075, feature).
holds(1075, suburban).
holds(1075, miscresidential).
holds(1075, countryhouse).
holds(1075, residential).
holds(1075, porch).
holds(1075, table).
holds(1075, tiledroof).
holds(1075, car).

sample(1076).
holds(1076, building).
holds(1076, feature).
holds(1076, awning).
holds(1076, table).

sample(1077).
holds(1077, building).
holds(1077, feature).
holds(1077, miscindustrial).
holds(1077, industrial).
holds(1077, truck).

sample(1078).
holds(1078, building).
holds(1078, feature).
holds(1078, suburban).
holds(1078, miscresidential).
holds(1078, residential).
holds(1078, porch).
holds(1078, table).
holds(1078, tiledroof).

sample(1079).
holds(1079, building).
holds(1079, feature).
holds(1079, awning).
holds(1079, table).

sample(1080).
holds(1080, building).
holds(1080, feature).
holds(1080, miscindustrial).
holds(1080, powerplant).
holds(1080, watertreatment).
holds(1080, industrial).
holds(1080, chimney).
holds(1080, pipe).
holds(1080, truck).

sample(1081).
holds(1081, building).
holds(1081, feature).
holds(1081, suburban).
holds(1081, miscresidential).
holds(1081, countryhouse).
holds(1081, residential).
holds(1081, porch).
holds(1081, table).
holds(1081, tiledroof).
holds(1081, car).

sample(1082).
holds(1082, building).
holds(1082, feature).
holds(1082, awning).
holds(1082, table).

sample(1083).
holds(1083, building).
holds(1083, feature).
holds(1083, miscindustrial).
holds(1083, watertreatment).
holds(1083, industrial).
holds(1083, pipe).
holds(1083, truck).

sample(1084).
holds(1084, building).
holds(1084, feature).
holds(1084, miscresidential).
holds(1084, residential).
holds(1084, table).
holds(1084, tiledroof).

sample(1085).
holds(1085, building).
holds(1085, feature).
holds(1085, awning).
holds(1085, table).

sample(1086).
holds(1086, building).
holds(1086, feature).
holds(1086, miscindustrial).
holds(1086, powerplant).
holds(1086, watertreatment).
holds(1086, industrial).
holds(1086, chimney).
holds(1086, pipe).
holds(1086, truck).

sample(1087).
holds(1087, building).
holds(1087, feature).
holds(1087, suburban).
holds(1087, miscresidential).
holds(1087, residential).
holds(1087, porch).
holds(1087, table).
holds(1087, tiledroof).

sample(1088).
holds(1088, building).
holds(1088, feature).
holds(1088, awning).
holds(1088, table).

sample(1089).
holds(1089, building).
holds(1089, feature).
holds(1089, constructionsite).
holds(1089, awning).
holds(1089, table).
holds(1089, machine).

sample(1090).
holds(1090, building).
holds(1090, feature).
holds(1090, suburban).
holds(1090, miscresidential).
holds(1090, countryhouse).
holds(1090, residential).
holds(1090, porch).
holds(1090, table).
holds(1090, tiledroof).
holds(1090, car).

sample(1091).
holds(1091, building).
holds(1091, feature).
holds(1091, awning).
holds(1091, table).

sample(1092).
holds(1092, building).
holds(1092, feature).
holds(1092, watertreatment).
holds(1092, industrial).
holds(1092, pipe).
holds(1092, truck).

sample(1093).
holds(1093, building).
holds(1093, feature).
holds(1093, suburban).
holds(1093, miscresidential).
holds(1093, residential).
holds(1093, porch).
holds(1093, table).
holds(1093, tiledroof).

sample(1094).
holds(1094, building).
holds(1094, feature).
holds(1094, awning).
holds(1094, table).

sample(1095).
holds(1095, building).
holds(1095, feature).
holds(1095, miscindustrial).
holds(1095, industrial).
holds(1095, truck).

sample(1096).
holds(1096, building).
holds(1096, feature).
holds(1096, suburban).
holds(1096, miscresidential).
holds(1096, countryhouse).
holds(1096, residential).
holds(1096, porch).
holds(1096, table).
holds(1096, tiledroof).
holds(1096, car).

sample(1097).
holds(1097, building).
holds(1097, feature).
holds(1097, awning).
holds(1097, table).

sample(1098).
holds(1098, building).
holds(1098, feature).
holds(1098, miscindustrial).
holds(1098, powerplant).
holds(1098, watertreatment).
holds(1098, industrial).
holds(1098, chimney).
holds(1098, pipe).
holds(1098, truck).

sample(1099).
holds(1099, building).
holds(1099, feature).
holds(1099, suburban).
holds(1099, residential).
holds(1099, awning).
holds(1099, porch).
holds(1099, table).
holds(1099, tiledroof).

sample(1100).
holds(1100, building).
holds(1100, feature).
holds(1100, awning).
holds(1100, table).

sample(1101).
holds(1101, building).
holds(1101, feature).
holds(1101, powerplant).
holds(1101, industrial).
holds(1101, awning).
holds(1101, chimney).
holds(1101, pipe).

sample(1102).
holds(1102, building).
holds(1102, feature).
holds(1102, suburban).
holds(1102, miscresidential).
holds(1102, countryhouse).
holds(1102, residential).
holds(1102, porch).
holds(1102, table).
holds(1102, tiledroof).
holds(1102, car).

sample(1103).
holds(1103, building).
holds(1103, feature).
holds(1103, awning).
holds(1103, table).

sample(1104).
holds(1104, building).
holds(1104, feature).
holds(1104, powerplant).
holds(1104, industrial).
holds(1104, awning).
holds(1104, chimney).
holds(1104, pipe).

sample(1105).
holds(1105, building).
holds(1105, feature).
holds(1105, suburban).
holds(1105, miscresidential).
holds(1105, countryhouse).
holds(1105, residential).
holds(1105, porch).
holds(1105, table).
holds(1105, tiledroof).
holds(1105, car).

sample(1106).
holds(1106, building).
holds(1106, feature).
holds(1106, awning).
holds(1106, table).

sample(1107).
holds(1107, building).
holds(1107, feature).
holds(1107, powerplant).
holds(1107, industrial).
holds(1107, awning).
holds(1107, chimney).
holds(1107, pipe).

sample(1108).
holds(1108, building).
holds(1108, feature).
holds(1108, suburban).
holds(1108, miscresidential).
holds(1108, countryhouse).
holds(1108, residential).
holds(1108, porch).
holds(1108, table).
holds(1108, tiledroof).
holds(1108, car).

sample(1109).
holds(1109, building).
holds(1109, feature).
holds(1109, awning).
holds(1109, table).

sample(1110).
holds(1110, building).
holds(1110, feature).
holds(1110, miscindustrial).
holds(1110, watertreatment).
holds(1110, industrial).
holds(1110, pipe).
holds(1110, truck).

sample(1111).
holds(1111, building).
holds(1111, feature).
holds(1111, suburban).
holds(1111, residential).
holds(1111, awning).
holds(1111, porch).
holds(1111, table).
holds(1111, tiledroof).

sample(1112).
holds(1112, building).
holds(1112, feature).
holds(1112, awning).
holds(1112, table).

sample(1113).
holds(1113, building).
holds(1113, feature).
holds(1113, miscindustrial).
holds(1113, powerplant).
holds(1113, watertreatment).
holds(1113, industrial).
holds(1113, chimney).
holds(1113, pipe).
holds(1113, truck).

sample(1114).
holds(1114, building).
holds(1114, feature).
holds(1114, miscresidential).
holds(1114, countryhouse).
holds(1114, residential).
holds(1114, table).
holds(1114, tiledroof).
holds(1114, car).

sample(1115).
holds(1115, building).
holds(1115, feature).
holds(1115, awning).
holds(1115, table).

sample(1116).
holds(1116, building).
holds(1116, feature).
holds(1116, miscindustrial).
holds(1116, powerplant).
holds(1116, watertreatment).
holds(1116, industrial).
holds(1116, chimney).
holds(1116, pipe).
holds(1116, truck).

sample(1117).
holds(1117, building).
holds(1117, feature).
holds(1117, suburban).
holds(1117, miscresidential).
holds(1117, countryhouse).
holds(1117, residential).
holds(1117, porch).
holds(1117, table).
holds(1117, tiledroof).
holds(1117, car).

sample(1118).
holds(1118, building).
holds(1118, feature).
holds(1118, awning).
holds(1118, table).

sample(1119).
holds(1119, building).
holds(1119, feature).
holds(1119, constructionsite).
holds(1119, awning).
holds(1119, table).
holds(1119, machine).

sample(1120).
holds(1120, building).
holds(1120, feature).
holds(1120, miscresidential).
holds(1120, countryhouse).
holds(1120, residential).
holds(1120, table).
holds(1120, tiledroof).
holds(1120, car).

sample(1121).
holds(1121, building).
holds(1121, feature).
holds(1121, awning).
holds(1121, table).

sample(1122).
holds(1122, building).
holds(1122, feature).
holds(1122, powerplant).
holds(1122, industrial).
holds(1122, awning).
holds(1122, chimney).
holds(1122, pipe).

sample(1123).
holds(1123, building).
holds(1123, feature).
holds(1123, suburban).
holds(1123, residential).
holds(1123, awning).
holds(1123, porch).
holds(1123, table).
holds(1123, tiledroof).

sample(1124).
holds(1124, building).
holds(1124, feature).
holds(1124, awning).
holds(1124, table).

sample(1125).
holds(1125, building).
holds(1125, feature).
holds(1125, powerplant).
holds(1125, industrial).
holds(1125, awning).
holds(1125, chimney).
holds(1125, pipe).

sample(1126).
holds(1126, building).
holds(1126, feature).
holds(1126, suburban).
holds(1126, miscresidential).
holds(1126, countryhouse).
holds(1126, residential).
holds(1126, porch).
holds(1126, table).
holds(1126, tiledroof).
holds(1126, car).

sample(1127).
holds(1127, building).
holds(1127, feature).
holds(1127, awning).
holds(1127, table).

sample(1128).
holds(1128, building).
holds(1128, feature).
holds(1128, miscindustrial).
holds(1128, industrial).
holds(1128, truck).

sample(1129).
holds(1129, building).
holds(1129, feature).
holds(1129, suburban).
holds(1129, miscresidential).
holds(1129, countryhouse).
holds(1129, residential).
holds(1129, porch).
holds(1129, table).
holds(1129, tiledroof).
holds(1129, car).

sample(1130).
holds(1130, building).
holds(1130, feature).
holds(1130, awning).
holds(1130, table).

sample(1131).
holds(1131, building).
holds(1131, feature).
holds(1131, watertreatment).
holds(1131, industrial).
holds(1131, pipe).
holds(1131, truck).

sample(1132).
holds(1132, building).
holds(1132, feature).
holds(1132, miscresidential).
holds(1132, residential).
holds(1132, table).
holds(1132, tiledroof).

sample(1133).
holds(1133, building).
holds(1133, feature).
holds(1133, awning).
holds(1133, table).

sample(1134).
holds(1134, building).
holds(1134, feature).
holds(1134, powerplant).
holds(1134, industrial).
holds(1134, awning).
holds(1134, chimney).
holds(1134, pipe).

sample(1135).
holds(1135, building).
holds(1135, feature).
holds(1135, suburban).
holds(1135, miscresidential).
holds(1135, residential).
holds(1135, porch).
holds(1135, table).
holds(1135, tiledroof).

sample(1136).
holds(1136, building).
holds(1136, feature).
holds(1136, awning).
holds(1136, table).

sample(1137).
holds(1137, building).
holds(1137, feature).
holds(1137, miscindustrial).
holds(1137, industrial).
holds(1137, truck).

sample(1138).
holds(1138, building).
holds(1138, feature).
holds(1138, suburban).
holds(1138, miscresidential).
holds(1138, residential).
holds(1138, porch).
holds(1138, table).
holds(1138, tiledroof).

sample(1139).
holds(1139, building).
holds(1139, feature).
holds(1139, awning).
holds(1139, table).

sample(1140).
holds(1140, building).
holds(1140, feature).
holds(1140, constructionsite).
holds(1140, powerplant).
holds(1140, awning).
holds(1140, table).
holds(1140, chimney).
holds(1140, pipe).
holds(1140, machine).

sample(1141).
holds(1141, building).
holds(1141, feature).
holds(1141, suburban).
holds(1141, miscresidential).
holds(1141, residential).
holds(1141, porch).
holds(1141, table).
holds(1141, tiledroof).

sample(1142).
holds(1142, building).
holds(1142, feature).
holds(1142, awning).
holds(1142, table).

sample(1143).
holds(1143, building).
holds(1143, feature).
holds(1143, miscindustrial).
holds(1143, watertreatment).
holds(1143, industrial).
holds(1143, pipe).
holds(1143, truck).

sample(1144).
holds(1144, building).
holds(1144, feature).
holds(1144, suburban).
holds(1144, miscresidential).
holds(1144, residential).
holds(1144, porch).
holds(1144, table).
holds(1144, tiledroof).

sample(1145).
holds(1145, building).
holds(1145, feature).
holds(1145, awning).
holds(1145, table).

sample(1146).
holds(1146, building).
holds(1146, feature).
holds(1146, miscindustrial).
holds(1146, industrial).
holds(1146, truck).

sample(1147).
holds(1147, building).
holds(1147, feature).
holds(1147, suburban).
holds(1147, residential).
holds(1147, awning).
holds(1147, porch).
holds(1147, table).
holds(1147, tiledroof).

sample(1148).
holds(1148, building).
holds(1148, feature).
holds(1148, awning).
holds(1148, table).

sample(1149).
holds(1149, building).
holds(1149, feature).
holds(1149, constructionsite).
holds(1149, awning).
holds(1149, table).
holds(1149, machine).

sample(1150).
holds(1150, building).
holds(1150, feature).
holds(1150, suburban).
holds(1150, residential).
holds(1150, awning).
holds(1150, porch).
holds(1150, table).
holds(1150, tiledroof).

sample(1151).
holds(1151, building).
holds(1151, feature).
holds(1151, awning).
holds(1151, table).

sample(1152).
holds(1152, building).
holds(1152, feature).
holds(1152, miscindustrial).
holds(1152, industrial).
holds(1152, truck).

sample(1153).
holds(1153, building).
holds(1153, feature).
holds(1153, suburban).
holds(1153, miscresidential).
holds(1153, countryhouse).
holds(1153, residential).
holds(1153, porch).
holds(1153, table).
holds(1153, tiledroof).
holds(1153, car).

sample(1154).
holds(1154, building).
holds(1154, feature).
holds(1154, awning).
holds(1154, table).

sample(1155).
holds(1155, building).
holds(1155, feature).
holds(1155, powerplant).
holds(1155, industrial).
holds(1155, awning).
holds(1155, chimney).
holds(1155, pipe).

sample(1156).
holds(1156, building).
holds(1156, feature).
holds(1156, suburban).
holds(1156, miscresidential).
holds(1156, residential).
holds(1156, porch).
holds(1156, table).
holds(1156, tiledroof).

sample(1157).
holds(1157, building).
holds(1157, feature).
holds(1157, awning).
holds(1157, table).

sample(1158).
holds(1158, building).
holds(1158, feature).
holds(1158, powerplant).
holds(1158, industrial).
holds(1158, awning).
holds(1158, chimney).
holds(1158, pipe).

sample(1159).
holds(1159, building).
holds(1159, feature).
holds(1159, miscresidential).
holds(1159, residential).
holds(1159, table).
holds(1159, tiledroof).

sample(1160).
holds(1160, building).
holds(1160, feature).
holds(1160, awning).
holds(1160, table).

sample(1161).
holds(1161, building).
holds(1161, feature).
holds(1161, miscindustrial).
holds(1161, powerplant).
holds(1161, watertreatment).
holds(1161, industrial).
holds(1161, chimney).
holds(1161, pipe).
holds(1161, truck).

sample(1162).
holds(1162, building).
holds(1162, feature).
holds(1162, suburban).
holds(1162, miscresidential).
holds(1162, residential).
holds(1162, porch).
holds(1162, table).
holds(1162, tiledroof).

sample(1163).
holds(1163, building).
holds(1163, feature).
holds(1163, awning).
holds(1163, table).

sample(1164).
holds(1164, building).
holds(1164, feature).
holds(1164, miscindustrial).
holds(1164, powerplant).
holds(1164, watertreatment).
holds(1164, industrial).
holds(1164, chimney).
holds(1164, pipe).
holds(1164, truck).

sample(1165).
holds(1165, building).
holds(1165, feature).
holds(1165, suburban).
holds(1165, miscresidential).
holds(1165, residential).
holds(1165, porch).
holds(1165, table).
holds(1165, tiledroof).

sample(1166).
holds(1166, building).
holds(1166, feature).
holds(1166, awning).
holds(1166, table).

sample(1167).
holds(1167, building).
holds(1167, feature).
holds(1167, powerplant).
holds(1167, industrial).
holds(1167, awning).
holds(1167, chimney).
holds(1167, pipe).

sample(1168).
holds(1168, building).
holds(1168, feature).
holds(1168, suburban).
holds(1168, residential).
holds(1168, awning).
holds(1168, porch).
holds(1168, table).
holds(1168, tiledroof).

sample(1169).
holds(1169, building).
holds(1169, feature).
holds(1169, awning).
holds(1169, table).

sample(1170).
holds(1170, building).
holds(1170, feature).
holds(1170, miscindustrial).
holds(1170, watertreatment).
holds(1170, industrial).
holds(1170, pipe).
holds(1170, truck).

sample(1171).
holds(1171, building).
holds(1171, feature).
holds(1171, suburban).
holds(1171, residential).
holds(1171, awning).
holds(1171, porch).
holds(1171, table).
holds(1171, tiledroof).

sample(1172).
holds(1172, building).
holds(1172, feature).
holds(1172, awning).

sample(1173).
holds(1173, building).
holds(1173, feature).
holds(1173, powerplant).
holds(1173, industrial).
holds(1173, awning).
holds(1173, chimney).
holds(1173, pipe).

sample(1174).
holds(1174, building).
holds(1174, feature).
holds(1174, miscresidential).
holds(1174, residential).
holds(1174, table).
holds(1174, tiledroof).

sample(1175).
holds(1175, building).
holds(1175, feature).
holds(1175, awning).
holds(1175, table).

sample(1176).
holds(1176, building).
holds(1176, feature).
holds(1176, powerplant).
holds(1176, industrial).
holds(1176, awning).
holds(1176, chimney).
holds(1176, pipe).

sample(1177).
holds(1177, building).
holds(1177, feature).
holds(1177, suburban).
holds(1177, miscresidential).
holds(1177, residential).
holds(1177, porch).
holds(1177, table).
holds(1177, tiledroof).

sample(1178).
holds(1178, building).
holds(1178, feature).
holds(1178, awning).
holds(1178, table).

sample(1179).
holds(1179, building).
holds(1179, feature).
holds(1179, miscindustrial).
holds(1179, watertreatment).
holds(1179, industrial).
holds(1179, pipe).
holds(1179, truck).

sample(1180).
holds(1180, building).
holds(1180, feature).
holds(1180, suburban).
holds(1180, residential).
holds(1180, awning).
holds(1180, porch).
holds(1180, table).
holds(1180, tiledroof).

sample(1181).
holds(1181, building).
holds(1181, feature).
holds(1181, awning).
holds(1181, table).

sample(1182).
holds(1182, building).
holds(1182, feature).
holds(1182, constructionsite).
holds(1182, awning).
holds(1182, table).
holds(1182, machine).

sample(1183).
holds(1183, building).
holds(1183, feature).
holds(1183, suburban).
holds(1183, miscresidential).
holds(1183, countryhouse).
holds(1183, residential).
holds(1183, porch).
holds(1183, table).
holds(1183, tiledroof).
holds(1183, car).

sample(1184).
holds(1184, building).
holds(1184, feature).
holds(1184, awning).
holds(1184, table).

sample(1185).
holds(1185, building).
holds(1185, feature).
holds(1185, constructionsite).
holds(1185, powerplant).
holds(1185, awning).
holds(1185, table).
holds(1185, chimney).
holds(1185, pipe).
holds(1185, machine).

sample(1186).
holds(1186, building).
holds(1186, feature).
holds(1186, suburban).
holds(1186, miscresidential).
holds(1186, residential).
holds(1186, porch).
holds(1186, table).
holds(1186, tiledroof).

sample(1187).
holds(1187, building).
holds(1187, feature).
holds(1187, awning).
holds(1187, table).

sample(1188).
holds(1188, building).
holds(1188, feature).
holds(1188, powerplant).
holds(1188, industrial).
holds(1188, awning).
holds(1188, chimney).
holds(1188, pipe).

sample(1189).
holds(1189, building).
holds(1189, feature).
holds(1189, miscresidential).
holds(1189, residential).
holds(1189, table).
holds(1189, tiledroof).

sample(1190).
holds(1190, building).
holds(1190, feature).
holds(1190, awning).
holds(1190, table).

sample(1191).
holds(1191, building).
holds(1191, feature).
holds(1191, powerplant).
holds(1191, industrial).
holds(1191, awning).
holds(1191, chimney).
holds(1191, pipe).

sample(1192).
holds(1192, building).
holds(1192, feature).
holds(1192, suburban).
holds(1192, miscresidential).
holds(1192, residential).
holds(1192, porch).
holds(1192, table).
holds(1192, tiledroof).

sample(1193).
holds(1193, building).
holds(1193, feature).
holds(1193, awning).
holds(1193, table).

sample(1194).
holds(1194, building).
holds(1194, feature).
holds(1194, powerplant).
holds(1194, watertreatment).
holds(1194, industrial).
holds(1194, awning).
holds(1194, chimney).
holds(1194, pipe).
holds(1194, truck).

sample(1195).
holds(1195, building).
holds(1195, feature).
holds(1195, suburban).
holds(1195, miscresidential).
holds(1195, residential).
holds(1195, porch).
holds(1195, table).
holds(1195, tiledroof).

sample(1196).
holds(1196, building).
holds(1196, feature).
holds(1196, awning).
holds(1196, table).

sample(1197).
holds(1197, building).
holds(1197, feature).
holds(1197, miscindustrial).
holds(1197, powerplant).
holds(1197, watertreatment).
holds(1197, industrial).
holds(1197, chimney).
holds(1197, pipe).
holds(1197, truck).

sample(1198).
holds(1198, building).
holds(1198, feature).
holds(1198, suburban).
holds(1198, miscresidential).
holds(1198, residential).
holds(1198, porch).
holds(1198, table).
holds(1198, tiledroof).

sample(1199).
holds(1199, building).
holds(1199, feature).
holds(1199, awning).
holds(1199, table).

sample(1200).
holds(1200, building).
holds(1200, feature).
holds(1200, watertreatment).
holds(1200, industrial).
holds(1200, awning).
holds(1200, pipe).
holds(1200, truck).

sample(1201).
holds(1201, building).
holds(1201, feature).
holds(1201, miscresidential).
holds(1201, residential).
holds(1201, table).
holds(1201, tiledroof).

sample(1202).
holds(1202, building).
holds(1202, feature).
holds(1202, awning).
holds(1202, table).

sample(1203).
holds(1203, building).
holds(1203, feature).
holds(1203, constructionsite).
holds(1203, awning).
holds(1203, table).
holds(1203, machine).

sample(1204).
holds(1204, building).
holds(1204, feature).
holds(1204, suburban).
holds(1204, miscresidential).
holds(1204, residential).
holds(1204, porch).
holds(1204, table).
holds(1204, tiledroof).

sample(1205).
holds(1205, building).
holds(1205, feature).
holds(1205, awning).
holds(1205, table).

sample(1206).
holds(1206, building).
holds(1206, feature).
holds(1206, miscindustrial).
holds(1206, powerplant).
holds(1206, watertreatment).
holds(1206, industrial).
holds(1206, chimney).
holds(1206, pipe).
holds(1206, truck).

sample(1207).
holds(1207, building).
holds(1207, feature).
holds(1207, suburban).
holds(1207, residential).
holds(1207, awning).
holds(1207, porch).
holds(1207, table).
holds(1207, tiledroof).

sample(1208).
holds(1208, building).
holds(1208, feature).
holds(1208, awning).
holds(1208, table).

sample(1209).
holds(1209, building).
holds(1209, feature).
holds(1209, powerplant).
holds(1209, industrial).
holds(1209, awning).
holds(1209, chimney).
holds(1209, pipe).

sample(1210).
holds(1210, building).
holds(1210, feature).
holds(1210, suburban).
holds(1210, miscresidential).
holds(1210, countryhouse).
holds(1210, residential).
holds(1210, porch).
holds(1210, table).
holds(1210, tiledroof).
holds(1210, car).

sample(1211).
holds(1211, building).
holds(1211, feature).
holds(1211, awning).
holds(1211, table).

sample(1212).
holds(1212, building).
holds(1212, feature).
holds(1212, constructionsite).
holds(1212, awning).
holds(1212, table).
holds(1212, machine).

sample(1213).
holds(1213, building).
holds(1213, feature).
holds(1213, suburban).
holds(1213, miscresidential).
holds(1213, residential).
holds(1213, porch).
holds(1213, table).
holds(1213, tiledroof).

sample(1214).
holds(1214, building).
holds(1214, feature).
holds(1214, awning).
holds(1214, table).

sample(1215).
holds(1215, building).
holds(1215, feature).
holds(1215, miscindustrial).
holds(1215, powerplant).
holds(1215, watertreatment).
holds(1215, industrial).
holds(1215, chimney).
holds(1215, pipe).
holds(1215, truck).

sample(1216).
holds(1216, building).
holds(1216, feature).
holds(1216, suburban).
holds(1216, miscresidential).
holds(1216, countryhouse).
holds(1216, residential).
holds(1216, porch).
holds(1216, table).
holds(1216, tiledroof).
holds(1216, car).

sample(1217).
holds(1217, building).
holds(1217, feature).
holds(1217, awning).
holds(1217, table).

sample(1218).
holds(1218, building).
holds(1218, feature).
holds(1218, powerplant).
holds(1218, industrial).
holds(1218, awning).
holds(1218, chimney).
holds(1218, pipe).

sample(1219).
holds(1219, building).
holds(1219, feature).
holds(1219, miscresidential).
holds(1219, countryhouse).
holds(1219, residential).
holds(1219, table).
holds(1219, tiledroof).
holds(1219, car).

sample(1220).
holds(1220, building).
holds(1220, feature).
holds(1220, awning).
holds(1220, table).

sample(1221).
holds(1221, building).
holds(1221, feature).
holds(1221, constructionsite).
holds(1221, powerplant).
holds(1221, awning).
holds(1221, table).
holds(1221, chimney).
holds(1221, pipe).
holds(1221, machine).

sample(1222).
holds(1222, building).
holds(1222, feature).
holds(1222, suburban).
holds(1222, miscresidential).
holds(1222, countryhouse).
holds(1222, residential).
holds(1222, porch).
holds(1222, table).
holds(1222, tiledroof).
holds(1222, car).

sample(1223).
holds(1223, building).
holds(1223, feature).
holds(1223, awning).
holds(1223, table).

sample(1224).
holds(1224, building).
holds(1224, feature).
holds(1224, miscindustrial).
holds(1224, watertreatment).
holds(1224, industrial).
holds(1224, pipe).
holds(1224, truck).

sample(1225).
holds(1225, building).
holds(1225, feature).
holds(1225, suburban).
holds(1225, miscresidential).
holds(1225, residential).
holds(1225, porch).
holds(1225, table).
holds(1225, tiledroof).

sample(1226).
holds(1226, building).
holds(1226, feature).
holds(1226, awning).
holds(1226, table).

sample(1227).
holds(1227, building).
holds(1227, feature).
holds(1227, powerplant).
holds(1227, industrial).
holds(1227, awning).
holds(1227, chimney).
holds(1227, pipe).

sample(1228).
holds(1228, building).
holds(1228, feature).
holds(1228, suburban).
holds(1228, miscresidential).
holds(1228, countryhouse).
holds(1228, residential).
holds(1228, porch).
holds(1228, table).
holds(1228, tiledroof).
holds(1228, car).

sample(1229).
holds(1229, building).
holds(1229, feature).
holds(1229, awning).
holds(1229, table).

sample(1230).
holds(1230, building).
holds(1230, feature).
holds(1230, constructionsite).
holds(1230, powerplant).
holds(1230, awning).
holds(1230, table).
holds(1230, chimney).
holds(1230, pipe).
holds(1230, machine).

sample(1231).
holds(1231, building).
holds(1231, feature).
holds(1231, miscresidential).
holds(1231, residential).
holds(1231, table).
holds(1231, tiledroof).

sample(1232).
holds(1232, building).
holds(1232, feature).
holds(1232, awning).
holds(1232, table).

sample(1233).
holds(1233, building).
holds(1233, feature).
holds(1233, constructionsite).
holds(1233, awning).
holds(1233, table).
holds(1233, machine).

sample(1234).
holds(1234, building).
holds(1234, feature).
holds(1234, miscresidential).
holds(1234, residential).
holds(1234, table).
holds(1234, tiledroof).

sample(1235).
holds(1235, building).
holds(1235, feature).
holds(1235, awning).
holds(1235, table).

sample(1236).
holds(1236, building).
holds(1236, feature).
holds(1236, powerplant).
holds(1236, industrial).
holds(1236, awning).
holds(1236, chimney).
holds(1236, pipe).

sample(1237).
holds(1237, building).
holds(1237, feature).
holds(1237, miscresidential).
holds(1237, countryhouse).
holds(1237, residential).
holds(1237, table).
holds(1237, tiledroof).
holds(1237, car).

sample(1238).
holds(1238, building).
holds(1238, feature).
holds(1238, awning).
holds(1238, table).

sample(1239).
holds(1239, building).
holds(1239, feature).
holds(1239, miscindustrial).
holds(1239, powerplant).
holds(1239, watertreatment).
holds(1239, industrial).
holds(1239, chimney).
holds(1239, pipe).
holds(1239, truck).

sample(1240).
holds(1240, building).
holds(1240, feature).
holds(1240, suburban).
holds(1240, miscresidential).
holds(1240, residential).
holds(1240, porch).
holds(1240, table).
holds(1240, tiledroof).

sample(1241).
holds(1241, building).
holds(1241, feature).
holds(1241, awning).
holds(1241, table).

sample(1242).
holds(1242, building).
holds(1242, feature).
holds(1242, constructionsite).
holds(1242, awning).
holds(1242, table).
holds(1242, machine).

sample(1243).
holds(1243, building).
holds(1243, feature).
holds(1243, suburban).
holds(1243, miscresidential).
holds(1243, residential).
holds(1243, porch).
holds(1243, table).
holds(1243, tiledroof).

sample(1244).
holds(1244, building).
holds(1244, feature).
holds(1244, awning).
holds(1244, table).

sample(1245).
holds(1245, building).
holds(1245, feature).
holds(1245, constructionsite).
holds(1245, awning).
holds(1245, table).
holds(1245, machine).

sample(1246).
holds(1246, building).
holds(1246, feature).
holds(1246, miscresidential).
holds(1246, countryhouse).
holds(1246, residential).
holds(1246, table).
holds(1246, tiledroof).
holds(1246, car).

sample(1247).
holds(1247, building).
holds(1247, feature).
holds(1247, awning).
holds(1247, table).

sample(1248).
holds(1248, building).
holds(1248, feature).
holds(1248, constructionsite).
holds(1248, powerplant).
holds(1248, awning).
holds(1248, table).
holds(1248, chimney).
holds(1248, pipe).
holds(1248, machine).

sample(1249).
holds(1249, building).
holds(1249, feature).
holds(1249, miscresidential).
holds(1249, countryhouse).
holds(1249, residential).
holds(1249, table).
holds(1249, tiledroof).
holds(1249, car).

sample(1250).
holds(1250, building).
holds(1250, feature).
holds(1250, awning).
holds(1250, table).

sample(1251).
holds(1251, building).
holds(1251, feature).
holds(1251, constructionsite).
holds(1251, powerplant).
holds(1251, awning).
holds(1251, table).
holds(1251, chimney).
holds(1251, pipe).
holds(1251, machine).

sample(1252).
holds(1252, building).
holds(1252, feature).
holds(1252, miscresidential).
holds(1252, residential).
holds(1252, table).
holds(1252, tiledroof).

sample(1253).
holds(1253, building).
holds(1253, feature).
holds(1253, awning).
holds(1253, table).

sample(1254).
holds(1254, building).
holds(1254, feature).
holds(1254, powerplant).
holds(1254, industrial).
holds(1254, awning).
holds(1254, chimney).
holds(1254, pipe).

sample(1255).
holds(1255, building).
holds(1255, feature).
holds(1255, suburban).
holds(1255, miscresidential).
holds(1255, residential).
holds(1255, porch).
holds(1255, table).
holds(1255, tiledroof).

sample(1256).
holds(1256, building).
holds(1256, feature).
holds(1256, awning).
holds(1256, table).

sample(1257).
holds(1257, building).
holds(1257, feature).
holds(1257, constructionsite).
holds(1257, powerplant).
holds(1257, awning).
holds(1257, table).
holds(1257, chimney).
holds(1257, pipe).
holds(1257, machine).

sample(1258).
holds(1258, building).
holds(1258, feature).
holds(1258, suburban).
holds(1258, miscresidential).
holds(1258, residential).
holds(1258, porch).
holds(1258, table).
holds(1258, tiledroof).

sample(1259).
holds(1259, building).
holds(1259, feature).
holds(1259, awning).
holds(1259, table).

sample(1260).
holds(1260, building).
holds(1260, feature).
holds(1260, watertreatment).
holds(1260, industrial).
holds(1260, pipe).
holds(1260, truck).

sample(1261).
holds(1261, building).
holds(1261, feature).
holds(1261, miscresidential).
holds(1261, countryhouse).
holds(1261, residential).
holds(1261, table).
holds(1261, tiledroof).
holds(1261, car).

sample(1262).
holds(1262, building).
holds(1262, feature).
holds(1262, awning).
holds(1262, table).

sample(1263).
holds(1263, building).
holds(1263, feature).
holds(1263, miscindustrial).
holds(1263, watertreatment).
holds(1263, industrial).
holds(1263, truck).

sample(1264).
holds(1264, building).
holds(1264, feature).
holds(1264, suburban).
holds(1264, miscresidential).
holds(1264, residential).
holds(1264, porch).
holds(1264, table).
holds(1264, tiledroof).

sample(1265).
holds(1265, building).
holds(1265, feature).
holds(1265, awning).
holds(1265, table).

sample(1266).
holds(1266, building).
holds(1266, feature).
holds(1266, powerplant).
holds(1266, industrial).
holds(1266, awning).
holds(1266, chimney).
holds(1266, pipe).

sample(1267).
holds(1267, building).
holds(1267, feature).
holds(1267, suburban).
holds(1267, miscresidential).
holds(1267, countryhouse).
holds(1267, residential).
holds(1267, porch).
holds(1267, table).
holds(1267, tiledroof).
holds(1267, car).

sample(1268).
holds(1268, building).
holds(1268, feature).
holds(1268, awning).
holds(1268, table).

sample(1269).
holds(1269, building).
holds(1269, feature).
holds(1269, powerplant).
holds(1269, industrial).
holds(1269, awning).
holds(1269, chimney).
holds(1269, pipe).

sample(1270).
holds(1270, building).
holds(1270, feature).
holds(1270, miscresidential).
holds(1270, residential).
holds(1270, table).
holds(1270, tiledroof).

sample(1271).
holds(1271, building).
holds(1271, feature).
holds(1271, awning).
holds(1271, table).

sample(1272).
holds(1272, building).
holds(1272, feature).
holds(1272, miscindustrial).
holds(1272, watertreatment).
holds(1272, industrial).
holds(1272, truck).

sample(1273).
holds(1273, building).
holds(1273, feature).
holds(1273, suburban).
holds(1273, miscresidential).
holds(1273, countryhouse).
holds(1273, residential).
holds(1273, porch).
holds(1273, table).
holds(1273, tiledroof).
holds(1273, car).

sample(1274).
holds(1274, building).
holds(1274, feature).
holds(1274, awning).
holds(1274, table).

sample(1275).
holds(1275, building).
holds(1275, feature).
holds(1275, powerplant).
holds(1275, industrial).
holds(1275, awning).
holds(1275, chimney).
holds(1275, pipe).

sample(1276).
holds(1276, building).
holds(1276, feature).
holds(1276, miscresidential).
holds(1276, countryhouse).
holds(1276, residential).
holds(1276, table).
holds(1276, tiledroof).
holds(1276, car).

sample(1277).
holds(1277, building).
holds(1277, feature).
holds(1277, awning).
holds(1277, table).

sample(1278).
holds(1278, building).
holds(1278, feature).
holds(1278, powerplant).
holds(1278, industrial).
holds(1278, awning).
holds(1278, chimney).
holds(1278, pipe).

sample(1279).
holds(1279, building).
holds(1279, feature).
holds(1279, miscresidential).
holds(1279, residential).
holds(1279, table).
holds(1279, tiledroof).

sample(1280).
holds(1280, building).
holds(1280, feature).
holds(1280, awning).
holds(1280, table).

sample(1281).
holds(1281, building).
holds(1281, feature).
holds(1281, miscindustrial).
holds(1281, industrial).
holds(1281, truck).

sample(1282).
holds(1282, building).
holds(1282, feature).
holds(1282, suburban).
holds(1282, miscresidential).
holds(1282, countryhouse).
holds(1282, residential).
holds(1282, porch).
holds(1282, table).
holds(1282, tiledroof).
holds(1282, car).

sample(1283).
holds(1283, building).
holds(1283, feature).
holds(1283, awning).
holds(1283, table).

sample(1284).
holds(1284, building).
holds(1284, feature).
holds(1284, constructionsite).
holds(1284, powerplant).
holds(1284, awning).
holds(1284, table).
holds(1284, chimney).
holds(1284, pipe).
holds(1284, machine).

sample(1285).
holds(1285, building).
holds(1285, feature).
holds(1285, suburban).
holds(1285, miscresidential).
holds(1285, residential).
holds(1285, porch).
holds(1285, table).
holds(1285, tiledroof).

sample(1286).
holds(1286, building).
holds(1286, feature).
holds(1286, awning).
holds(1286, table).

sample(1287).
holds(1287, building).
holds(1287, feature).
holds(1287, constructionsite).
holds(1287, powerplant).
holds(1287, awning).
holds(1287, table).
holds(1287, chimney).
holds(1287, pipe).
holds(1287, machine).

sample(1288).
holds(1288, building).
holds(1288, feature).
holds(1288, suburban).
holds(1288, miscresidential).
holds(1288, countryhouse).
holds(1288, residential).
holds(1288, porch).
holds(1288, table).
holds(1288, tiledroof).
holds(1288, car).

sample(1289).
holds(1289, building).
holds(1289, feature).
holds(1289, awning).
holds(1289, table).

sample(1290).
holds(1290, building).
holds(1290, feature).
holds(1290, powerplant).
holds(1290, industrial).
holds(1290, awning).
holds(1290, chimney).
holds(1290, pipe).

sample(1291).
holds(1291, building).
holds(1291, feature).
holds(1291, suburban).
holds(1291, miscresidential).
holds(1291, countryhouse).
holds(1291, residential).
holds(1291, porch).
holds(1291, table).
holds(1291, tiledroof).
holds(1291, car).

sample(1292).
holds(1292, building).
holds(1292, feature).
holds(1292, awning).
holds(1292, table).

sample(1293).
holds(1293, building).
holds(1293, feature).
holds(1293, miscindustrial).
holds(1293, industrial).
holds(1293, truck).

sample(1294).
holds(1294, building).
holds(1294, feature).
holds(1294, suburban).
holds(1294, miscresidential).
holds(1294, countryhouse).
holds(1294, residential).
holds(1294, porch).
holds(1294, table).
holds(1294, tiledroof).
holds(1294, car).

sample(1295).
holds(1295, building).
holds(1295, feature).
holds(1295, awning).
holds(1295, table).

sample(1296).
holds(1296, building).
holds(1296, feature).
holds(1296, constructionsite).
holds(1296, powerplant).
holds(1296, awning).
holds(1296, table).
holds(1296, chimney).
holds(1296, pipe).
holds(1296, machine).

sample(1297).
holds(1297, building).
holds(1297, feature).
holds(1297, miscresidential).
holds(1297, residential).
holds(1297, table).
holds(1297, tiledroof).

sample(1298).
holds(1298, building).
holds(1298, feature).
holds(1298, awning).
holds(1298, table).

sample(1299).
holds(1299, building).
holds(1299, feature).
holds(1299, miscindustrial).
holds(1299, industrial).
holds(1299, truck).

sample(1300).
holds(1300, building).
holds(1300, feature).
holds(1300, miscresidential).
holds(1300, countryhouse).
holds(1300, residential).
holds(1300, table).
holds(1300, tiledroof).
holds(1300, car).

sample(1301).
holds(1301, building).
holds(1301, feature).
holds(1301, awning).
holds(1301, table).

sample(1302).
holds(1302, building).
holds(1302, feature).
holds(1302, powerplant).
holds(1302, industrial).
holds(1302, awning).
holds(1302, chimney).
holds(1302, pipe).

sample(1303).
holds(1303, building).
holds(1303, feature).
holds(1303, suburban).
holds(1303, miscresidential).
holds(1303, residential).
holds(1303, porch).
holds(1303, table).
holds(1303, tiledroof).

sample(1304).
holds(1304, building).
holds(1304, feature).
holds(1304, awning).
holds(1304, table).

sample(1305).
holds(1305, building).
holds(1305, feature).
holds(1305, powerplant).
holds(1305, industrial).
holds(1305, awning).
holds(1305, chimney).
holds(1305, pipe).

sample(1306).
holds(1306, building).
holds(1306, feature).
holds(1306, miscresidential).
holds(1306, residential).
holds(1306, table).
holds(1306, tiledroof).

sample(1307).
holds(1307, building).
holds(1307, feature).
holds(1307, awning).
holds(1307, table).

sample(1308).
holds(1308, building).
holds(1308, feature).
holds(1308, miscindustrial).
holds(1308, powerplant).
holds(1308, watertreatment).
holds(1308, industrial).
holds(1308, chimney).
holds(1308, pipe).
holds(1308, truck).

sample(1309).
holds(1309, building).
holds(1309, feature).
holds(1309, suburban).
holds(1309, miscresidential).
holds(1309, countryhouse).
holds(1309, residential).
holds(1309, porch).
holds(1309, table).
holds(1309, tiledroof).
holds(1309, car).

sample(1310).
holds(1310, building).
holds(1310, feature).
holds(1310, awning).
holds(1310, table).

sample(1311).
holds(1311, building).
holds(1311, feature).
holds(1311, miscindustrial).
holds(1311, powerplant).
holds(1311, watertreatment).
holds(1311, industrial).
holds(1311, truck).

sample(1312).
holds(1312, building).
holds(1312, feature).
holds(1312, miscresidential).
holds(1312, countryhouse).
holds(1312, residential).
holds(1312, table).
holds(1312, tiledroof).
holds(1312, car).

sample(1313).
holds(1313, building).
holds(1313, feature).
holds(1313, awning).
holds(1313, table).

sample(1314).
holds(1314, building).
holds(1314, feature).
holds(1314, miscindustrial).
holds(1314, powerplant).
holds(1314, watertreatment).
holds(1314, industrial).
holds(1314, chimney).
holds(1314, pipe).
holds(1314, truck).

sample(1315).
holds(1315, building).
holds(1315, feature).
holds(1315, miscresidential).
holds(1315, countryhouse).
holds(1315, residential).
holds(1315, table).
holds(1315, tiledroof).
holds(1315, car).

sample(1316).
holds(1316, building).
holds(1316, feature).
holds(1316, awning).
holds(1316, table).

sample(1317).
holds(1317, building).
holds(1317, feature).
holds(1317, watertreatment).
holds(1317, industrial).
holds(1317, pipe).
holds(1317, truck).

sample(1318).
holds(1318, building).
holds(1318, feature).
holds(1318, suburban).
holds(1318, residential).
holds(1318, awning).
holds(1318, porch).
holds(1318, table).
holds(1318, tiledroof).

sample(1319).
holds(1319, building).
holds(1319, feature).
holds(1319, awning).
holds(1319, table).

sample(1320).
holds(1320, building).
holds(1320, feature).
holds(1320, constructionsite).
holds(1320, awning).
holds(1320, table).
holds(1320, machine).

sample(1321).
holds(1321, building).
holds(1321, feature).
holds(1321, miscresidential).
holds(1321, residential).
holds(1321, table).
holds(1321, tiledroof).

sample(1322).
holds(1322, building).
holds(1322, feature).
holds(1322, awning).
holds(1322, table).

sample(1323).
holds(1323, building).
holds(1323, feature).
holds(1323, miscindustrial).
holds(1323, powerplant).
holds(1323, watertreatment).
holds(1323, industrial).
holds(1323, chimney).
holds(1323, pipe).
holds(1323, truck).

sample(1324).
holds(1324, building).
holds(1324, feature).
holds(1324, suburban).
holds(1324, residential).
holds(1324, awning).
holds(1324, porch).
holds(1324, table).
holds(1324, tiledroof).

sample(1325).
holds(1325, building).
holds(1325, feature).
holds(1325, awning).
holds(1325, table).

sample(1326).
holds(1326, building).
holds(1326, feature).
holds(1326, miscindustrial).
holds(1326, watertreatment).
holds(1326, industrial).
holds(1326, pipe).
holds(1326, truck).

sample(1327).
holds(1327, building).
holds(1327, feature).
holds(1327, miscresidential).
holds(1327, residential).
holds(1327, table).
holds(1327, tiledroof).

sample(1328).
holds(1328, building).
holds(1328, feature).
holds(1328, awning).
holds(1328, table).

sample(1329).
holds(1329, building).
holds(1329, feature).
holds(1329, miscindustrial).
holds(1329, watertreatment).
holds(1329, industrial).
holds(1329, pipe).
holds(1329, truck).

sample(1330).
holds(1330, building).
holds(1330, feature).
holds(1330, suburban).
holds(1330, miscresidential).
holds(1330, countryhouse).
holds(1330, residential).
holds(1330, porch).
holds(1330, table).
holds(1330, tiledroof).
holds(1330, car).

sample(1331).
holds(1331, building).
holds(1331, feature).
holds(1331, awning).
holds(1331, table).

sample(1332).
holds(1332, building).
holds(1332, feature).
holds(1332, powerplant).
holds(1332, industrial).
holds(1332, awning).
holds(1332, chimney).
holds(1332, pipe).

sample(1333).
holds(1333, building).
holds(1333, feature).
holds(1333, suburban).
holds(1333, miscresidential).
holds(1333, residential).
holds(1333, porch).
holds(1333, table).
holds(1333, tiledroof).

sample(1334).
holds(1334, building).
holds(1334, feature).
holds(1334, awning).
holds(1334, table).

sample(1335).
holds(1335, building).
holds(1335, feature).
holds(1335, miscindustrial).
holds(1335, powerplant).
holds(1335, watertreatment).
holds(1335, industrial).
holds(1335, chimney).
holds(1335, pipe).
holds(1335, truck).

sample(1336).
holds(1336, building).
holds(1336, feature).
holds(1336, suburban).
holds(1336, miscresidential).
holds(1336, residential).
holds(1336, porch).
holds(1336, table).
holds(1336, tiledroof).

sample(1337).
holds(1337, building).
holds(1337, feature).
holds(1337, awning).
holds(1337, table).

sample(1338).
holds(1338, building).
holds(1338, feature).
holds(1338, miscindustrial).
holds(1338, industrial).
holds(1338, truck).

sample(1339).
holds(1339, building).
holds(1339, feature).
holds(1339, miscresidential).
holds(1339, residential).
holds(1339, table).
holds(1339, tiledroof).

sample(1340).
holds(1340, building).
holds(1340, feature).
holds(1340, awning).
holds(1340, table).

sample(1341).
holds(1341, building).
holds(1341, feature).
holds(1341, powerplant).
holds(1341, industrial).
holds(1341, awning).
holds(1341, chimney).
holds(1341, pipe).

sample(1342).
holds(1342, building).
holds(1342, feature).
holds(1342, suburban).
holds(1342, miscresidential).
holds(1342, countryhouse).
holds(1342, residential).
holds(1342, porch).
holds(1342, table).
holds(1342, tiledroof).
holds(1342, car).

sample(1343).
holds(1343, building).
holds(1343, feature).
holds(1343, awning).
holds(1343, table).

sample(1344).
holds(1344, building).
holds(1344, feature).
holds(1344, miscindustrial).
holds(1344, industrial).
holds(1344, truck).

sample(1345).
holds(1345, building).
holds(1345, feature).
holds(1345, suburban).
holds(1345, miscresidential).
holds(1345, countryhouse).
holds(1345, residential).
holds(1345, porch).
holds(1345, table).
holds(1345, tiledroof).
holds(1345, car).

sample(1346).
holds(1346, building).
holds(1346, feature).
holds(1346, awning).
holds(1346, table).

sample(1347).
holds(1347, building).
holds(1347, feature).
holds(1347, constructionsite).
holds(1347, awning).
holds(1347, table).
holds(1347, machine).

sample(1348).
holds(1348, building).
holds(1348, feature).
holds(1348, suburban).
holds(1348, miscresidential).
holds(1348, countryhouse).
holds(1348, residential).
holds(1348, porch).
holds(1348, table).
holds(1348, tiledroof).
holds(1348, car).

sample(1349).
holds(1349, building).
holds(1349, feature).
holds(1349, awning).
holds(1349, table).

sample(1350).
holds(1350, building).
holds(1350, feature).
holds(1350, constructionsite).
holds(1350, powerplant).
holds(1350, awning).
holds(1350, table).
holds(1350, chimney).
holds(1350, pipe).
holds(1350, machine).

sample(1351).
holds(1351, building).
holds(1351, feature).
holds(1351, miscresidential).
holds(1351, residential).
holds(1351, table).
holds(1351, tiledroof).

sample(1352).
holds(1352, building).
holds(1352, feature).
holds(1352, awning).
holds(1352, table).

sample(1353).
holds(1353, building).
holds(1353, feature).
holds(1353, miscindustrial).
holds(1353, powerplant).
holds(1353, watertreatment).
holds(1353, industrial).
holds(1353, chimney).
holds(1353, pipe).
holds(1353, truck).

sample(1354).
holds(1354, building).
holds(1354, feature).
holds(1354, suburban).
holds(1354, miscresidential).
holds(1354, countryhouse).
holds(1354, residential).
holds(1354, porch).
holds(1354, table).
holds(1354, tiledroof).
holds(1354, car).

sample(1355).
holds(1355, building).
holds(1355, feature).
holds(1355, awning).
holds(1355, table).

sample(1356).
holds(1356, building).
holds(1356, feature).
holds(1356, powerplant).
holds(1356, industrial).
holds(1356, awning).
holds(1356, chimney).
holds(1356, pipe).

sample(1357).
holds(1357, building).
holds(1357, feature).
holds(1357, miscresidential).
holds(1357, residential).
holds(1357, table).
holds(1357, tiledroof).

sample(1358).
holds(1358, building).
holds(1358, feature).
holds(1358, awning).
holds(1358, table).

sample(1359).
holds(1359, building).
holds(1359, feature).
holds(1359, miscindustrial).
holds(1359, watertreatment).
holds(1359, industrial).
holds(1359, pipe).
holds(1359, truck).

sample(1360).
holds(1360, building).
holds(1360, feature).
holds(1360, miscresidential).
holds(1360, countryhouse).
holds(1360, residential).
holds(1360, table).
holds(1360, tiledroof).
holds(1360, car).

sample(1361).
holds(1361, building).
holds(1361, feature).
holds(1361, awning).
holds(1361, table).

sample(1362).
holds(1362, building).
holds(1362, feature).
holds(1362, constructionsite).
holds(1362, powerplant).
holds(1362, awning).
holds(1362, table).
holds(1362, chimney).
holds(1362, pipe).
holds(1362, machine).

sample(1363).
holds(1363, building).
holds(1363, feature).
holds(1363, miscresidential).
holds(1363, residential).
holds(1363, table).
holds(1363, tiledroof).

sample(1364).
holds(1364, building).
holds(1364, feature).
holds(1364, awning).
holds(1364, table).

sample(1365).
holds(1365, building).
holds(1365, feature).
holds(1365, miscindustrial).
holds(1365, watertreatment).
holds(1365, industrial).
holds(1365, pipe).
holds(1365, truck).

sample(1366).
holds(1366, building).
holds(1366, feature).
holds(1366, suburban).
holds(1366, miscresidential).
holds(1366, countryhouse).
holds(1366, residential).
holds(1366, porch).
holds(1366, table).
holds(1366, tiledroof).
holds(1366, car).

sample(1367).
holds(1367, building).
holds(1367, feature).
holds(1367, awning).
holds(1367, table).

sample(1368).
holds(1368, building).
holds(1368, feature).
holds(1368, powerplant).
holds(1368, industrial).
holds(1368, awning).
holds(1368, chimney).
holds(1368, pipe).

sample(1369).
holds(1369, building).
holds(1369, feature).
holds(1369, miscresidential).
holds(1369, residential).
holds(1369, table).
holds(1369, tiledroof).

sample(1370).
holds(1370, building).
holds(1370, feature).
holds(1370, awning).
holds(1370, table).

sample(1371).
holds(1371, building).
holds(1371, feature).
holds(1371, miscindustrial).
holds(1371, watertreatment).
holds(1371, industrial).
holds(1371, pipe).
holds(1371, truck).

sample(1372).
holds(1372, building).
holds(1372, feature).
holds(1372, miscresidential).
holds(1372, countryhouse).
holds(1372, residential).
holds(1372, table).
holds(1372, tiledroof).
holds(1372, car).

sample(1373).
holds(1373, building).
holds(1373, feature).
holds(1373, awning).
holds(1373, table).

sample(1374).
holds(1374, building).
holds(1374, feature).
holds(1374, miscindustrial).
holds(1374, industrial).
holds(1374, truck).

sample(1375).
holds(1375, building).
holds(1375, feature).
holds(1375, miscresidential).
holds(1375, residential).
holds(1375, table).
holds(1375, tiledroof).

sample(1376).
holds(1376, building).
holds(1376, feature).
holds(1376, awning).
holds(1376, table).

sample(1377).
holds(1377, building).
holds(1377, feature).
holds(1377, miscindustrial).
holds(1377, powerplant).
holds(1377, watertreatment).
holds(1377, industrial).
holds(1377, chimney).
holds(1377, pipe).
holds(1377, truck).

sample(1378).
holds(1378, building).
holds(1378, feature).
holds(1378, suburban).
holds(1378, miscresidential).
holds(1378, countryhouse).
holds(1378, residential).
holds(1378, porch).
holds(1378, table).
holds(1378, tiledroof).
holds(1378, car).

sample(1379).
holds(1379, building).
holds(1379, feature).
holds(1379, awning).
holds(1379, table).

sample(1380).
holds(1380, building).
holds(1380, feature).
holds(1380, constructionsite).
holds(1380, awning).
holds(1380, table).
holds(1380, machine).

sample(1381).
holds(1381, building).
holds(1381, feature).
holds(1381, miscresidential).
holds(1381, countryhouse).
holds(1381, residential).
holds(1381, table).
holds(1381, tiledroof).
holds(1381, car).

sample(1382).
holds(1382, building).
holds(1382, feature).
holds(1382, awning).
holds(1382, table).

sample(1383).
holds(1383, building).
holds(1383, feature).
holds(1383, miscindustrial).
holds(1383, industrial).
holds(1383, truck).

sample(1384).
holds(1384, building).
holds(1384, feature).
holds(1384, suburban).
holds(1384, miscresidential).
holds(1384, residential).
holds(1384, porch).
holds(1384, table).
holds(1384, tiledroof).

sample(1385).
holds(1385, building).
holds(1385, feature).
holds(1385, awning).
holds(1385, table).

sample(1386).
holds(1386, building).
holds(1386, feature).
holds(1386, constructionsite).
holds(1386, powerplant).
holds(1386, awning).
holds(1386, table).
holds(1386, chimney).
holds(1386, pipe).
holds(1386, machine).

sample(1387).
holds(1387, building).
holds(1387, feature).
holds(1387, suburban).
holds(1387, miscresidential).
holds(1387, residential).
holds(1387, porch).
holds(1387, table).
holds(1387, tiledroof).

sample(1388).
holds(1388, building).
holds(1388, feature).
holds(1388, awning).
holds(1388, table).

sample(1389).
holds(1389, building).
holds(1389, feature).
holds(1389, miscindustrial).
holds(1389, watertreatment).
holds(1389, industrial).
holds(1389, pipe).
holds(1389, truck).

sample(1390).
holds(1390, building).
holds(1390, feature).
holds(1390, miscresidential).
holds(1390, countryhouse).
holds(1390, residential).
holds(1390, table).
holds(1390, tiledroof).
holds(1390, car).

sample(1391).
holds(1391, building).
holds(1391, feature).
holds(1391, awning).
holds(1391, table).

sample(1392).
holds(1392, building).
holds(1392, feature).
holds(1392, miscindustrial).
holds(1392, powerplant).
holds(1392, watertreatment).
holds(1392, industrial).
holds(1392, chimney).
holds(1392, pipe).
holds(1392, truck).

sample(1393).
holds(1393, building).
holds(1393, feature).
holds(1393, suburban).
holds(1393, miscresidential).
holds(1393, countryhouse).
holds(1393, residential).
holds(1393, porch).
holds(1393, table).
holds(1393, tiledroof).
holds(1393, car).

sample(1394).
holds(1394, building).
holds(1394, feature).
holds(1394, awning).
holds(1394, table).

sample(1395).
holds(1395, building).
holds(1395, feature).
holds(1395, constructionsite).
holds(1395, awning).
holds(1395, table).
holds(1395, machine).

sample(1396).
holds(1396, building).
holds(1396, feature).
holds(1396, miscresidential).
holds(1396, countryhouse).
holds(1396, residential).
holds(1396, table).
holds(1396, tiledroof).
holds(1396, car).

sample(1397).
holds(1397, building).
holds(1397, feature).
holds(1397, awning).
holds(1397, table).

sample(1398).
holds(1398, building).
holds(1398, feature).
holds(1398, miscindustrial).
holds(1398, watertreatment).
holds(1398, industrial).
holds(1398, truck).

sample(1399).
holds(1399, building).
holds(1399, feature).
holds(1399, miscresidential).
holds(1399, residential).
holds(1399, table).
holds(1399, tiledroof).

sample(1400).
holds(1400, building).
holds(1400, feature).
holds(1400, awning).
holds(1400, table).

sample(1401).
holds(1401, building).
holds(1401, feature).
holds(1401, powerplant).
holds(1401, watertreatment).
holds(1401, industrial).
holds(1401, chimney).
holds(1401, pipe).
holds(1401, truck).

sample(1402).
holds(1402, building).
holds(1402, feature).
holds(1402, suburban).
holds(1402, miscresidential).
holds(1402, countryhouse).
holds(1402, residential).
holds(1402, porch).
holds(1402, table).
holds(1402, tiledroof).
holds(1402, car).

sample(1403).
holds(1403, building).
holds(1403, feature).
holds(1403, awning).
holds(1403, table).

sample(1404).
holds(1404, building).
holds(1404, feature).
holds(1404, powerplant).
holds(1404, watertreatment).
holds(1404, industrial).
holds(1404, awning).
holds(1404, chimney).
holds(1404, pipe).
holds(1404, truck).

sample(1405).
holds(1405, building).
holds(1405, feature).
holds(1405, miscresidential).
holds(1405, countryhouse).
holds(1405, residential).
holds(1405, table).
holds(1405, tiledroof).
holds(1405, car).

sample(1406).
holds(1406, building).
holds(1406, feature).
holds(1406, awning).
holds(1406, table).

sample(1407).
holds(1407, building).
holds(1407, feature).
holds(1407, watertreatment).
holds(1407, industrial).
holds(1407, awning).
holds(1407, pipe).
holds(1407, truck).

sample(1408).
holds(1408, building).
holds(1408, feature).
holds(1408, suburban).
holds(1408, residential).
holds(1408, awning).
holds(1408, porch).
holds(1408, table).
holds(1408, tiledroof).

sample(1409).
holds(1409, building).
holds(1409, feature).
holds(1409, awning).
holds(1409, table).

sample(1410).
holds(1410, building).
holds(1410, feature).
holds(1410, miscindustrial).
holds(1410, watertreatment).
holds(1410, industrial).
holds(1410, pipe).
holds(1410, truck).

sample(1411).
holds(1411, building).
holds(1411, feature).
holds(1411, suburban).
holds(1411, miscresidential).
holds(1411, countryhouse).
holds(1411, residential).
holds(1411, porch).
holds(1411, table).
holds(1411, tiledroof).
holds(1411, car).

sample(1412).
holds(1412, building).
holds(1412, feature).
holds(1412, awning).
holds(1412, table).

sample(1413).
holds(1413, building).
holds(1413, feature).
holds(1413, miscindustrial).
holds(1413, industrial).
holds(1413, truck).

sample(1414).
holds(1414, building).
holds(1414, feature).
holds(1414, miscresidential).
holds(1414, countryhouse).
holds(1414, residential).
holds(1414, table).
holds(1414, tiledroof).
holds(1414, car).

sample(1415).
holds(1415, building).
holds(1415, feature).
holds(1415, awning).
holds(1415, table).

sample(1416).
holds(1416, building).
holds(1416, feature).
holds(1416, constructionsite).
holds(1416, awning).
holds(1416, table).
holds(1416, machine).

sample(1417).
holds(1417, building).
holds(1417, feature).
holds(1417, suburban).
holds(1417, miscresidential).
holds(1417, residential).
holds(1417, porch).
holds(1417, table).
holds(1417, tiledroof).

sample(1418).
holds(1418, building).
holds(1418, feature).
holds(1418, awning).
holds(1418, table).

sample(1419).
holds(1419, building).
holds(1419, feature).
holds(1419, powerplant).
holds(1419, industrial).
holds(1419, awning).
holds(1419, chimney).
holds(1419, pipe).

sample(1420).
holds(1420, building).
holds(1420, feature).
holds(1420, miscresidential).
holds(1420, countryhouse).
holds(1420, residential).
holds(1420, table).
holds(1420, tiledroof).
holds(1420, car).

sample(1421).
holds(1421, building).
holds(1421, feature).
holds(1421, awning).
holds(1421, table).

sample(1422).
holds(1422, building).
holds(1422, feature).
holds(1422, powerplant).
holds(1422, industrial).
holds(1422, awning).
holds(1422, chimney).
holds(1422, pipe).

sample(1423).
holds(1423, building).
holds(1423, feature).
holds(1423, miscresidential).
holds(1423, countryhouse).
holds(1423, residential).
holds(1423, table).
holds(1423, tiledroof).
holds(1423, car).

sample(1424).
holds(1424, building).
holds(1424, feature).
holds(1424, awning).
holds(1424, table).

sample(1425).
holds(1425, building).
holds(1425, feature).
holds(1425, constructionsite).
holds(1425, powerplant).
holds(1425, awning).
holds(1425, table).
holds(1425, chimney).
holds(1425, pipe).
holds(1425, machine).

sample(1426).
holds(1426, building).
holds(1426, feature).
holds(1426, suburban).
holds(1426, miscresidential).
holds(1426, residential).
holds(1426, porch).
holds(1426, table).
holds(1426, tiledroof).

sample(1427).
holds(1427, building).
holds(1427, feature).
holds(1427, awning).
holds(1427, table).

sample(1428).
holds(1428, building).
holds(1428, feature).
holds(1428, miscindustrial).
holds(1428, powerplant).
holds(1428, watertreatment).
holds(1428, industrial).
holds(1428, chimney).
holds(1428, pipe).
holds(1428, truck).

sample(1429).
holds(1429, building).
holds(1429, feature).
holds(1429, suburban).
holds(1429, miscresidential).
holds(1429, countryhouse).
holds(1429, residential).
holds(1429, porch).
holds(1429, table).
holds(1429, tiledroof).
holds(1429, car).

sample(1430).
holds(1430, building).
holds(1430, feature).
holds(1430, awning).
holds(1430, table).

sample(1431).
holds(1431, building).
holds(1431, feature).
holds(1431, powerplant).
holds(1431, industrial).
holds(1431, awning).
holds(1431, chimney).
holds(1431, pipe).

sample(1432).
holds(1432, building).
holds(1432, feature).
holds(1432, suburban).
holds(1432, miscresidential).
holds(1432, residential).
holds(1432, porch).
holds(1432, table).
holds(1432, tiledroof).

sample(1433).
holds(1433, building).
holds(1433, feature).
holds(1433, awning).
holds(1433, table).

sample(1434).
holds(1434, building).
holds(1434, feature).
holds(1434, constructionsite).
holds(1434, awning).
holds(1434, table).
holds(1434, machine).

sample(1435).
holds(1435, building).
holds(1435, feature).
holds(1435, miscresidential).
holds(1435, countryhouse).
holds(1435, residential).
holds(1435, table).
holds(1435, tiledroof).
holds(1435, car).

sample(1436).
holds(1436, building).
holds(1436, feature).
holds(1436, awning).
holds(1436, table).

sample(1437).
holds(1437, building).
holds(1437, feature).
holds(1437, miscindustrial).
holds(1437, industrial).
holds(1437, truck).

sample(1438).
holds(1438, building).
holds(1438, feature).
holds(1438, miscresidential).
holds(1438, countryhouse).
holds(1438, residential).
holds(1438, table).
holds(1438, tiledroof).
holds(1438, car).

sample(1439).
holds(1439, building).
holds(1439, feature).
holds(1439, awning).
holds(1439, table).

sample(1440).
holds(1440, building).
holds(1440, feature).
holds(1440, powerplant).
holds(1440, industrial).
holds(1440, awning).
holds(1440, chimney).
holds(1440, pipe).

sample(1441).
holds(1441, building).
holds(1441, feature).
holds(1441, suburban).
holds(1441, miscresidential).
holds(1441, countryhouse).
holds(1441, residential).
holds(1441, porch).
holds(1441, table).
holds(1441, tiledroof).
holds(1441, car).

sample(1442).
holds(1442, building).
holds(1442, feature).
holds(1442, awning).
holds(1442, table).

sample(1443).
holds(1443, building).
holds(1443, feature).
holds(1443, constructionsite).
holds(1443, powerplant).
holds(1443, awning).
holds(1443, table).
holds(1443, chimney).
holds(1443, pipe).
holds(1443, machine).

sample(1444).
holds(1444, building).
holds(1444, feature).
holds(1444, suburban).
holds(1444, residential).
holds(1444, awning).
holds(1444, porch).
holds(1444, table).
holds(1444, tiledroof).

sample(1445).
holds(1445, building).
holds(1445, feature).
holds(1445, awning).
holds(1445, table).

sample(1446).
holds(1446, building).
holds(1446, feature).
holds(1446, miscindustrial).
holds(1446, powerplant).
holds(1446, watertreatment).
holds(1446, industrial).
holds(1446, chimney).
holds(1446, pipe).
holds(1446, truck).

sample(1447).
holds(1447, building).
holds(1447, feature).
holds(1447, miscresidential).
holds(1447, countryhouse).
holds(1447, residential).
holds(1447, table).
holds(1447, tiledroof).
holds(1447, car).

sample(1448).
holds(1448, building).
holds(1448, feature).
holds(1448, awning).
holds(1448, table).

sample(1449).
holds(1449, building).
holds(1449, feature).
holds(1449, powerplant).
holds(1449, watertreatment).
holds(1449, industrial).
holds(1449, chimney).
holds(1449, pipe).
holds(1449, truck).

sample(1450).
holds(1450, building).
holds(1450, feature).
holds(1450, suburban).
holds(1450, residential).
holds(1450, awning).
holds(1450, porch).
holds(1450, table).
holds(1450, tiledroof).

sample(1451).
holds(1451, building).
holds(1451, feature).
holds(1451, awning).
holds(1451, table).

sample(1452).
holds(1452, building).
holds(1452, feature).
holds(1452, miscindustrial).
holds(1452, powerplant).
holds(1452, watertreatment).
holds(1452, industrial).
holds(1452, chimney).
holds(1452, pipe).
holds(1452, truck).

sample(1453).
holds(1453, building).
holds(1453, feature).
holds(1453, miscresidential).
holds(1453, countryhouse).
holds(1453, residential).
holds(1453, table).
holds(1453, tiledroof).
holds(1453, car).

sample(1454).
holds(1454, building).
holds(1454, feature).
holds(1454, awning).
holds(1454, table).

sample(1455).
holds(1455, building).
holds(1455, feature).
holds(1455, constructionsite).
holds(1455, awning).
holds(1455, table).
holds(1455, machine).

sample(1456).
holds(1456, building).
holds(1456, feature).
holds(1456, miscresidential).
holds(1456, countryhouse).
holds(1456, residential).
holds(1456, table).
holds(1456, tiledroof).
holds(1456, car).

sample(1457).
holds(1457, building).
holds(1457, feature).
holds(1457, awning).
holds(1457, table).

sample(1458).
holds(1458, building).
holds(1458, feature).
holds(1458, miscindustrial).
holds(1458, industrial).
holds(1458, truck).

sample(1459).
holds(1459, building).
holds(1459, feature).
holds(1459, suburban).
holds(1459, miscresidential).
holds(1459, countryhouse).
holds(1459, residential).
holds(1459, porch).
holds(1459, table).
holds(1459, tiledroof).
holds(1459, car).

sample(1460).
holds(1460, building).
holds(1460, feature).
holds(1460, awning).
holds(1460, table).

sample(1461).
holds(1461, building).
holds(1461, feature).
holds(1461, constructionsite).
holds(1461, awning).
holds(1461, table).
holds(1461, machine).

sample(1462).
holds(1462, building).
holds(1462, feature).
holds(1462, miscresidential).
holds(1462, residential).
holds(1462, table).
holds(1462, tiledroof).

sample(1463).
holds(1463, building).
holds(1463, feature).
holds(1463, awning).
holds(1463, table).

sample(1464).
holds(1464, building).
holds(1464, feature).
holds(1464, miscindustrial).
holds(1464, watertreatment).
holds(1464, industrial).
holds(1464, pipe).
holds(1464, truck).

sample(1465).
holds(1465, building).
holds(1465, feature).
holds(1465, suburban).
holds(1465, miscresidential).
holds(1465, residential).
holds(1465, porch).
holds(1465, table).
holds(1465, tiledroof).

sample(1466).
holds(1466, building).
holds(1466, feature).
holds(1466, awning).
holds(1466, table).

sample(1467).
holds(1467, building).
holds(1467, feature).
holds(1467, constructionsite).
holds(1467, powerplant).
holds(1467, awning).
holds(1467, table).
holds(1467, chimney).
holds(1467, pipe).
holds(1467, machine).

sample(1468).
holds(1468, building).
holds(1468, feature).
holds(1468, miscresidential).
holds(1468, countryhouse).
holds(1468, residential).
holds(1468, table).
holds(1468, tiledroof).
holds(1468, car).

sample(1469).
holds(1469, building).
holds(1469, feature).
holds(1469, awning).
holds(1469, table).

sample(1470).
holds(1470, building).
holds(1470, feature).
holds(1470, powerplant).
holds(1470, industrial).
holds(1470, awning).
holds(1470, chimney).
holds(1470, pipe).

sample(1471).
holds(1471, building).
holds(1471, feature).
holds(1471, suburban).
holds(1471, miscresidential).
holds(1471, countryhouse).
holds(1471, residential).
holds(1471, porch).
holds(1471, table).
holds(1471, tiledroof).
holds(1471, car).

sample(1472).
holds(1472, building).
holds(1472, feature).
holds(1472, awning).
holds(1472, table).

sample(1473).
holds(1473, building).
holds(1473, feature).
holds(1473, powerplant).
holds(1473, industrial).
holds(1473, awning).
holds(1473, chimney).
holds(1473, pipe).

sample(1474).
holds(1474, building).
holds(1474, feature).
holds(1474, suburban).
holds(1474, miscresidential).
holds(1474, countryhouse).
holds(1474, residential).
holds(1474, porch).
holds(1474, table).
holds(1474, tiledroof).
holds(1474, car).

sample(1475).
holds(1475, building).
holds(1475, feature).
holds(1475, awning).
holds(1475, table).

sample(1476).
holds(1476, building).
holds(1476, feature).
holds(1476, constructionsite).
holds(1476, powerplant).
holds(1476, awning).
holds(1476, table).
holds(1476, chimney).
holds(1476, pipe).
holds(1476, machine).

sample(1477).
holds(1477, building).
holds(1477, feature).
holds(1477, suburban).
holds(1477, miscresidential).
holds(1477, residential).
holds(1477, porch).
holds(1477, table).
holds(1477, tiledroof).

sample(1478).
holds(1478, building).
holds(1478, feature).
holds(1478, awning).
holds(1478, table).

sample(1479).
holds(1479, building).
holds(1479, feature).
holds(1479, miscindustrial).
holds(1479, powerplant).
holds(1479, watertreatment).
holds(1479, industrial).
holds(1479, chimney).
holds(1479, pipe).
holds(1479, truck).

sample(1480).
holds(1480, building).
holds(1480, feature).
holds(1480, suburban).
holds(1480, miscresidential).
holds(1480, countryhouse).
holds(1480, residential).
holds(1480, porch).
holds(1480, table).
holds(1480, tiledroof).
holds(1480, car).

sample(1481).
holds(1481, building).
holds(1481, feature).
holds(1481, awning).
holds(1481, table).

sample(1482).
holds(1482, building).
holds(1482, feature).
holds(1482, miscindustrial).
holds(1482, watertreatment).
holds(1482, industrial).
holds(1482, pipe).
holds(1482, truck).

sample(1483).
holds(1483, building).
holds(1483, feature).
holds(1483, suburban).
holds(1483, miscresidential).
holds(1483, countryhouse).
holds(1483, residential).
holds(1483, porch).
holds(1483, table).
holds(1483, tiledroof).
holds(1483, car).

sample(1484).
holds(1484, building).
holds(1484, feature).
holds(1484, awning).
holds(1484, table).

sample(1485).
holds(1485, building).
holds(1485, feature).
holds(1485, watertreatment).
holds(1485, industrial).
holds(1485, awning).
holds(1485, pipe).
holds(1485, truck).

sample(1486).
holds(1486, building).
holds(1486, feature).
holds(1486, miscresidential).
holds(1486, countryhouse).
holds(1486, residential).
holds(1486, table).
holds(1486, tiledroof).
holds(1486, car).

sample(1487).
holds(1487, building).
holds(1487, feature).
holds(1487, awning).
holds(1487, table).

sample(1488).
holds(1488, building).
holds(1488, feature).
holds(1488, powerplant).
holds(1488, watertreatment).
holds(1488, industrial).
holds(1488, awning).
holds(1488, chimney).
holds(1488, pipe).
holds(1488, truck).

sample(1489).
holds(1489, building).
holds(1489, feature).
holds(1489, miscresidential).
holds(1489, residential).
holds(1489, table).
holds(1489, tiledroof).

sample(1490).
holds(1490, building).
holds(1490, feature).
holds(1490, awning).
holds(1490, table).

sample(1491).
holds(1491, building).
holds(1491, feature).
holds(1491, miscindustrial).
holds(1491, watertreatment).
holds(1491, industrial).
holds(1491, pipe).
holds(1491, truck).

sample(1492).
holds(1492, building).
holds(1492, feature).
holds(1492, miscresidential).
holds(1492, residential).
holds(1492, table).
holds(1492, tiledroof).

sample(1493).
holds(1493, building).
holds(1493, feature).
holds(1493, awning).
holds(1493, table).

sample(1494).
holds(1494, building).
holds(1494, feature).
holds(1494, constructionsite).
holds(1494, awning).
holds(1494, table).
holds(1494, machine).

sample(1495).
holds(1495, building).
holds(1495, feature).
holds(1495, suburban).
holds(1495, miscresidential).
holds(1495, countryhouse).
holds(1495, residential).
holds(1495, porch).
holds(1495, table).
holds(1495, tiledroof).
holds(1495, car).

sample(1496).
holds(1496, building).
holds(1496, feature).
holds(1496, awning).
holds(1496, table).

sample(1497).
holds(1497, building).
holds(1497, feature).
holds(1497, powerplant).
holds(1497, industrial).
holds(1497, awning).
holds(1497, chimney).
holds(1497, pipe).

sample(1498).
holds(1498, building).
holds(1498, feature).
holds(1498, suburban).
holds(1498, miscresidential).
holds(1498, countryhouse).
holds(1498, residential).
holds(1498, porch).
holds(1498, table).
holds(1498, tiledroof).
holds(1498, car).

sample(1499).
holds(1499, building).
holds(1499, feature).
holds(1499, awning).
holds(1499, table).

sample(1500).
holds(1500, building).
holds(1500, feature).
holds(1500, powerplant).
holds(1500, industrial).
holds(1500, awning).
holds(1500, chimney).
holds(1500, pipe).

sample(1501).
holds(1501, building).
holds(1501, feature).
holds(1501, suburban).
holds(1501, miscresidential).
holds(1501, countryhouse).
holds(1501, residential).
holds(1501, porch).
holds(1501, table).
holds(1501, tiledroof).
holds(1501, car).

sample(1502).
holds(1502, building).
holds(1502, feature).
holds(1502, awning).
holds(1502, table).

sample(1503).
holds(1503, building).
holds(1503, feature).
holds(1503, constructionsite).
holds(1503, powerplant).
holds(1503, awning).
holds(1503, table).
holds(1503, chimney).
holds(1503, pipe).
holds(1503, machine).

sample(1504).
holds(1504, building).
holds(1504, feature).
holds(1504, suburban).
holds(1504, miscresidential).
holds(1504, residential).
holds(1504, porch).
holds(1504, table).
holds(1504, tiledroof).

sample(1505).
holds(1505, building).
holds(1505, feature).
holds(1505, awning).
holds(1505, table).

sample(1506).
holds(1506, building).
holds(1506, feature).
holds(1506, miscindustrial).
holds(1506, powerplant).
holds(1506, watertreatment).
holds(1506, industrial).
holds(1506, chimney).
holds(1506, pipe).
holds(1506, truck).

sample(1507).
holds(1507, building).
holds(1507, feature).
holds(1507, miscresidential).
holds(1507, countryhouse).
holds(1507, residential).
holds(1507, table).
holds(1507, tiledroof).
holds(1507, car).

sample(1508).
holds(1508, building).
holds(1508, feature).
holds(1508, awning).
holds(1508, table).

sample(1509).
holds(1509, building).
holds(1509, feature).
holds(1509, miscindustrial).
holds(1509, powerplant).
holds(1509, watertreatment).
holds(1509, industrial).
holds(1509, chimney).
holds(1509, pipe).
holds(1509, truck).

sample(1510).
holds(1510, building).
holds(1510, feature).
holds(1510, suburban).
holds(1510, miscresidential).
holds(1510, residential).
holds(1510, porch).
holds(1510, table).
holds(1510, tiledroof).

sample(1511).
holds(1511, building).
holds(1511, feature).
holds(1511, miscresidential).
holds(1511, residential).
holds(1511, table).
holds(1511, tiledroof).

sample(1512).
holds(1512, building).
holds(1512, feature).
holds(1512, miscindustrial).
holds(1512, powerplant).
holds(1512, watertreatment).
holds(1512, industrial).
holds(1512, chimney).
holds(1512, pipe).
holds(1512, truck).

sample(1513).
holds(1513, building).
holds(1513, feature).
holds(1513, suburban).
holds(1513, miscresidential).
holds(1513, countryhouse).
holds(1513, residential).
holds(1513, porch).
holds(1513, table).
holds(1513, tiledroof).
holds(1513, car).

sample(1514).
holds(1514, building).
holds(1514, feature).
holds(1514, awning).
holds(1514, table).

sample(1515).
holds(1515, building).
holds(1515, feature).
holds(1515, watertreatment).
holds(1515, industrial).
holds(1515, pipe).
holds(1515, truck).

sample(1516).
holds(1516, building).
holds(1516, feature).
holds(1516, suburban).
holds(1516, residential).
holds(1516, awning).
holds(1516, porch).
holds(1516, table).
holds(1516, tiledroof).

sample(1517).
holds(1517, building).
holds(1517, feature).
holds(1517, awning).
holds(1517, table).

sample(1518).
holds(1518, building).
holds(1518, feature).
holds(1518, miscindustrial).
holds(1518, watertreatment).
holds(1518, industrial).
holds(1518, pipe).
holds(1518, truck).

sample(1519).
holds(1519, building).
holds(1519, feature).
holds(1519, suburban).
holds(1519, residential).
holds(1519, awning).
holds(1519, porch).
holds(1519, table).
holds(1519, tiledroof).

sample(1520).
holds(1520, building).
holds(1520, feature).
holds(1520, awning).
holds(1520, table).

sample(1521).
holds(1521, building).
holds(1521, feature).
holds(1521, miscindustrial).
holds(1521, powerplant).
holds(1521, watertreatment).
holds(1521, industrial).
holds(1521, chimney).
holds(1521, pipe).
holds(1521, truck).

sample(1522).
holds(1522, building).
holds(1522, feature).
holds(1522, suburban).
holds(1522, residential).
holds(1522, awning).
holds(1522, porch).
holds(1522, table).
holds(1522, tiledroof).

sample(1523).
holds(1523, building).
holds(1523, feature).
holds(1523, awning).
holds(1523, table).

sample(1524).
holds(1524, building).
holds(1524, feature).
holds(1524, miscindustrial).
holds(1524, powerplant).
holds(1524, watertreatment).
holds(1524, industrial).
holds(1524, chimney).
holds(1524, pipe).
holds(1524, truck).

sample(1525).
holds(1525, building).
holds(1525, feature).
holds(1525, miscresidential).
holds(1525, residential).
holds(1525, table).
holds(1525, tiledroof).

sample(1526).
holds(1526, building).
holds(1526, feature).
holds(1526, awning).
holds(1526, table).

sample(1527).
holds(1527, building).
holds(1527, feature).
holds(1527, powerplant).
holds(1527, industrial).
holds(1527, awning).
holds(1527, chimney).
holds(1527, pipe).

sample(1528).
holds(1528, building).
holds(1528, feature).
holds(1528, suburban).
holds(1528, residential).
holds(1528, awning).
holds(1528, porch).
holds(1528, table).
holds(1528, tiledroof).

sample(1529).
holds(1529, building).
holds(1529, feature).
holds(1529, awning).
holds(1529, table).

sample(1530).
holds(1530, building).
holds(1530, feature).
holds(1530, miscindustrial).
holds(1530, powerplant).
holds(1530, watertreatment).
holds(1530, industrial).
holds(1530, chimney).
holds(1530, pipe).
holds(1530, truck).

sample(1531).
holds(1531, building).
holds(1531, feature).
holds(1531, suburban).
holds(1531, miscresidential).
holds(1531, countryhouse).
holds(1531, residential).
holds(1531, porch).
holds(1531, table).
holds(1531, tiledroof).
holds(1531, car).

sample(1532).
holds(1532, building).
holds(1532, feature).
holds(1532, awning).
holds(1532, table).

sample(1533).
holds(1533, building).
holds(1533, feature).
holds(1533, powerplant).
holds(1533, industrial).
holds(1533, awning).
holds(1533, chimney).
holds(1533, pipe).

sample(1534).
holds(1534, building).
holds(1534, feature).
holds(1534, suburban).
holds(1534, miscresidential).
holds(1534, countryhouse).
holds(1534, residential).
holds(1534, porch).
holds(1534, table).
holds(1534, tiledroof).
holds(1534, car).

sample(1535).
holds(1535, building).
holds(1535, feature).
holds(1535, awning).
holds(1535, table).

sample(1536).
holds(1536, building).
holds(1536, feature).
holds(1536, constructionsite).
holds(1536, powerplant).
holds(1536, awning).
holds(1536, table).
holds(1536, chimney).
holds(1536, pipe).
holds(1536, machine).

sample(1537).
holds(1537, building).
holds(1537, feature).
holds(1537, miscresidential).
holds(1537, countryhouse).
holds(1537, residential).
holds(1537, table).
holds(1537, tiledroof).
holds(1537, car).

sample(1538).
holds(1538, building).
holds(1538, feature).
holds(1538, awning).
holds(1538, table).

sample(1539).
holds(1539, building).
holds(1539, feature).
holds(1539, miscindustrial).
holds(1539, watertreatment).
holds(1539, industrial).
holds(1539, truck).

sample(1540).
holds(1540, building).
holds(1540, feature).
holds(1540, suburban).
holds(1540, residential).
holds(1540, awning).
holds(1540, porch).
holds(1540, table).
holds(1540, tiledroof).

sample(1541).
holds(1541, building).
holds(1541, feature).
holds(1541, awning).
holds(1541, table).

sample(1542).
holds(1542, building).
holds(1542, feature).
holds(1542, miscindustrial).
holds(1542, industrial).
holds(1542, truck).

sample(1543).
holds(1543, building).
holds(1543, feature).
holds(1543, suburban).
holds(1543, miscresidential).
holds(1543, countryhouse).
holds(1543, residential).
holds(1543, porch).
holds(1543, table).
holds(1543, tiledroof).
holds(1543, car).

sample(1544).
holds(1544, building).
holds(1544, feature).
holds(1544, awning).
holds(1544, table).

sample(1545).
holds(1545, building).
holds(1545, feature).
holds(1545, powerplant).
holds(1545, industrial).
holds(1545, awning).
holds(1545, chimney).
holds(1545, pipe).

sample(1546).
holds(1546, building).
holds(1546, feature).
holds(1546, suburban).
holds(1546, miscresidential).
holds(1546, residential).
holds(1546, porch).
holds(1546, table).
holds(1546, tiledroof).

sample(1547).
holds(1547, building).
holds(1547, feature).
holds(1547, awning).
holds(1547, table).

sample(1548).
holds(1548, building).
holds(1548, feature).
holds(1548, miscindustrial).
holds(1548, watertreatment).
holds(1548, industrial).
holds(1548, truck).

sample(1549).
holds(1549, building).
holds(1549, feature).
holds(1549, suburban).
holds(1549, miscresidential).
holds(1549, residential).
holds(1549, porch).
holds(1549, table).
holds(1549, tiledroof).

sample(1550).
holds(1550, building).
holds(1550, feature).
holds(1550, awning).
holds(1550, table).

sample(1551).
holds(1551, building).
holds(1551, feature).
holds(1551, constructionsite).
holds(1551, awning).
holds(1551, table).
holds(1551, machine).

sample(1552).
holds(1552, building).
holds(1552, feature).
holds(1552, suburban).
holds(1552, miscresidential).
holds(1552, countryhouse).
holds(1552, residential).
holds(1552, porch).
holds(1552, table).
holds(1552, tiledroof).
holds(1552, car).

sample(1553).
holds(1553, building).
holds(1553, feature).
holds(1553, table).

sample(1554).
holds(1554, building).
holds(1554, feature).
holds(1554, powerplant).
holds(1554, industrial).
holds(1554, awning).
holds(1554, chimney).
holds(1554, pipe).

sample(1555).
holds(1555, building).
holds(1555, feature).
holds(1555, suburban).
holds(1555, miscresidential).
holds(1555, residential).
holds(1555, porch).
holds(1555, table).
holds(1555, tiledroof).

sample(1556).
holds(1556, building).
holds(1556, feature).
holds(1556, awning).
holds(1556, table).

sample(1557).
holds(1557, building).
holds(1557, feature).
holds(1557, miscindustrial).
holds(1557, industrial).
holds(1557, truck).

sample(1558).
holds(1558, building).
holds(1558, feature).
holds(1558, suburban).
holds(1558, miscresidential).
holds(1558, residential).
holds(1558, porch).
holds(1558, table).
holds(1558, tiledroof).

sample(1559).
holds(1559, building).
holds(1559, feature).
holds(1559, awning).
holds(1559, table).

sample(1560).
holds(1560, building).
holds(1560, feature).
holds(1560, powerplant).
holds(1560, industrial).
holds(1560, awning).
holds(1560, chimney).
holds(1560, pipe).

sample(1561).
holds(1561, building).
holds(1561, feature).
holds(1561, miscresidential).
holds(1561, countryhouse).
holds(1561, residential).
holds(1561, table).
holds(1561, tiledroof).
holds(1561, car).

sample(1562).
holds(1562, building).
holds(1562, feature).
holds(1562, awning).
holds(1562, table).

sample(1563).
holds(1563, building).
holds(1563, feature).
holds(1563, powerplant).
holds(1563, industrial).
holds(1563, awning).
holds(1563, chimney).
holds(1563, pipe).

sample(1564).
holds(1564, building).
holds(1564, feature).
holds(1564, miscresidential).
holds(1564, residential).
holds(1564, table).
holds(1564, tiledroof).

sample(1565).
holds(1565, building).
holds(1565, feature).
holds(1565, awning).
holds(1565, table).

sample(1566).
holds(1566, building).
holds(1566, feature).
holds(1566, powerplant).
holds(1566, industrial).
holds(1566, awning).
holds(1566, chimney).
holds(1566, pipe).

sample(1567).
holds(1567, building).
holds(1567, feature).
holds(1567, miscresidential).
holds(1567, residential).
holds(1567, table).
holds(1567, tiledroof).

sample(1568).
holds(1568, building).
holds(1568, feature).
holds(1568, awning).
holds(1568, table).

sample(1569).
holds(1569, building).
holds(1569, feature).
holds(1569, constructionsite).
holds(1569, awning).
holds(1569, table).
holds(1569, machine).

sample(1570).
holds(1570, building).
holds(1570, feature).
holds(1570, suburban).
holds(1570, miscresidential).
holds(1570, residential).
holds(1570, porch).
holds(1570, table).
holds(1570, tiledroof).

sample(1571).
holds(1571, building).
holds(1571, feature).
holds(1571, awning).
holds(1571, table).

sample(1572).
holds(1572, building).
holds(1572, feature).
holds(1572, miscindustrial).
holds(1572, powerplant).
holds(1572, watertreatment).
holds(1572, industrial).
holds(1572, chimney).
holds(1572, pipe).
holds(1572, truck).

sample(1573).
holds(1573, building).
holds(1573, feature).
holds(1573, miscresidential).
holds(1573, residential).
holds(1573, table).
holds(1573, tiledroof).

sample(1574).
holds(1574, building).
holds(1574, feature).
holds(1574, awning).
holds(1574, table).

sample(1575).
holds(1575, building).
holds(1575, feature).
holds(1575, powerplant).
holds(1575, industrial).
holds(1575, awning).
holds(1575, chimney).
holds(1575, pipe).

sample(1576).
holds(1576, building).
holds(1576, feature).
holds(1576, suburban).
holds(1576, miscresidential).
holds(1576, countryhouse).
holds(1576, residential).
holds(1576, porch).
holds(1576, table).
holds(1576, tiledroof).
holds(1576, car).

sample(1577).
holds(1577, building).
holds(1577, feature).
holds(1577, awning).
holds(1577, table).

sample(1578).
holds(1578, building).
holds(1578, feature).
holds(1578, powerplant).
holds(1578, watertreatment).
holds(1578, industrial).
holds(1578, awning).
holds(1578, chimney).
holds(1578, pipe).
holds(1578, truck).

sample(1579).
holds(1579, building).
holds(1579, feature).
holds(1579, miscresidential).
holds(1579, residential).
holds(1579, table).
holds(1579, tiledroof).

sample(1580).
holds(1580, building).
holds(1580, feature).
holds(1580, awning).
holds(1580, table).

sample(1581).
holds(1581, building).
holds(1581, feature).
holds(1581, constructionsite).
holds(1581, awning).
holds(1581, table).
holds(1581, machine).

sample(1582).
holds(1582, building).
holds(1582, feature).
holds(1582, miscresidential).
holds(1582, residential).
holds(1582, table).
holds(1582, tiledroof).

sample(1583).
holds(1583, building).
holds(1583, feature).
holds(1583, awning).
holds(1583, table).

sample(1584).
holds(1584, building).
holds(1584, feature).
holds(1584, powerplant).
holds(1584, industrial).
holds(1584, awning).
holds(1584, chimney).
holds(1584, pipe).

sample(1585).
holds(1585, building).
holds(1585, feature).
holds(1585, miscresidential).
holds(1585, residential).
holds(1585, table).
holds(1585, tiledroof).

sample(1586).
holds(1586, building).
holds(1586, feature).
holds(1586, awning).
holds(1586, table).

sample(1587).
holds(1587, building).
holds(1587, feature).
holds(1587, constructionsite).
holds(1587, awning).
holds(1587, table).
holds(1587, machine).

sample(1588).
holds(1588, building).
holds(1588, feature).
holds(1588, suburban).
holds(1588, miscresidential).
holds(1588, countryhouse).
holds(1588, residential).
holds(1588, porch).
holds(1588, table).
holds(1588, tiledroof).
holds(1588, car).

sample(1589).
holds(1589, building).
holds(1589, feature).
holds(1589, awning).
holds(1589, table).

sample(1590).
holds(1590, building).
holds(1590, feature).
holds(1590, miscindustrial).
holds(1590, industrial).
holds(1590, truck).

sample(1591).
holds(1591, building).
holds(1591, feature).
holds(1591, suburban).
holds(1591, miscresidential).
holds(1591, countryhouse).
holds(1591, residential).
holds(1591, porch).
holds(1591, table).
holds(1591, tiledroof).
holds(1591, car).

sample(1592).
holds(1592, building).
holds(1592, feature).
holds(1592, miscindustrial).
holds(1592, industrial).
holds(1592, truck).

sample(1593).
holds(1593, building).
holds(1593, feature).
holds(1593, powerplant).
holds(1593, industrial).
holds(1593, awning).
holds(1593, chimney).
holds(1593, pipe).

sample(1594).
holds(1594, building).
holds(1594, feature).
holds(1594, suburban).
holds(1594, residential).
holds(1594, awning).
holds(1594, porch).
holds(1594, table).
holds(1594, tiledroof).

sample(1595).
holds(1595, building).
holds(1595, feature).
holds(1595, awning).
holds(1595, table).

sample(1596).
holds(1596, building).
holds(1596, feature).
holds(1596, constructionsite).
holds(1596, powerplant).
holds(1596, awning).
holds(1596, table).
holds(1596, chimney).
holds(1596, pipe).
holds(1596, machine).

sample(1597).
holds(1597, building).
holds(1597, feature).
holds(1597, miscresidential).
holds(1597, countryhouse).
holds(1597, residential).
holds(1597, table).
holds(1597, tiledroof).
holds(1597, car).

sample(1598).
holds(1598, building).
holds(1598, feature).
holds(1598, powerplant).
holds(1598, industrial).
holds(1598, awning).
holds(1598, chimney).
holds(1598, pipe).

sample(1599).
holds(1599, building).
holds(1599, feature).
holds(1599, miscindustrial).
holds(1599, watertreatment).
holds(1599, industrial).
holds(1599, pipe).
holds(1599, truck).

sample(1600).
holds(1600, building).
holds(1600, feature).
holds(1600, miscresidential).
holds(1600, residential).
holds(1600, table).
holds(1600, tiledroof).

sample(1601).
holds(1601, building).
holds(1601, feature).
holds(1601, awning).
holds(1601, table).

sample(1602).
holds(1602, building).
holds(1602, feature).
holds(1602, constructionsite).
holds(1602, awning).
holds(1602, table).
holds(1602, machine).

sample(1603).
holds(1603, building).
holds(1603, feature).
holds(1603, suburban).
holds(1603, miscresidential).
holds(1603, countryhouse).
holds(1603, residential).
holds(1603, porch).
holds(1603, table).
holds(1603, tiledroof).
holds(1603, car).

sample(1604).
holds(1604, building).
holds(1604, feature).
holds(1604, awning).
holds(1604, table).

sample(1605).
holds(1605, building).
holds(1605, feature).
holds(1605, miscindustrial).
holds(1605, powerplant).
holds(1605, watertreatment).
holds(1605, industrial).
holds(1605, chimney).
holds(1605, pipe).
holds(1605, truck).

sample(1606).
holds(1606, building).
holds(1606, feature).
holds(1606, suburban).
holds(1606, miscresidential).
holds(1606, residential).
holds(1606, porch).
holds(1606, table).
holds(1606, tiledroof).

sample(1607).
holds(1607, building).
holds(1607, feature).
holds(1607, awning).
holds(1607, table).

sample(1608).
holds(1608, building).
holds(1608, feature).
holds(1608, miscindustrial).
holds(1608, powerplant).
holds(1608, watertreatment).
holds(1608, industrial).
holds(1608, chimney).
holds(1608, pipe).
holds(1608, truck).

sample(1609).
holds(1609, building).
holds(1609, feature).
holds(1609, suburban).
holds(1609, miscresidential).
holds(1609, countryhouse).
holds(1609, residential).
holds(1609, porch).
holds(1609, table).
holds(1609, tiledroof).
holds(1609, car).

sample(1610).
holds(1610, building).
holds(1610, feature).
holds(1610, awning).
holds(1610, table).

sample(1611).
holds(1611, building).
holds(1611, feature).
holds(1611, constructionsite).
holds(1611, powerplant).
holds(1611, awning).
holds(1611, table).
holds(1611, chimney).
holds(1611, pipe).
holds(1611, machine).

sample(1612).
holds(1612, building).
holds(1612, feature).
holds(1612, miscresidential).
holds(1612, residential).
holds(1612, table).
holds(1612, tiledroof).

sample(1613).
holds(1613, building).
holds(1613, feature).
holds(1613, awning).
holds(1613, table).

sample(1614).
holds(1614, building).
holds(1614, feature).
holds(1614, miscindustrial).
holds(1614, industrial).
holds(1614, truck).

sample(1615).
holds(1615, building).
holds(1615, feature).
holds(1615, suburban).
holds(1615, miscresidential).
holds(1615, countryhouse).
holds(1615, residential).
holds(1615, porch).
holds(1615, table).
holds(1615, tiledroof).
holds(1615, car).

sample(1616).
holds(1616, building).
holds(1616, feature).
holds(1616, watertreatment).
holds(1616, awning).
holds(1616, pipe).

sample(1617).
holds(1617, building).
holds(1617, feature).
holds(1617, watertreatment).
holds(1617, industrial).
holds(1617, pipe).
holds(1617, truck).

sample(1618).
holds(1618, building).
holds(1618, feature).
holds(1618, suburban).
holds(1618, residential).
holds(1618, awning).
holds(1618, porch).
holds(1618, table).
holds(1618, tiledroof).

sample(1619).
holds(1619, building).
holds(1619, feature).
holds(1619, awning).
holds(1619, table).

sample(1620).
holds(1620, building).
holds(1620, feature).
holds(1620, miscindustrial).
holds(1620, industrial).
holds(1620, truck).

sample(1621).
holds(1621, building).
holds(1621, feature).
holds(1621, miscresidential).
holds(1621, residential).
holds(1621, table).
holds(1621, tiledroof).

sample(1622).
holds(1622, building).
holds(1622, feature).
holds(1622, awning).
holds(1622, table).

sample(1623).
holds(1623, building).
holds(1623, feature).
holds(1623, constructionsite).
holds(1623, awning).
holds(1623, table).
holds(1623, machine).

sample(1624).
holds(1624, building).
holds(1624, feature).
holds(1624, miscresidential).
holds(1624, residential).
holds(1624, table).
holds(1624, tiledroof).

sample(1625).
holds(1625, building).
holds(1625, feature).
holds(1625, awning).
holds(1625, table).

sample(1626).
holds(1626, building).
holds(1626, feature).
holds(1626, miscindustrial).
holds(1626, watertreatment).
holds(1626, industrial).
holds(1626, pipe).
holds(1626, truck).

sample(1627).
holds(1627, building).
holds(1627, feature).
holds(1627, suburban).
holds(1627, miscresidential).
holds(1627, residential).
holds(1627, porch).
holds(1627, table).
holds(1627, tiledroof).

sample(1628).
holds(1628, building).
holds(1628, feature).
holds(1628, awning).
holds(1628, table).

sample(1629).
holds(1629, building).
holds(1629, feature).
holds(1629, constructionsite).
holds(1629, awning).
holds(1629, table).
holds(1629, machine).

sample(1630).
holds(1630, building).
holds(1630, feature).
holds(1630, miscresidential).
holds(1630, countryhouse).
holds(1630, residential).
holds(1630, table).
holds(1630, tiledroof).
holds(1630, car).

sample(1631).
holds(1631, building).
holds(1631, feature).
holds(1631, awning).
holds(1631, table).

sample(1632).
holds(1632, building).
holds(1632, feature).
holds(1632, miscindustrial).
holds(1632, watertreatment).
holds(1632, industrial).
holds(1632, truck).

sample(1633).
holds(1633, building).
holds(1633, feature).
holds(1633, suburban).
holds(1633, residential).
holds(1633, awning).
holds(1633, porch).
holds(1633, table).
holds(1633, tiledroof).

sample(1634).
holds(1634, building).
holds(1634, feature).
holds(1634, awning).
holds(1634, table).

sample(1635).
holds(1635, building).
holds(1635, feature).
holds(1635, powerplant).
holds(1635, industrial).
holds(1635, awning).
holds(1635, chimney).
holds(1635, pipe).

sample(1636).
holds(1636, building).
holds(1636, feature).
holds(1636, suburban).
holds(1636, miscresidential).
holds(1636, residential).
holds(1636, porch).
holds(1636, table).
holds(1636, tiledroof).

sample(1637).
holds(1637, building).
holds(1637, feature).
holds(1637, awning).
holds(1637, table).

sample(1638).
holds(1638, building).
holds(1638, feature).
holds(1638, constructionsite).
holds(1638, awning).
holds(1638, table).
holds(1638, machine).

sample(1639).
holds(1639, building).
holds(1639, feature).
holds(1639, suburban).
holds(1639, residential).
holds(1639, awning).
holds(1639, porch).
holds(1639, table).
holds(1639, tiledroof).

sample(1640).
holds(1640, building).
holds(1640, feature).
holds(1640, awning).
holds(1640, table).

sample(1641).
holds(1641, building).
holds(1641, feature).
holds(1641, miscindustrial).
holds(1641, industrial).
holds(1641, truck).

sample(1642).
holds(1642, building).
holds(1642, feature).
holds(1642, suburban).
holds(1642, miscresidential).
holds(1642, residential).
holds(1642, porch).
holds(1642, table).
holds(1642, tiledroof).

sample(1643).
holds(1643, building).
holds(1643, feature).
holds(1643, awning).
holds(1643, table).

sample(1644).
holds(1644, building).
holds(1644, feature).
holds(1644, powerplant).
holds(1644, industrial).
holds(1644, awning).
holds(1644, chimney).
holds(1644, pipe).

sample(1645).
holds(1645, building).
holds(1645, feature).
holds(1645, miscresidential).
holds(1645, countryhouse).
holds(1645, residential).
holds(1645, table).
holds(1645, tiledroof).
holds(1645, car).

sample(1646).
holds(1646, building).
holds(1646, feature).
holds(1646, awning).
holds(1646, table).

sample(1647).
holds(1647, building).
holds(1647, feature).
holds(1647, watertreatment).
holds(1647, industrial).
holds(1647, awning).
holds(1647, pipe).
holds(1647, truck).

sample(1648).
holds(1648, building).
holds(1648, feature).
holds(1648, suburban).
holds(1648, miscresidential).
holds(1648, countryhouse).
holds(1648, residential).
holds(1648, porch).
holds(1648, table).
holds(1648, tiledroof).
holds(1648, car).

sample(1649).
holds(1649, building).
holds(1649, feature).
holds(1649, awning).
holds(1649, table).

sample(1650).
holds(1650, building).
holds(1650, feature).
holds(1650, miscindustrial).
holds(1650, industrial).
holds(1650, truck).

sample(1651).
holds(1651, building).
holds(1651, feature).
holds(1651, miscresidential).
holds(1651, residential).
holds(1651, table).
holds(1651, tiledroof).

sample(1652).
holds(1652, building).
holds(1652, feature).
holds(1652, awning).
holds(1652, table).

sample(1653).
holds(1653, building).
holds(1653, feature).
holds(1653, miscindustrial).
holds(1653, watertreatment).
holds(1653, industrial).
holds(1653, pipe).
holds(1653, truck).

sample(1654).
holds(1654, building).
holds(1654, feature).
holds(1654, suburban).
holds(1654, miscresidential).
holds(1654, residential).
holds(1654, porch).
holds(1654, table).
holds(1654, tiledroof).

sample(1655).
holds(1655, building).
holds(1655, feature).
holds(1655, awning).
holds(1655, table).

sample(1656).
holds(1656, building).
holds(1656, feature).
holds(1656, constructionsite).
holds(1656, awning).
holds(1656, table).
holds(1656, machine).

sample(1657).
holds(1657, building).
holds(1657, feature).
holds(1657, suburban).
holds(1657, miscresidential).
holds(1657, residential).
holds(1657, porch).
holds(1657, table).
holds(1657, tiledroof).

sample(1658).
holds(1658, building).
holds(1658, feature).
holds(1658, awning).
holds(1658, table).

sample(1659).
holds(1659, building).
holds(1659, feature).
holds(1659, miscindustrial).
holds(1659, watertreatment).
holds(1659, industrial).
holds(1659, pipe).
holds(1659, truck).

sample(1660).
holds(1660, building).
holds(1660, feature).
holds(1660, suburban).
holds(1660, miscresidential).
holds(1660, residential).
holds(1660, porch).
holds(1660, table).
holds(1660, tiledroof).

sample(1661).
holds(1661, building).
holds(1661, feature).
holds(1661, awning).
holds(1661, table).

sample(1662).
holds(1662, building).
holds(1662, feature).
holds(1662, miscindustrial).
holds(1662, watertreatment).
holds(1662, industrial).
holds(1662, pipe).
holds(1662, truck).

sample(1663).
holds(1663, building).
holds(1663, feature).
holds(1663, suburban).
holds(1663, miscresidential).
holds(1663, residential).
holds(1663, porch).
holds(1663, table).
holds(1663, tiledroof).

sample(1664).
holds(1664, building).
holds(1664, feature).
holds(1664, awning).
holds(1664, table).

sample(1665).
holds(1665, building).
holds(1665, feature).
holds(1665, miscindustrial).
holds(1665, industrial).
holds(1665, truck).

sample(1666).
holds(1666, building).
holds(1666, feature).
holds(1666, miscresidential).
holds(1666, countryhouse).
holds(1666, residential).
holds(1666, table).
holds(1666, tiledroof).
holds(1666, car).

sample(1667).
holds(1667, building).
holds(1667, feature).
holds(1667, awning).
holds(1667, table).

sample(1668).
holds(1668, building).
holds(1668, feature).
holds(1668, powerplant).
holds(1668, industrial).
holds(1668, awning).
holds(1668, chimney).
holds(1668, pipe).

sample(1669).
holds(1669, building).
holds(1669, feature).
holds(1669, suburban).
holds(1669, residential).
holds(1669, awning).
holds(1669, porch).
holds(1669, table).
holds(1669, tiledroof).

sample(1670).
holds(1670, building).
holds(1670, feature).
holds(1670, awning).
holds(1670, table).

sample(1671).
holds(1671, building).
holds(1671, feature).
holds(1671, miscindustrial).
holds(1671, powerplant).
holds(1671, watertreatment).
holds(1671, industrial).
holds(1671, chimney).
holds(1671, pipe).
holds(1671, truck).

sample(1672).
holds(1672, building).
holds(1672, feature).
holds(1672, suburban).
holds(1672, miscresidential).
holds(1672, residential).
holds(1672, porch).
holds(1672, table).
holds(1672, tiledroof).

sample(1673).
holds(1673, building).
holds(1673, feature).
holds(1673, awning).
holds(1673, table).

sample(1674).
holds(1674, building).
holds(1674, feature).
holds(1674, powerplant).
holds(1674, industrial).
holds(1674, awning).
holds(1674, chimney).
holds(1674, pipe).

sample(1675).
holds(1675, building).
holds(1675, feature).
holds(1675, suburban).
holds(1675, miscresidential).
holds(1675, residential).
holds(1675, porch).
holds(1675, table).
holds(1675, tiledroof).

sample(1676).
holds(1676, building).
holds(1676, feature).
holds(1676, awning).
holds(1676, table).

sample(1677).
holds(1677, building).
holds(1677, feature).
holds(1677, constructionsite).
holds(1677, awning).
holds(1677, table).
holds(1677, machine).

sample(1678).
holds(1678, building).
holds(1678, feature).
holds(1678, suburban).
holds(1678, miscresidential).
holds(1678, residential).
holds(1678, porch).
holds(1678, table).
holds(1678, tiledroof).

sample(1679).
holds(1679, building).
holds(1679, feature).
holds(1679, awning).
holds(1679, table).

sample(1680).
holds(1680, building).
holds(1680, feature).
holds(1680, miscindustrial).
holds(1680, watertreatment).
holds(1680, industrial).
holds(1680, pipe).
holds(1680, truck).

sample(1681).
holds(1681, building).
holds(1681, feature).
holds(1681, suburban).
holds(1681, residential).
holds(1681, awning).
holds(1681, porch).
holds(1681, table).
holds(1681, tiledroof).

sample(1682).
holds(1682, building).
holds(1682, feature).
holds(1682, awning).
holds(1682, table).

sample(1683).
holds(1683, building).
holds(1683, feature).
holds(1683, miscindustrial).
holds(1683, powerplant).
holds(1683, watertreatment).
holds(1683, industrial).
holds(1683, chimney).
holds(1683, pipe).
holds(1683, truck).

sample(1684).
holds(1684, building).
holds(1684, feature).
holds(1684, suburban).
holds(1684, residential).
holds(1684, awning).
holds(1684, porch).
holds(1684, table).
holds(1684, tiledroof).

sample(1685).
holds(1685, building).
holds(1685, feature).
holds(1685, awning).
holds(1685, table).

sample(1686).
holds(1686, building).
holds(1686, feature).
holds(1686, miscindustrial).
holds(1686, watertreatment).
holds(1686, industrial).
holds(1686, pipe).
holds(1686, truck).

sample(1687).
holds(1687, building).
holds(1687, feature).
holds(1687, suburban).
holds(1687, residential).
holds(1687, awning).
holds(1687, porch).
holds(1687, table).
holds(1687, tiledroof).

sample(1688).
holds(1688, building).
holds(1688, feature).
holds(1688, awning).
holds(1688, table).

sample(1689).
holds(1689, building).
holds(1689, feature).
holds(1689, miscindustrial).
holds(1689, powerplant).
holds(1689, watertreatment).
holds(1689, industrial).
holds(1689, chimney).
holds(1689, pipe).
holds(1689, truck).

sample(1690).
holds(1690, building).
holds(1690, feature).
holds(1690, suburban).
holds(1690, miscresidential).
holds(1690, countryhouse).
holds(1690, residential).
holds(1690, porch).
holds(1690, table).
holds(1690, tiledroof).
holds(1690, car).

sample(1691).
holds(1691, building).
holds(1691, feature).
holds(1691, awning).
holds(1691, table).

sample(1692).
holds(1692, building).
holds(1692, feature).
holds(1692, miscindustrial).
holds(1692, industrial).
holds(1692, truck).

sample(1693).
holds(1693, building).
holds(1693, feature).
holds(1693, suburban).
holds(1693, miscresidential).
holds(1693, countryhouse).
holds(1693, residential).
holds(1693, porch).
holds(1693, table).
holds(1693, tiledroof).
holds(1693, car).

sample(1694).
holds(1694, building).
holds(1694, feature).
holds(1694, awning).
holds(1694, table).

sample(1695).
holds(1695, building).
holds(1695, feature).
holds(1695, constructionsite).
holds(1695, powerplant).
holds(1695, awning).
holds(1695, table).
holds(1695, chimney).
holds(1695, pipe).
holds(1695, machine).

sample(1696).
holds(1696, building).
holds(1696, feature).
holds(1696, miscresidential).
holds(1696, countryhouse).
holds(1696, residential).
holds(1696, table).
holds(1696, tiledroof).
holds(1696, car).

sample(1697).
holds(1697, building).
holds(1697, feature).
holds(1697, awning).
holds(1697, table).

sample(1698).
holds(1698, building).
holds(1698, feature).
holds(1698, miscindustrial).
holds(1698, industrial).
holds(1698, truck).

sample(1699).
holds(1699, building).
holds(1699, feature).
holds(1699, suburban).
holds(1699, miscresidential).
holds(1699, countryhouse).
holds(1699, residential).
holds(1699, porch).
holds(1699, table).
holds(1699, tiledroof).
holds(1699, car).

sample(1700).
holds(1700, building).
holds(1700, feature).
holds(1700, awning).
holds(1700, table).

sample(1701).
holds(1701, building).
holds(1701, feature).
holds(1701, miscindustrial).
holds(1701, powerplant).
holds(1701, watertreatment).
holds(1701, industrial).
holds(1701, chimney).
holds(1701, pipe).
holds(1701, truck).

sample(1702).
holds(1702, building).
holds(1702, feature).
holds(1702, suburban).
holds(1702, miscresidential).
holds(1702, countryhouse).
holds(1702, residential).
holds(1702, porch).
holds(1702, table).
holds(1702, tiledroof).
holds(1702, car).

sample(1703).
holds(1703, building).
holds(1703, feature).
holds(1703, awning).
holds(1703, table).

sample(1704).
holds(1704, building).
holds(1704, feature).
holds(1704, miscindustrial).
holds(1704, powerplant).
holds(1704, watertreatment).
holds(1704, industrial).
holds(1704, chimney).
holds(1704, pipe).
holds(1704, truck).

sample(1705).
holds(1705, building).
holds(1705, feature).
holds(1705, suburban).
holds(1705, miscresidential).
holds(1705, residential).
holds(1705, porch).
holds(1705, table).
holds(1705, tiledroof).

sample(1706).
holds(1706, building).
holds(1706, feature).
holds(1706, awning).
holds(1706, table).

sample(1707).
holds(1707, building).
holds(1707, feature).
holds(1707, watertreatment).
holds(1707, industrial).
holds(1707, awning).
holds(1707, pipe).
holds(1707, truck).

sample(1708).
holds(1708, building).
holds(1708, feature).
holds(1708, suburban).
holds(1708, miscresidential).
holds(1708, countryhouse).
holds(1708, residential).
holds(1708, porch).
holds(1708, table).
holds(1708, tiledroof).
holds(1708, car).

sample(1709).
holds(1709, building).
holds(1709, feature).
holds(1709, awning).
holds(1709, table).

sample(1710).
holds(1710, building).
holds(1710, feature).
holds(1710, miscindustrial).
holds(1710, powerplant).
holds(1710, watertreatment).
holds(1710, industrial).
holds(1710, chimney).
holds(1710, pipe).
holds(1710, truck).

sample(1711).
holds(1711, building).
holds(1711, feature).
holds(1711, miscresidential).
holds(1711, residential).
holds(1711, table).
holds(1711, tiledroof).

sample(1712).
holds(1712, building).
holds(1712, feature).
holds(1712, awning).
holds(1712, table).

sample(1713).
holds(1713, building).
holds(1713, feature).
holds(1713, miscindustrial).
holds(1713, powerplant).
holds(1713, watertreatment).
holds(1713, industrial).
holds(1713, chimney).
holds(1713, pipe).
holds(1713, truck).

sample(1714).
holds(1714, building).
holds(1714, feature).
holds(1714, miscresidential).
holds(1714, residential).
holds(1714, table).
holds(1714, tiledroof).

sample(1715).
holds(1715, building).
holds(1715, feature).
holds(1715, awning).
holds(1715, table).

sample(1716).
holds(1716, building).
holds(1716, feature).
holds(1716, constructionsite).
holds(1716, powerplant).
holds(1716, awning).
holds(1716, table).
holds(1716, chimney).
holds(1716, pipe).
holds(1716, machine).

sample(1717).
holds(1717, building).
holds(1717, feature).
holds(1717, suburban).
holds(1717, residential).
holds(1717, awning).
holds(1717, porch).
holds(1717, table).
holds(1717, tiledroof).

sample(1718).
holds(1718, building).
holds(1718, feature).
holds(1718, awning).
holds(1718, table).

sample(1719).
holds(1719, building).
holds(1719, feature).
holds(1719, powerplant).
holds(1719, industrial).
holds(1719, awning).
holds(1719, chimney).
holds(1719, pipe).

sample(1720).
holds(1720, building).
holds(1720, feature).
holds(1720, suburban).
holds(1720, miscresidential).
holds(1720, residential).
holds(1720, porch).
holds(1720, table).
holds(1720, tiledroof).

sample(1721).
holds(1721, building).
holds(1721, feature).
holds(1721, awning).
holds(1721, table).

sample(1722).
holds(1722, building).
holds(1722, feature).
holds(1722, watertreatment).
holds(1722, industrial).
holds(1722, awning).
holds(1722, pipe).
holds(1722, truck).

sample(1723).
holds(1723, building).
holds(1723, feature).
holds(1723, suburban).
holds(1723, miscresidential).
holds(1723, residential).
holds(1723, porch).
holds(1723, table).
holds(1723, tiledroof).

sample(1724).
holds(1724, building).
holds(1724, feature).
holds(1724, awning).
holds(1724, table).

sample(1725).
holds(1725, building).
holds(1725, feature).
holds(1725, constructionsite).
holds(1725, awning).
holds(1725, table).
holds(1725, machine).

sample(1726).
holds(1726, building).
holds(1726, feature).
holds(1726, suburban).
holds(1726, miscresidential).
holds(1726, countryhouse).
holds(1726, residential).
holds(1726, porch).
holds(1726, table).
holds(1726, tiledroof).
holds(1726, car).

sample(1727).
holds(1727, building).
holds(1727, feature).
holds(1727, awning).
holds(1727, table).

sample(1728).
holds(1728, building).
holds(1728, feature).
holds(1728, miscindustrial).
holds(1728, watertreatment).
holds(1728, industrial).
holds(1728, pipe).
holds(1728, truck).

sample(1729).
holds(1729, building).
holds(1729, feature).
holds(1729, miscresidential).
holds(1729, countryhouse).
holds(1729, residential).
holds(1729, table).
holds(1729, tiledroof).
holds(1729, car).

sample(1730).
holds(1730, building).
holds(1730, feature).
holds(1730, awning).
holds(1730, table).

sample(1731).
holds(1731, building).
holds(1731, feature).
holds(1731, constructionsite).
holds(1731, powerplant).
holds(1731, awning).
holds(1731, table).
holds(1731, chimney).
holds(1731, pipe).
holds(1731, machine).

sample(1732).
holds(1732, building).
holds(1732, feature).
holds(1732, suburban).
holds(1732, miscresidential).
holds(1732, countryhouse).
holds(1732, residential).
holds(1732, porch).
holds(1732, table).
holds(1732, tiledroof).
holds(1732, car).

sample(1733).
holds(1733, building).
holds(1733, feature).
holds(1733, awning).
holds(1733, table).

sample(1734).
holds(1734, building).
holds(1734, feature).
holds(1734, miscindustrial).
holds(1734, watertreatment).
holds(1734, industrial).
holds(1734, pipe).
holds(1734, truck).

sample(1735).
holds(1735, building).
holds(1735, feature).
holds(1735, miscresidential).
holds(1735, countryhouse).
holds(1735, residential).
holds(1735, table).
holds(1735, tiledroof).
holds(1735, car).

sample(1736).
holds(1736, building).
holds(1736, feature).
holds(1736, awning).
holds(1736, table).

sample(1737).
holds(1737, building).
holds(1737, feature).
holds(1737, constructionsite).
holds(1737, awning).
holds(1737, table).
holds(1737, machine).

sample(1738).
holds(1738, building).
holds(1738, feature).
holds(1738, suburban).
holds(1738, miscresidential).
holds(1738, countryhouse).
holds(1738, residential).
holds(1738, porch).
holds(1738, table).
holds(1738, tiledroof).
holds(1738, car).

sample(1739).
holds(1739, building).
holds(1739, feature).
holds(1739, awning).
holds(1739, table).

sample(1740).
holds(1740, building).
holds(1740, feature).
holds(1740, constructionsite).
holds(1740, awning).
holds(1740, table).
holds(1740, machine).

sample(1741).
holds(1741, building).
holds(1741, feature).
holds(1741, suburban).
holds(1741, miscresidential).
holds(1741, residential).
holds(1741, porch).
holds(1741, table).
holds(1741, tiledroof).

sample(1742).
holds(1742, building).
holds(1742, feature).
holds(1742, awning).
holds(1742, table).

sample(1743).
holds(1743, building).
holds(1743, feature).
holds(1743, constructionsite).
holds(1743, powerplant).
holds(1743, awning).
holds(1743, table).
holds(1743, chimney).
holds(1743, pipe).
holds(1743, machine).

sample(1744).
holds(1744, building).
holds(1744, feature).
holds(1744, suburban).
holds(1744, residential).
holds(1744, awning).
holds(1744, porch).
holds(1744, table).
holds(1744, tiledroof).

sample(1745).
holds(1745, building).
holds(1745, feature).
holds(1745, awning).
holds(1745, table).

sample(1746).
holds(1746, building).
holds(1746, feature).
holds(1746, constructionsite).
holds(1746, powerplant).
holds(1746, awning).
holds(1746, table).
holds(1746, chimney).
holds(1746, pipe).
holds(1746, machine).

sample(1747).
holds(1747, building).
holds(1747, feature).
holds(1747, suburban).
holds(1747, miscresidential).
holds(1747, countryhouse).
holds(1747, residential).
holds(1747, porch).
holds(1747, table).
holds(1747, tiledroof).
holds(1747, car).

sample(1748).
holds(1748, building).
holds(1748, feature).
holds(1748, awning).
holds(1748, table).

sample(1749).
holds(1749, building).
holds(1749, feature).
holds(1749, constructionsite).
holds(1749, powerplant).
holds(1749, awning).
holds(1749, table).
holds(1749, chimney).
holds(1749, pipe).
holds(1749, machine).

sample(1750).
holds(1750, building).
holds(1750, feature).
holds(1750, miscresidential).
holds(1750, residential).
holds(1750, table).
holds(1750, tiledroof).

sample(1751).
holds(1751, building).
holds(1751, feature).
holds(1751, awning).
holds(1751, table).

sample(1752).
holds(1752, building).
holds(1752, feature).
holds(1752, powerplant).
holds(1752, watertreatment).
holds(1752, industrial).
holds(1752, awning).
holds(1752, chimney).
holds(1752, pipe).
holds(1752, truck).

sample(1753).
holds(1753, building).
holds(1753, feature).
holds(1753, suburban).
holds(1753, residential).
holds(1753, awning).
holds(1753, porch).
holds(1753, table).
holds(1753, tiledroof).

sample(1754).
holds(1754, building).
holds(1754, feature).
holds(1754, awning).
holds(1754, table).

sample(1755).
holds(1755, building).
holds(1755, feature).
holds(1755, powerplant).
holds(1755, industrial).
holds(1755, awning).
holds(1755, chimney).
holds(1755, pipe).

sample(1756).
holds(1756, building).
holds(1756, feature).
holds(1756, suburban).
holds(1756, miscresidential).
holds(1756, residential).
holds(1756, porch).
holds(1756, table).
holds(1756, tiledroof).

sample(1757).
holds(1757, building).
holds(1757, feature).
holds(1757, awning).
holds(1757, table).

sample(1758).
holds(1758, building).
holds(1758, feature).
holds(1758, powerplant).
holds(1758, industrial).
holds(1758, awning).
holds(1758, chimney).
holds(1758, pipe).

sample(1759).
holds(1759, building).
holds(1759, feature).
holds(1759, suburban).
holds(1759, miscresidential).
holds(1759, residential).
holds(1759, porch).
holds(1759, table).
holds(1759, tiledroof).

sample(1760).
holds(1760, building).
holds(1760, feature).
holds(1760, awning).
holds(1760, table).

sample(1761).
holds(1761, building).
holds(1761, feature).
holds(1761, miscindustrial).
holds(1761, powerplant).
holds(1761, watertreatment).
holds(1761, industrial).
holds(1761, chimney).
holds(1761, pipe).
holds(1761, truck).

sample(1762).
holds(1762, building).
holds(1762, feature).
holds(1762, suburban).
holds(1762, residential).
holds(1762, awning).
holds(1762, porch).
holds(1762, table).
holds(1762, tiledroof).

sample(1763).
holds(1763, building).
holds(1763, feature).
holds(1763, awning).
holds(1763, table).

sample(1764).
holds(1764, building).
holds(1764, feature).
holds(1764, constructionsite).
holds(1764, awning).
holds(1764, table).
holds(1764, machine).

sample(1765).
holds(1765, building).
holds(1765, feature).
holds(1765, miscresidential).
holds(1765, countryhouse).
holds(1765, residential).
holds(1765, table).
holds(1765, tiledroof).
holds(1765, car).

sample(1766).
holds(1766, building).
holds(1766, feature).
holds(1766, awning).
holds(1766, table).

sample(1767).
holds(1767, building).
holds(1767, feature).
holds(1767, constructionsite).
holds(1767, awning).
holds(1767, table).
holds(1767, machine).

sample(1768).
holds(1768, building).
holds(1768, feature).
holds(1768, miscresidential).
holds(1768, residential).
holds(1768, table).
holds(1768, tiledroof).

sample(1769).
holds(1769, building).
holds(1769, feature).
holds(1769, awning).
holds(1769, table).

sample(1770).
holds(1770, building).
holds(1770, feature).
holds(1770, powerplant).
holds(1770, industrial).
holds(1770, awning).
holds(1770, chimney).
holds(1770, pipe).

sample(1771).
holds(1771, building).
holds(1771, feature).
holds(1771, suburban).
holds(1771, miscresidential).
holds(1771, countryhouse).
holds(1771, residential).
holds(1771, porch).
holds(1771, table).
holds(1771, tiledroof).
holds(1771, car).

sample(1772).
holds(1772, building).
holds(1772, feature).
holds(1772, awning).
holds(1772, table).

sample(1773).
holds(1773, building).
holds(1773, feature).
holds(1773, constructionsite).
holds(1773, awning).
holds(1773, table).
holds(1773, machine).

sample(1774).
holds(1774, building).
holds(1774, feature).
holds(1774, suburban).
holds(1774, miscresidential).
holds(1774, countryhouse).
holds(1774, residential).
holds(1774, porch).
holds(1774, table).
holds(1774, tiledroof).
holds(1774, car).

sample(1775).
holds(1775, building).
holds(1775, feature).
holds(1775, awning).
holds(1775, table).

sample(1776).
holds(1776, building).
holds(1776, feature).
holds(1776, miscindustrial).
holds(1776, powerplant).
holds(1776, watertreatment).
holds(1776, industrial).
holds(1776, chimney).
holds(1776, pipe).
holds(1776, truck).

sample(1777).
holds(1777, building).
holds(1777, feature).
holds(1777, miscresidential).
holds(1777, residential).
holds(1777, table).
holds(1777, tiledroof).

sample(1778).
holds(1778, building).
holds(1778, feature).
holds(1778, awning).

sample(1779).
holds(1779, building).
holds(1779, feature).
holds(1779, watertreatment).
holds(1779, industrial).
holds(1779, awning).
holds(1779, pipe).
holds(1779, truck).

sample(1780).
holds(1780, building).
holds(1780, feature).
holds(1780, suburban).
holds(1780, miscresidential).
holds(1780, residential).
holds(1780, porch).
holds(1780, table).
holds(1780, tiledroof).

sample(1781).
holds(1781, building).
holds(1781, feature).
holds(1781, awning).
holds(1781, table).

sample(1782).
holds(1782, building).
holds(1782, feature).
holds(1782, constructionsite).
holds(1782, awning).
holds(1782, table).
holds(1782, machine).

sample(1783).
holds(1783, building).
holds(1783, feature).
holds(1783, suburban).
holds(1783, miscresidential).
holds(1783, countryhouse).
holds(1783, residential).
holds(1783, porch).
holds(1783, table).
holds(1783, tiledroof).
holds(1783, car).

sample(1784).
holds(1784, building).
holds(1784, feature).
holds(1784, awning).
holds(1784, table).

sample(1785).
holds(1785, building).
holds(1785, feature).
holds(1785, miscindustrial).
holds(1785, watertreatment).
holds(1785, industrial).
holds(1785, pipe).
holds(1785, truck).

sample(1786).
holds(1786, building).
holds(1786, feature).
holds(1786, suburban).
holds(1786, miscresidential).
holds(1786, countryhouse).
holds(1786, residential).
holds(1786, porch).
holds(1786, table).
holds(1786, tiledroof).
holds(1786, car).

sample(1787).
holds(1787, building).
holds(1787, feature).
holds(1787, awning).
holds(1787, table).

sample(1788).
holds(1788, building).
holds(1788, feature).
holds(1788, miscindustrial).
holds(1788, industrial).
holds(1788, truck).

sample(1789).
holds(1789, building).
holds(1789, feature).
holds(1789, suburban).
holds(1789, miscresidential).
holds(1789, countryhouse).
holds(1789, residential).
holds(1789, porch).
holds(1789, table).
holds(1789, tiledroof).
holds(1789, car).

sample(1790).
holds(1790, building).
holds(1790, feature).
holds(1790, awning).
holds(1790, table).

sample(1791).
holds(1791, building).
holds(1791, feature).
holds(1791, constructionsite).
holds(1791, awning).
holds(1791, table).
holds(1791, machine).

sample(1792).
holds(1792, building).
holds(1792, feature).
holds(1792, miscresidential).
holds(1792, countryhouse).
holds(1792, residential).
holds(1792, table).
holds(1792, tiledroof).
holds(1792, car).

sample(1793).
holds(1793, building).
holds(1793, feature).
holds(1793, awning).
holds(1793, table).

sample(1794).
holds(1794, building).
holds(1794, feature).
holds(1794, constructionsite).
holds(1794, powerplant).
holds(1794, awning).
holds(1794, table).
holds(1794, chimney).
holds(1794, pipe).
holds(1794, machine).

sample(1795).
holds(1795, building).
holds(1795, feature).
holds(1795, suburban).
holds(1795, residential).
holds(1795, awning).
holds(1795, porch).
holds(1795, table).
holds(1795, tiledroof).

sample(1796).
holds(1796, building).
holds(1796, feature).
holds(1796, awning).
holds(1796, table).

sample(1797).
holds(1797, building).
holds(1797, feature).
holds(1797, miscindustrial).
holds(1797, powerplant).
holds(1797, watertreatment).
holds(1797, industrial).
holds(1797, chimney).
holds(1797, pipe).
holds(1797, truck).

sample(1798).
holds(1798, building).
holds(1798, feature).
holds(1798, miscresidential).
holds(1798, residential).
holds(1798, table).
holds(1798, tiledroof).

sample(1799).
holds(1799, building).
holds(1799, feature).
holds(1799, awning).
holds(1799, table).

sample(1800).
holds(1800, building).
holds(1800, feature).
holds(1800, miscindustrial).
holds(1800, powerplant).
holds(1800, watertreatment).
holds(1800, industrial).
holds(1800, chimney).
holds(1800, pipe).
holds(1800, truck).

sample(1801).
holds(1801, building).
holds(1801, feature).
holds(1801, miscresidential).
holds(1801, countryhouse).
holds(1801, residential).
holds(1801, table).
holds(1801, tiledroof).
holds(1801, car).

sample(1802).
holds(1802, building).
holds(1802, feature).
holds(1802, awning).
holds(1802, table).

sample(1803).
holds(1803, building).
holds(1803, feature).
holds(1803, miscindustrial).
holds(1803, powerplant).
holds(1803, watertreatment).
holds(1803, industrial).
holds(1803, chimney).
holds(1803, pipe).
holds(1803, truck).

sample(1804).
holds(1804, building).
holds(1804, feature).
holds(1804, suburban).
holds(1804, miscresidential).
holds(1804, countryhouse).
holds(1804, residential).
holds(1804, porch).
holds(1804, table).
holds(1804, tiledroof).
holds(1804, car).

sample(1805).
holds(1805, building).
holds(1805, feature).
holds(1805, awning).
holds(1805, table).

sample(1806).
holds(1806, building).
holds(1806, feature).
holds(1806, miscindustrial).
holds(1806, industrial).
holds(1806, truck).

sample(1807).
holds(1807, building).
holds(1807, feature).
holds(1807, miscresidential).
holds(1807, countryhouse).
holds(1807, residential).
holds(1807, table).
holds(1807, tiledroof).
holds(1807, car).

sample(1808).
holds(1808, building).
holds(1808, feature).
holds(1808, awning).
holds(1808, table).

sample(1809).
holds(1809, building).
holds(1809, feature).
holds(1809, watertreatment).
holds(1809, industrial).
holds(1809, awning).
holds(1809, pipe).
holds(1809, truck).

sample(1810).
holds(1810, building).
holds(1810, feature).
holds(1810, suburban).
holds(1810, miscresidential).
holds(1810, countryhouse).
holds(1810, residential).
holds(1810, porch).
holds(1810, table).
holds(1810, tiledroof).
holds(1810, car).

sample(1811).
holds(1811, building).
holds(1811, feature).
holds(1811, awning).
holds(1811, table).

sample(1812).
holds(1812, building).
holds(1812, feature).
holds(1812, powerplant).
holds(1812, industrial).
holds(1812, awning).
holds(1812, chimney).
holds(1812, pipe).

sample(1813).
holds(1813, building).
holds(1813, feature).
holds(1813, miscresidential).
holds(1813, residential).
holds(1813, table).
holds(1813, tiledroof).

sample(1814).
holds(1814, building).
holds(1814, feature).
holds(1814, awning).
holds(1814, table).

sample(1815).
holds(1815, building).
holds(1815, feature).
holds(1815, miscindustrial).
holds(1815, watertreatment).
holds(1815, industrial).
holds(1815, pipe).
holds(1815, truck).

sample(1816).
holds(1816, building).
holds(1816, feature).
holds(1816, suburban).
holds(1816, miscresidential).
holds(1816, residential).
holds(1816, porch).
holds(1816, table).
holds(1816, tiledroof).

sample(1817).
holds(1817, building).
holds(1817, feature).
holds(1817, awning).
holds(1817, table).

sample(1818).
holds(1818, building).
holds(1818, feature).
holds(1818, constructionsite).
holds(1818, awning).
holds(1818, table).
holds(1818, machine).

sample(1819).
holds(1819, building).
holds(1819, feature).
holds(1819, suburban).
holds(1819, residential).
holds(1819, awning).
holds(1819, porch).
holds(1819, table).
holds(1819, tiledroof).

sample(1820).
holds(1820, building).
holds(1820, feature).
holds(1820, awning).
holds(1820, table).

sample(1821).
holds(1821, building).
holds(1821, feature).
holds(1821, miscindustrial).
holds(1821, industrial).
holds(1821, truck).

sample(1822).
holds(1822, building).
holds(1822, feature).
holds(1822, suburban).
holds(1822, residential).
holds(1822, awning).
holds(1822, porch).
holds(1822, table).
holds(1822, tiledroof).

sample(1823).
holds(1823, building).
holds(1823, feature).
holds(1823, awning).
holds(1823, table).

sample(1824).
holds(1824, building).
holds(1824, feature).
holds(1824, miscindustrial).
holds(1824, powerplant).
holds(1824, watertreatment).
holds(1824, industrial).
holds(1824, chimney).
holds(1824, pipe).
holds(1824, truck).

sample(1825).
holds(1825, building).
holds(1825, feature).
holds(1825, suburban).
holds(1825, residential).
holds(1825, awning).
holds(1825, porch).
holds(1825, table).
holds(1825, tiledroof).

sample(1826).
holds(1826, building).
holds(1826, feature).
holds(1826, awning).
holds(1826, table).

sample(1827).
holds(1827, building).
holds(1827, feature).
holds(1827, watertreatment).
holds(1827, industrial).
holds(1827, awning).
holds(1827, pipe).
holds(1827, truck).

sample(1828).
holds(1828, building).
holds(1828, feature).
holds(1828, suburban).
holds(1828, miscresidential).
holds(1828, residential).
holds(1828, porch).
holds(1828, table).
holds(1828, tiledroof).

sample(1829).
holds(1829, building).
holds(1829, feature).
holds(1829, awning).
holds(1829, table).

sample(1830).
holds(1830, building).
holds(1830, feature).
holds(1830, powerplant).
holds(1830, industrial).
holds(1830, awning).
holds(1830, chimney).
holds(1830, pipe).

sample(1831).
holds(1831, building).
holds(1831, feature).
holds(1831, suburban).
holds(1831, miscresidential).
holds(1831, residential).
holds(1831, porch).
holds(1831, table).
holds(1831, tiledroof).

sample(1832).
holds(1832, building).
holds(1832, feature).
holds(1832, awning).
holds(1832, table).

sample(1833).
holds(1833, building).
holds(1833, feature).
holds(1833, powerplant).
holds(1833, industrial).
holds(1833, awning).
holds(1833, chimney).
holds(1833, pipe).

sample(1834).
holds(1834, building).
holds(1834, feature).
holds(1834, suburban).
holds(1834, miscresidential).
holds(1834, residential).
holds(1834, porch).
holds(1834, table).
holds(1834, tiledroof).

sample(1835).
holds(1835, building).
holds(1835, feature).
holds(1835, awning).
holds(1835, table).

sample(1836).
holds(1836, building).
holds(1836, feature).
holds(1836, powerplant).
holds(1836, watertreatment).
holds(1836, industrial).
holds(1836, awning).
holds(1836, chimney).
holds(1836, pipe).
holds(1836, truck).

sample(1837).
holds(1837, building).
holds(1837, feature).
holds(1837, suburban).
holds(1837, residential).
holds(1837, awning).
holds(1837, porch).
holds(1837, table).
holds(1837, tiledroof).

sample(1838).
holds(1838, building).
holds(1838, feature).
holds(1838, awning).
holds(1838, table).

sample(1839).
holds(1839, building).
holds(1839, feature).
holds(1839, constructionsite).
holds(1839, powerplant).
holds(1839, awning).
holds(1839, table).
holds(1839, chimney).
holds(1839, pipe).
holds(1839, machine).

sample(1840).
holds(1840, building).
holds(1840, feature).
holds(1840, suburban).
holds(1840, miscresidential).
holds(1840, countryhouse).
holds(1840, residential).
holds(1840, porch).
holds(1840, table).
holds(1840, tiledroof).
holds(1840, car).

sample(1841).
holds(1841, building).
holds(1841, feature).
holds(1841, awning).
holds(1841, table).

sample(1842).
holds(1842, building).
holds(1842, feature).
holds(1842, miscindustrial).
holds(1842, watertreatment).
holds(1842, industrial).
holds(1842, pipe).
holds(1842, truck).

sample(1843).
holds(1843, building).
holds(1843, feature).
holds(1843, miscresidential).
holds(1843, countryhouse).
holds(1843, residential).
holds(1843, table).
holds(1843, tiledroof).
holds(1843, car).

sample(1844).
holds(1844, building).
holds(1844, feature).
holds(1844, awning).
holds(1844, table).

sample(1845).
holds(1845, building).
holds(1845, feature).
holds(1845, powerplant).
holds(1845, watertreatment).
holds(1845, industrial).
holds(1845, awning).
holds(1845, chimney).
holds(1845, pipe).
holds(1845, truck).

sample(1846).
holds(1846, building).
holds(1846, feature).
holds(1846, suburban).
holds(1846, miscresidential).
holds(1846, residential).
holds(1846, porch).
holds(1846, table).
holds(1846, tiledroof).

sample(1847).
holds(1847, building).
holds(1847, feature).
holds(1847, awning).
holds(1847, table).

sample(1848).
holds(1848, building).
holds(1848, feature).
holds(1848, miscindustrial).
holds(1848, watertreatment).
holds(1848, industrial).
holds(1848, pipe).
holds(1848, truck).

sample(1849).
holds(1849, building).
holds(1849, feature).
holds(1849, suburban).
holds(1849, residential).
holds(1849, awning).
holds(1849, porch).
holds(1849, table).
holds(1849, tiledroof).

sample(1850).
holds(1850, building).
holds(1850, feature).
holds(1850, awning).
holds(1850, table).

sample(1851).
holds(1851, building).
holds(1851, feature).
holds(1851, constructionsite).
holds(1851, awning).
holds(1851, table).
holds(1851, machine).

sample(1852).
holds(1852, building).
holds(1852, feature).
holds(1852, miscresidential).
holds(1852, countryhouse).
holds(1852, residential).
holds(1852, table).
holds(1852, tiledroof).
holds(1852, car).

sample(1853).
holds(1853, building).
holds(1853, feature).
holds(1853, awning).
holds(1853, table).

sample(1854).
holds(1854, building).
holds(1854, feature).
holds(1854, constructionsite).
holds(1854, awning).
holds(1854, table).
holds(1854, machine).

sample(1855).
holds(1855, building).
holds(1855, feature).
holds(1855, suburban).
holds(1855, miscresidential).
holds(1855, countryhouse).
holds(1855, residential).
holds(1855, porch).
holds(1855, table).
holds(1855, tiledroof).
holds(1855, car).

sample(1856).
holds(1856, building).
holds(1856, feature).
holds(1856, awning).
holds(1856, table).

sample(1857).
holds(1857, building).
holds(1857, feature).
holds(1857, powerplant).
holds(1857, industrial).
holds(1857, awning).
holds(1857, chimney).
holds(1857, pipe).

sample(1858).
holds(1858, building).
holds(1858, feature).
holds(1858, suburban).
holds(1858, residential).
holds(1858, awning).
holds(1858, porch).
holds(1858, table).
holds(1858, tiledroof).

sample(1859).
holds(1859, building).
holds(1859, feature).
holds(1859, awning).
holds(1859, table).

sample(1860).
holds(1860, building).
holds(1860, feature).
holds(1860, powerplant).
holds(1860, industrial).
holds(1860, awning).
holds(1860, chimney).
holds(1860, pipe).

sample(1861).
holds(1861, building).
holds(1861, feature).
holds(1861, miscresidential).
holds(1861, residential).
holds(1861, table).
holds(1861, tiledroof).

sample(1862).
holds(1862, building).
holds(1862, feature).
holds(1862, awning).
holds(1862, table).

sample(1863).
holds(1863, building).
holds(1863, feature).
holds(1863, powerplant).
holds(1863, industrial).
holds(1863, awning).
holds(1863, chimney).
holds(1863, pipe).

sample(1864).
holds(1864, building).
holds(1864, feature).
holds(1864, suburban).
holds(1864, miscresidential).
holds(1864, residential).
holds(1864, porch).
holds(1864, table).
holds(1864, tiledroof).

sample(1865).
holds(1865, building).
holds(1865, feature).
holds(1865, awning).
holds(1865, table).

sample(1866).
holds(1866, building).
holds(1866, feature).
holds(1866, constructionsite).
holds(1866, powerplant).
holds(1866, awning).
holds(1866, table).
holds(1866, chimney).
holds(1866, pipe).
holds(1866, machine).

sample(1867).
holds(1867, building).
holds(1867, feature).
holds(1867, miscresidential).
holds(1867, residential).
holds(1867, table).
holds(1867, tiledroof).

sample(1868).
holds(1868, building).
holds(1868, feature).
holds(1868, awning).
holds(1868, table).

sample(1869).
holds(1869, building).
holds(1869, feature).
holds(1869, constructionsite).
holds(1869, awning).
holds(1869, table).
holds(1869, machine).

sample(1870).
holds(1870, building).
holds(1870, feature).
holds(1870, miscresidential).
holds(1870, countryhouse).
holds(1870, residential).
holds(1870, table).
holds(1870, tiledroof).
holds(1870, car).

sample(1871).
holds(1871, building).
holds(1871, feature).
holds(1871, awning).
holds(1871, table).

sample(1872).
holds(1872, building).
holds(1872, feature).
holds(1872, miscindustrial).
holds(1872, powerplant).
holds(1872, watertreatment).
holds(1872, industrial).
holds(1872, chimney).
holds(1872, pipe).
holds(1872, truck).

sample(1873).
holds(1873, building).
holds(1873, feature).
holds(1873, miscresidential).
holds(1873, residential).
holds(1873, table).
holds(1873, tiledroof).

sample(1874).
holds(1874, building).
holds(1874, feature).
holds(1874, awning).
holds(1874, table).

sample(1875).
holds(1875, building).
holds(1875, feature).
holds(1875, powerplant).
holds(1875, watertreatment).
holds(1875, industrial).
holds(1875, awning).
holds(1875, chimney).
holds(1875, pipe).
holds(1875, truck).

sample(1876).
holds(1876, building).
holds(1876, feature).
holds(1876, suburban).
holds(1876, miscresidential).
holds(1876, residential).
holds(1876, porch).
holds(1876, table).
holds(1876, tiledroof).

sample(1877).
holds(1877, building).
holds(1877, feature).
holds(1877, awning).
holds(1877, table).

sample(1878).
holds(1878, building).
holds(1878, feature).
holds(1878, constructionsite).
holds(1878, awning).
holds(1878, table).
holds(1878, machine).

sample(1879).
holds(1879, building).
holds(1879, feature).
holds(1879, suburban).
holds(1879, miscresidential).
holds(1879, residential).
holds(1879, porch).
holds(1879, table).
holds(1879, tiledroof).

sample(1880).
holds(1880, building).
holds(1880, feature).
holds(1880, awning).
holds(1880, table).

sample(1881).
holds(1881, building).
holds(1881, feature).
holds(1881, miscindustrial).
holds(1881, powerplant).
holds(1881, watertreatment).
holds(1881, industrial).
holds(1881, chimney).
holds(1881, pipe).
holds(1881, truck).

sample(1882).
holds(1882, building).
holds(1882, feature).
holds(1882, suburban).
holds(1882, miscresidential).
holds(1882, countryhouse).
holds(1882, residential).
holds(1882, porch).
holds(1882, table).
holds(1882, tiledroof).
holds(1882, car).

sample(1883).
holds(1883, building).
holds(1883, feature).
holds(1883, awning).
holds(1883, table).

sample(1884).
holds(1884, building).
holds(1884, feature).
holds(1884, powerplant).
holds(1884, industrial).
holds(1884, awning).
holds(1884, chimney).
holds(1884, pipe).

sample(1885).
holds(1885, building).
holds(1885, feature).
holds(1885, suburban).
holds(1885, miscresidential).
holds(1885, residential).
holds(1885, porch).
holds(1885, table).
holds(1885, tiledroof).

sample(1886).
holds(1886, building).
holds(1886, feature).
holds(1886, awning).
holds(1886, table).

sample(1887).
holds(1887, building).
holds(1887, feature).
holds(1887, miscindustrial).
holds(1887, industrial).
holds(1887, truck).

sample(1888).
holds(1888, building).
holds(1888, feature).
holds(1888, miscresidential).
holds(1888, countryhouse).
holds(1888, residential).
holds(1888, table).
holds(1888, tiledroof).
holds(1888, car).

sample(1889).
holds(1889, building).
holds(1889, feature).
holds(1889, awning).
holds(1889, table).

sample(1890).
holds(1890, building).
holds(1890, feature).
holds(1890, miscindustrial).
holds(1890, powerplant).
holds(1890, watertreatment).
holds(1890, industrial).
holds(1890, chimney).
holds(1890, pipe).
holds(1890, truck).

sample(1891).
holds(1891, building).
holds(1891, feature).
holds(1891, suburban).
holds(1891, miscresidential).
holds(1891, residential).
holds(1891, porch).
holds(1891, table).
holds(1891, tiledroof).

sample(1892).
holds(1892, building).
holds(1892, feature).
holds(1892, awning).
holds(1892, table).

sample(1893).
holds(1893, building).
holds(1893, feature).
holds(1893, powerplant).
holds(1893, industrial).
holds(1893, awning).
holds(1893, chimney).
holds(1893, pipe).

sample(1894).
holds(1894, building).
holds(1894, feature).
holds(1894, miscresidential).
holds(1894, residential).
holds(1894, table).
holds(1894, tiledroof).

sample(1895).
holds(1895, building).
holds(1895, feature).
holds(1895, awning).
holds(1895, table).

sample(1896).
holds(1896, building).
holds(1896, feature).
holds(1896, powerplant).
holds(1896, industrial).
holds(1896, awning).
holds(1896, chimney).
holds(1896, pipe).

sample(1897).
holds(1897, building).
holds(1897, feature).
holds(1897, suburban).
holds(1897, residential).
holds(1897, awning).
holds(1897, porch).
holds(1897, table).
holds(1897, tiledroof).

sample(1898).
holds(1898, building).
holds(1898, feature).
holds(1898, awning).
holds(1898, table).

sample(1899).
holds(1899, building).
holds(1899, feature).
holds(1899, miscindustrial).
holds(1899, powerplant).
holds(1899, watertreatment).
holds(1899, industrial).
holds(1899, chimney).
holds(1899, pipe).
holds(1899, truck).

sample(1900).
holds(1900, building).
holds(1900, feature).
holds(1900, suburban).
holds(1900, residential).
holds(1900, awning).
holds(1900, porch).
holds(1900, table).
holds(1900, tiledroof).

sample(1901).
holds(1901, building).
holds(1901, feature).
holds(1901, awning).
holds(1901, table).

sample(1902).
holds(1902, building).
holds(1902, feature).
holds(1902, constructionsite).
holds(1902, powerplant).
holds(1902, awning).
holds(1902, table).
holds(1902, chimney).
holds(1902, pipe).
holds(1902, machine).

sample(1903).
holds(1903, building).
holds(1903, feature).
holds(1903, suburban).
holds(1903, miscresidential).
holds(1903, countryhouse).
holds(1903, residential).
holds(1903, porch).
holds(1903, table).
holds(1903, tiledroof).
holds(1903, car).

sample(1904).
holds(1904, building).
holds(1904, feature).
holds(1904, awning).
holds(1904, table).

sample(1905).
holds(1905, building).
holds(1905, feature).
holds(1905, constructionsite).
holds(1905, awning).
holds(1905, table).
holds(1905, machine).

sample(1906).
holds(1906, building).
holds(1906, feature).
holds(1906, miscresidential).
holds(1906, residential).
holds(1906, table).
holds(1906, tiledroof).

sample(1907).
holds(1907, building).
holds(1907, feature).
holds(1907, awning).
holds(1907, table).

sample(1908).
holds(1908, building).
holds(1908, feature).
holds(1908, miscindustrial).
holds(1908, industrial).
holds(1908, truck).

sample(1909).
holds(1909, building).
holds(1909, feature).
holds(1909, miscresidential).
holds(1909, countryhouse).
holds(1909, residential).
holds(1909, table).
holds(1909, tiledroof).
holds(1909, car).

sample(1910).
holds(1910, building).
holds(1910, feature).
holds(1910, awning).
holds(1910, table).

sample(1911).
holds(1911, building).
holds(1911, feature).
holds(1911, miscindustrial).
holds(1911, industrial).
holds(1911, truck).

sample(1912).
holds(1912, building).
holds(1912, feature).
holds(1912, miscresidential).
holds(1912, countryhouse).
holds(1912, residential).
holds(1912, table).
holds(1912, tiledroof).
holds(1912, car).

sample(1913).
holds(1913, building).
holds(1913, feature).
holds(1913, awning).
holds(1913, table).

sample(1914).
holds(1914, building).
holds(1914, feature).
holds(1914, powerplant).
holds(1914, watertreatment).
holds(1914, industrial).
holds(1914, awning).
holds(1914, chimney).
holds(1914, pipe).
holds(1914, truck).

sample(1915).
holds(1915, building).
holds(1915, feature).
holds(1915, suburban).
holds(1915, miscresidential).
holds(1915, residential).
holds(1915, porch).
holds(1915, table).
holds(1915, tiledroof).

sample(1916).
holds(1916, building).
holds(1916, feature).
holds(1916, awning).
holds(1916, table).

sample(1917).
holds(1917, building).
holds(1917, feature).
holds(1917, miscindustrial).
holds(1917, watertreatment).
holds(1917, industrial).
holds(1917, pipe).
holds(1917, truck).

sample(1918).
holds(1918, building).
holds(1918, feature).
holds(1918, miscresidential).
holds(1918, countryhouse).
holds(1918, residential).
holds(1918, table).
holds(1918, tiledroof).
holds(1918, car).

sample(1919).
holds(1919, building).
holds(1919, feature).
holds(1919, awning).
holds(1919, table).

sample(1920).
holds(1920, building).
holds(1920, feature).
holds(1920, miscindustrial).
holds(1920, watertreatment).
holds(1920, industrial).
holds(1920, pipe).
holds(1920, truck).

sample(1921).
holds(1921, building).
holds(1921, feature).
holds(1921, suburban).
holds(1921, residential).
holds(1921, awning).
holds(1921, porch).
holds(1921, table).
holds(1921, tiledroof).

sample(1922).
holds(1922, building).
holds(1922, feature).
holds(1922, awning).
holds(1922, table).

sample(1923).
holds(1923, building).
holds(1923, feature).
holds(1923, powerplant).
holds(1923, watertreatment).
holds(1923, industrial).
holds(1923, chimney).
holds(1923, pipe).
holds(1923, truck).

sample(1924).
holds(1924, building).
holds(1924, feature).
holds(1924, suburban).
holds(1924, miscresidential).
holds(1924, residential).
holds(1924, porch).
holds(1924, table).
holds(1924, tiledroof).

sample(1925).
holds(1925, building).
holds(1925, feature).
holds(1925, awning).
holds(1925, table).

sample(1926).
holds(1926, building).
holds(1926, feature).
holds(1926, watertreatment).
holds(1926, industrial).
holds(1926, pipe).
holds(1926, truck).

sample(1927).
holds(1927, building).
holds(1927, feature).
holds(1927, suburban).
holds(1927, miscresidential).
holds(1927, residential).
holds(1927, porch).
holds(1927, table).
holds(1927, tiledroof).

sample(1928).
holds(1928, building).
holds(1928, feature).
holds(1928, awning).
holds(1928, table).

sample(1929).
holds(1929, building).
holds(1929, feature).
holds(1929, miscindustrial).
holds(1929, powerplant).
holds(1929, watertreatment).
holds(1929, industrial).
holds(1929, chimney).
holds(1929, pipe).
holds(1929, truck).

sample(1930).
holds(1930, building).
holds(1930, feature).
holds(1930, suburban).
holds(1930, residential).
holds(1930, awning).
holds(1930, porch).
holds(1930, table).
holds(1930, tiledroof).

sample(1931).
holds(1931, building).
holds(1931, feature).
holds(1931, awning).
holds(1931, table).

sample(1932).
holds(1932, building).
holds(1932, feature).
holds(1932, powerplant).
holds(1932, industrial).
holds(1932, awning).
holds(1932, chimney).
holds(1932, pipe).

sample(1933).
holds(1933, building).
holds(1933, feature).
holds(1933, miscresidential).
holds(1933, residential).
holds(1933, table).
holds(1933, tiledroof).

sample(1934).
holds(1934, building).
holds(1934, feature).
holds(1934, awning).
holds(1934, table).

sample(1935).
holds(1935, building).
holds(1935, feature).
holds(1935, miscindustrial).
holds(1935, industrial).
holds(1935, truck).

sample(1936).
holds(1936, building).
holds(1936, feature).
holds(1936, miscresidential).
holds(1936, countryhouse).
holds(1936, residential).
holds(1936, table).
holds(1936, tiledroof).
holds(1936, car).

sample(1937).
holds(1937, building).
holds(1937, feature).
holds(1937, awning).
holds(1937, table).

sample(1938).
holds(1938, building).
holds(1938, feature).
holds(1938, miscindustrial).
holds(1938, powerplant).
holds(1938, watertreatment).
holds(1938, industrial).
holds(1938, chimney).
holds(1938, pipe).
holds(1938, truck).

sample(1939).
holds(1939, building).
holds(1939, feature).
holds(1939, miscresidential).
holds(1939, countryhouse).
holds(1939, residential).
holds(1939, table).
holds(1939, tiledroof).
holds(1939, car).

sample(1940).
holds(1940, building).
holds(1940, feature).
holds(1940, awning).
holds(1940, table).

sample(1941).
holds(1941, building).
holds(1941, feature).
holds(1941, constructionsite).
holds(1941, powerplant).
holds(1941, awning).
holds(1941, table).
holds(1941, chimney).
holds(1941, pipe).
holds(1941, machine).

sample(1942).
holds(1942, building).
holds(1942, feature).
holds(1942, suburban).
holds(1942, miscresidential).
holds(1942, residential).
holds(1942, porch).
holds(1942, table).
holds(1942, tiledroof).

sample(1943).
holds(1943, building).
holds(1943, feature).
holds(1943, awning).
holds(1943, table).

sample(1944).
holds(1944, building).
holds(1944, feature).
holds(1944, miscindustrial).
holds(1944, powerplant).
holds(1944, watertreatment).
holds(1944, industrial).
holds(1944, chimney).
holds(1944, pipe).
holds(1944, truck).

sample(1945).
holds(1945, building).
holds(1945, feature).
holds(1945, miscresidential).
holds(1945, residential).
holds(1945, table).
holds(1945, tiledroof).

sample(1946).
holds(1946, building).
holds(1946, feature).
holds(1946, awning).
holds(1946, table).

sample(1947).
holds(1947, building).
holds(1947, feature).
holds(1947, miscindustrial).
holds(1947, powerplant).
holds(1947, watertreatment).
holds(1947, industrial).
holds(1947, chimney).
holds(1947, pipe).
holds(1947, truck).

sample(1948).
holds(1948, building).
holds(1948, feature).
holds(1948, miscresidential).
holds(1948, countryhouse).
holds(1948, residential).
holds(1948, table).
holds(1948, tiledroof).
holds(1948, car).

sample(1949).
holds(1949, building).
holds(1949, feature).
holds(1949, awning).
holds(1949, table).

sample(1950).
holds(1950, building).
holds(1950, feature).
holds(1950, miscindustrial).
holds(1950, industrial).
holds(1950, truck).

sample(1951).
holds(1951, building).
holds(1951, feature).
holds(1951, suburban).
holds(1951, miscresidential).
holds(1951, residential).
holds(1951, porch).
holds(1951, table).
holds(1951, tiledroof).

sample(1952).
holds(1952, building).
holds(1952, feature).
holds(1952, awning).
holds(1952, table).

sample(1953).
holds(1953, building).
holds(1953, feature).
holds(1953, miscindustrial).
holds(1953, watertreatment).
holds(1953, industrial).
holds(1953, pipe).
holds(1953, truck).

sample(1954).
holds(1954, building).
holds(1954, feature).
holds(1954, suburban).
holds(1954, miscresidential).
holds(1954, residential).
holds(1954, porch).
holds(1954, table).
holds(1954, tiledroof).

sample(1955).
holds(1955, building).
holds(1955, feature).
holds(1955, awning).
holds(1955, table).

sample(1956).
holds(1956, building).
holds(1956, feature).
holds(1956, constructionsite).
holds(1956, awning).
holds(1956, table).
holds(1956, machine).

sample(1957).
holds(1957, building).
holds(1957, feature).
holds(1957, suburban).
holds(1957, miscresidential).
holds(1957, residential).
holds(1957, porch).
holds(1957, table).
holds(1957, tiledroof).

sample(1958).
holds(1958, building).
holds(1958, feature).
holds(1958, awning).
holds(1958, table).

sample(1959).
holds(1959, building).
holds(1959, feature).
holds(1959, miscindustrial).
holds(1959, watertreatment).
holds(1959, industrial).
holds(1959, pipe).
holds(1959, truck).

sample(1960).
holds(1960, building).
holds(1960, feature).
holds(1960, suburban).
holds(1960, miscresidential).
holds(1960, residential).
holds(1960, porch).
holds(1960, table).
holds(1960, tiledroof).

sample(1961).
holds(1961, building).
holds(1961, feature).
holds(1961, awning).
holds(1961, table).

sample(1962).
holds(1962, building).
holds(1962, feature).
holds(1962, powerplant).
holds(1962, industrial).
holds(1962, awning).
holds(1962, chimney).
holds(1962, pipe).

sample(1963).
holds(1963, building).
holds(1963, feature).
holds(1963, suburban).
holds(1963, residential).
holds(1963, awning).
holds(1963, porch).
holds(1963, table).
holds(1963, tiledroof).

sample(1964).
holds(1964, building).
holds(1964, feature).
holds(1964, awning).
holds(1964, table).

sample(1965).
holds(1965, building).
holds(1965, feature).
holds(1965, miscindustrial).
holds(1965, powerplant).
holds(1965, watertreatment).
holds(1965, industrial).
holds(1965, chimney).
holds(1965, pipe).
holds(1965, truck).

sample(1966).
holds(1966, building).
holds(1966, feature).
holds(1966, miscresidential).
holds(1966, countryhouse).
holds(1966, residential).
holds(1966, table).
holds(1966, tiledroof).
holds(1966, car).

sample(1967).
holds(1967, building).
holds(1967, feature).
holds(1967, awning).
holds(1967, table).

sample(1968).
holds(1968, building).
holds(1968, feature).
holds(1968, constructionsite).
holds(1968, awning).
holds(1968, table).
holds(1968, machine).

sample(1969).
holds(1969, building).
holds(1969, feature).
holds(1969, suburban).
holds(1969, miscresidential).
holds(1969, residential).
holds(1969, porch).
holds(1969, table).
holds(1969, tiledroof).

sample(1970).
holds(1970, building).
holds(1970, feature).
holds(1970, awning).
holds(1970, table).

sample(1971).
holds(1971, building).
holds(1971, feature).
holds(1971, constructionsite).
holds(1971, powerplant).
holds(1971, awning).
holds(1971, table).
holds(1971, chimney).
holds(1971, pipe).
holds(1971, machine).

sample(1972).
holds(1972, building).
holds(1972, feature).
holds(1972, suburban).
holds(1972, miscresidential).
holds(1972, residential).
holds(1972, porch).
holds(1972, table).
holds(1972, tiledroof).

sample(1973).
holds(1973, building).
holds(1973, feature).
holds(1973, awning).
holds(1973, table).

sample(1974).
holds(1974, building).
holds(1974, feature).
holds(1974, watertreatment).
holds(1974, industrial).
holds(1974, awning).
holds(1974, pipe).
holds(1974, truck).

sample(1975).
holds(1975, building).
holds(1975, feature).
holds(1975, suburban).
holds(1975, miscresidential).
holds(1975, countryhouse).
holds(1975, residential).
holds(1975, porch).
holds(1975, table).
holds(1975, tiledroof).
holds(1975, car).

sample(1976).
holds(1976, building).
holds(1976, feature).
holds(1976, awning).
holds(1976, table).

sample(1977).
holds(1977, building).
holds(1977, feature).
holds(1977, powerplant).
holds(1977, industrial).
holds(1977, awning).
holds(1977, chimney).
holds(1977, pipe).

sample(1978).
holds(1978, building).
holds(1978, feature).
holds(1978, suburban).
holds(1978, miscresidential).
holds(1978, residential).
holds(1978, porch).
holds(1978, table).
holds(1978, tiledroof).

sample(1979).
holds(1979, building).
holds(1979, feature).
holds(1979, awning).
holds(1979, table).

sample(1980).
holds(1980, building).
holds(1980, feature).
holds(1980, miscindustrial).
holds(1980, watertreatment).
holds(1980, industrial).
holds(1980, pipe).
holds(1980, truck).

sample(1981).
holds(1981, building).
holds(1981, feature).
holds(1981, suburban).
holds(1981, miscresidential).
holds(1981, residential).
holds(1981, porch).
holds(1981, table).
holds(1981, tiledroof).

sample(1982).
holds(1982, building).
holds(1982, feature).
holds(1982, awning).
holds(1982, table).

sample(1983).
holds(1983, building).
holds(1983, feature).
holds(1983, constructionsite).
holds(1983, awning).
holds(1983, table).
holds(1983, machine).

sample(1984).
holds(1984, building).
holds(1984, feature).
holds(1984, suburban).
holds(1984, residential).
holds(1984, awning).
holds(1984, porch).
holds(1984, table).
holds(1984, tiledroof).

sample(1985).
holds(1985, building).
holds(1985, feature).
holds(1985, awning).
holds(1985, table).

sample(1986).
holds(1986, building).
holds(1986, feature).
holds(1986, powerplant).
holds(1986, watertreatment).
holds(1986, awning).
holds(1986, chimney).
holds(1986, pipe).
holds(1986, truck).

sample(1987).
holds(1987, building).
holds(1987, feature).
holds(1987, suburban).
holds(1987, miscresidential).
holds(1987, residential).
holds(1987, porch).
holds(1987, table).
holds(1987, tiledroof).

sample(1988).
holds(1988, building).
holds(1988, feature).
holds(1988, awning).
holds(1988, table).

sample(1989).
holds(1989, building).
holds(1989, feature).
holds(1989, constructionsite).
holds(1989, awning).
holds(1989, table).
holds(1989, machine).

sample(1990).
holds(1990, building).
holds(1990, feature).
holds(1990, suburban).
holds(1990, miscresidential).
holds(1990, residential).
holds(1990, porch).
holds(1990, table).
holds(1990, tiledroof).

sample(1991).
holds(1991, building).
holds(1991, feature).
holds(1991, awning).
holds(1991, table).

sample(1992).
holds(1992, building).
holds(1992, feature).
holds(1992, miscindustrial).
holds(1992, watertreatment).
holds(1992, industrial).
holds(1992, pipe).
holds(1992, truck).

sample(1993).
holds(1993, building).
holds(1993, feature).
holds(1993, suburban).
holds(1993, miscresidential).
holds(1993, residential).
holds(1993, porch).
holds(1993, table).
holds(1993, tiledroof).

sample(1994).
holds(1994, building).
holds(1994, feature).
holds(1994, awning).
holds(1994, table).

sample(1995).
holds(1995, building).
holds(1995, feature).
holds(1995, miscindustrial).
holds(1995, industrial).
holds(1995, truck).

sample(1996).
holds(1996, building).
holds(1996, feature).
holds(1996, suburban).
holds(1996, miscresidential).
holds(1996, countryhouse).
holds(1996, residential).
holds(1996, porch).
holds(1996, table).
holds(1996, tiledroof).
holds(1996, car).

sample(1997).
holds(1997, building).
holds(1997, feature).
holds(1997, awning).
holds(1997, table).

sample(1998).
holds(1998, building).
holds(1998, feature).
holds(1998, powerplant).
holds(1998, industrial).
holds(1998, awning).
holds(1998, chimney).
holds(1998, pipe).

sample(1999).
holds(1999, building).
holds(1999, feature).
holds(1999, suburban).
holds(1999, miscresidential).
holds(1999, countryhouse).
holds(1999, residential).
holds(1999, porch).
holds(1999, table).
holds(1999, tiledroof).
holds(1999, car).

sample(2000).
holds(2000, building).
holds(2000, feature).
holds(2000, awning).
holds(2000, table).

sample(2001).
holds(2001, building).
holds(2001, feature).
holds(2001, miscindustrial).
holds(2001, watertreatment).
holds(2001, industrial).
holds(2001, pipe).
holds(2001, truck).

sample(2002).
holds(2002, building).
holds(2002, feature).
holds(2002, suburban).
holds(2002, residential).
holds(2002, awning).
holds(2002, porch).
holds(2002, table).
holds(2002, tiledroof).

sample(2003).
holds(2003, building).
holds(2003, feature).
holds(2003, awning).
holds(2003, table).

sample(2004).
holds(2004, building).
holds(2004, feature).
holds(2004, constructionsite).
holds(2004, awning).
holds(2004, table).
holds(2004, machine).

sample(2005).
holds(2005, building).
holds(2005, feature).
holds(2005, miscresidential).
holds(2005, countryhouse).
holds(2005, residential).
holds(2005, table).
holds(2005, tiledroof).
holds(2005, car).

sample(2006).
holds(2006, building).
holds(2006, feature).
holds(2006, awning).
holds(2006, table).

sample(2007).
holds(2007, building).
holds(2007, feature).
holds(2007, constructionsite).
holds(2007, awning).
holds(2007, table).
holds(2007, machine).

sample(2008).
holds(2008, building).
holds(2008, feature).
holds(2008, miscresidential).
holds(2008, countryhouse).
holds(2008, residential).
holds(2008, table).
holds(2008, tiledroof).
holds(2008, car).

sample(2009).
holds(2009, building).
holds(2009, feature).
holds(2009, awning).
holds(2009, table).

sample(2010).
holds(2010, building).
holds(2010, feature).
holds(2010, miscindustrial).
holds(2010, watertreatment).
holds(2010, industrial).
holds(2010, pipe).
holds(2010, truck).

sample(2011).
holds(2011, building).
holds(2011, feature).
holds(2011, suburban).
holds(2011, miscresidential).
holds(2011, residential).
holds(2011, porch).
holds(2011, table).
holds(2011, tiledroof).

sample(2012).
holds(2012, building).
holds(2012, feature).
holds(2012, awning).
holds(2012, table).

sample(2013).
holds(2013, building).
holds(2013, feature).
holds(2013, constructionsite).
holds(2013, awning).
holds(2013, table).
holds(2013, machine).

sample(2014).
holds(2014, building).
holds(2014, feature).
holds(2014, miscresidential).
holds(2014, residential).
holds(2014, table).
holds(2014, tiledroof).

sample(2015).
holds(2015, building).
holds(2015, feature).
holds(2015, awning).
holds(2015, table).

sample(2016).
holds(2016, building).
holds(2016, feature).
holds(2016, constructionsite).
holds(2016, powerplant).
holds(2016, awning).
holds(2016, table).
holds(2016, chimney).
holds(2016, pipe).
holds(2016, machine).

sample(2017).
holds(2017, building).
holds(2017, feature).
holds(2017, suburban).
holds(2017, miscresidential).
holds(2017, countryhouse).
holds(2017, residential).
holds(2017, porch).
holds(2017, table).
holds(2017, tiledroof).
holds(2017, car).

sample(2018).
holds(2018, building).
holds(2018, feature).
holds(2018, awning).
holds(2018, table).

sample(2019).
holds(2019, building).
holds(2019, feature).
holds(2019, miscindustrial).
holds(2019, powerplant).
holds(2019, watertreatment).
holds(2019, industrial).
holds(2019, chimney).
holds(2019, pipe).
holds(2019, truck).

sample(2020).
holds(2020, building).
holds(2020, feature).
holds(2020, suburban).
holds(2020, miscresidential).
holds(2020, countryhouse).
holds(2020, residential).
holds(2020, porch).
holds(2020, table).
holds(2020, tiledroof).
holds(2020, car).

sample(2021).
holds(2021, building).
holds(2021, feature).
holds(2021, awning).
holds(2021, table).

sample(2022).
holds(2022, building).
holds(2022, feature).
holds(2022, constructionsite).
holds(2022, awning).
holds(2022, table).
holds(2022, machine).

sample(2023).
holds(2023, building).
holds(2023, feature).
holds(2023, suburban).
holds(2023, miscresidential).
holds(2023, residential).
holds(2023, porch).
holds(2023, table).
holds(2023, tiledroof).

sample(2024).
holds(2024, building).
holds(2024, feature).
holds(2024, awning).
holds(2024, table).

sample(2025).
holds(2025, building).
holds(2025, feature).
holds(2025, miscindustrial).
holds(2025, watertreatment).
holds(2025, industrial).
holds(2025, truck).

sample(2026).
holds(2026, building).
holds(2026, feature).
holds(2026, suburban).
holds(2026, miscresidential).
holds(2026, residential).
holds(2026, porch).
holds(2026, table).
holds(2026, tiledroof).

sample(2027).
holds(2027, building).
holds(2027, feature).
holds(2027, awning).
holds(2027, table).

sample(2028).
holds(2028, building).
holds(2028, feature).
holds(2028, miscindustrial).
holds(2028, powerplant).
holds(2028, watertreatment).
holds(2028, industrial).
holds(2028, chimney).
holds(2028, pipe).
holds(2028, truck).

sample(2029).
holds(2029, building).
holds(2029, feature).
holds(2029, miscresidential).
holds(2029, countryhouse).
holds(2029, residential).
holds(2029, table).
holds(2029, tiledroof).
holds(2029, car).

sample(2030).
holds(2030, building).
holds(2030, feature).
holds(2030, awning).
holds(2030, table).

sample(2031).
holds(2031, building).
holds(2031, feature).
holds(2031, watertreatment).
holds(2031, industrial).
holds(2031, awning).
holds(2031, pipe).
holds(2031, truck).

sample(2032).
holds(2032, building).
holds(2032, feature).
holds(2032, suburban).
holds(2032, miscresidential).
holds(2032, countryhouse).
holds(2032, residential).
holds(2032, porch).
holds(2032, table).
holds(2032, tiledroof).
holds(2032, car).

sample(2033).
holds(2033, building).
holds(2033, feature).
holds(2033, awning).
holds(2033, table).

sample(2034).
holds(2034, building).
holds(2034, feature).
holds(2034, miscindustrial).
holds(2034, watertreatment).
holds(2034, industrial).
holds(2034, pipe).
holds(2034, truck).

sample(2035).
holds(2035, building).
holds(2035, feature).
holds(2035, suburban).
holds(2035, miscresidential).
holds(2035, countryhouse).
holds(2035, residential).
holds(2035, porch).
holds(2035, table).
holds(2035, tiledroof).
holds(2035, car).

sample(2036).
holds(2036, building).
holds(2036, feature).
holds(2036, awning).
holds(2036, table).

sample(2037).
holds(2037, building).
holds(2037, feature).
holds(2037, miscindustrial).
holds(2037, powerplant).
holds(2037, watertreatment).
holds(2037, industrial).
holds(2037, chimney).
holds(2037, pipe).
holds(2037, truck).

sample(2038).
holds(2038, building).
holds(2038, feature).
holds(2038, suburban).
holds(2038, miscresidential).
holds(2038, countryhouse).
holds(2038, residential).
holds(2038, porch).
holds(2038, table).
holds(2038, tiledroof).
holds(2038, car).

sample(2039).
holds(2039, building).
holds(2039, feature).
holds(2039, awning).
holds(2039, table).

sample(2040).
holds(2040, building).
holds(2040, feature).
holds(2040, powerplant).
holds(2040, industrial).
holds(2040, awning).
holds(2040, chimney).
holds(2040, pipe).

sample(2041).
holds(2041, building).
holds(2041, feature).
holds(2041, suburban).
holds(2041, miscresidential).
holds(2041, residential).
holds(2041, porch).
holds(2041, table).
holds(2041, tiledroof).

sample(2042).
holds(2042, building).
holds(2042, feature).
holds(2042, awning).
holds(2042, table).

sample(2043).
holds(2043, building).
holds(2043, feature).
holds(2043, miscindustrial).
holds(2043, powerplant).
holds(2043, watertreatment).
holds(2043, industrial).
holds(2043, chimney).
holds(2043, pipe).
holds(2043, truck).

sample(2044).
holds(2044, building).
holds(2044, feature).
holds(2044, suburban).
holds(2044, miscresidential).
holds(2044, residential).
holds(2044, porch).
holds(2044, table).
holds(2044, tiledroof).

sample(2045).
holds(2045, building).
holds(2045, feature).
holds(2045, awning).
holds(2045, table).

sample(2046).
holds(2046, building).
holds(2046, feature).
holds(2046, constructionsite).
holds(2046, awning).
holds(2046, table).
holds(2046, machine).

sample(2047).
holds(2047, building).
holds(2047, feature).
holds(2047, suburban).
holds(2047, miscresidential).
holds(2047, residential).
holds(2047, porch).
holds(2047, table).
holds(2047, tiledroof).

sample(2048).
holds(2048, building).
holds(2048, feature).
holds(2048, awning).
holds(2048, table).

sample(2049).
holds(2049, building).
holds(2049, feature).
holds(2049, constructionsite).
holds(2049, awning).
holds(2049, table).
holds(2049, machine).

sample(2050).
holds(2050, building).
holds(2050, feature).
holds(2050, suburban).
holds(2050, miscresidential).
holds(2050, countryhouse).
holds(2050, residential).
holds(2050, porch).
holds(2050, table).
holds(2050, tiledroof).
holds(2050, car).

sample(2051).
holds(2051, building).
holds(2051, feature).
holds(2051, awning).
holds(2051, table).

sample(2052).
holds(2052, building).
holds(2052, feature).
holds(2052, miscindustrial).
holds(2052, industrial).
holds(2052, truck).

sample(2053).
holds(2053, building).
holds(2053, feature).
holds(2053, miscresidential).
holds(2053, residential).
holds(2053, table).
holds(2053, tiledroof).

sample(2054).
holds(2054, building).
holds(2054, feature).
holds(2054, awning).
holds(2054, table).

sample(2055).
holds(2055, building).
holds(2055, feature).
holds(2055, miscindustrial).
holds(2055, powerplant).
holds(2055, watertreatment).
holds(2055, industrial).
holds(2055, chimney).
holds(2055, pipe).
holds(2055, truck).

sample(2056).
holds(2056, building).
holds(2056, feature).
holds(2056, suburban).
holds(2056, miscresidential).
holds(2056, residential).
holds(2056, porch).
holds(2056, table).
holds(2056, tiledroof).

sample(2057).
holds(2057, building).
holds(2057, feature).
holds(2057, awning).
holds(2057, table).

sample(2058).
holds(2058, building).
holds(2058, feature).
holds(2058, constructionsite).
holds(2058, powerplant).
holds(2058, awning).
holds(2058, table).
holds(2058, chimney).
holds(2058, pipe).
holds(2058, machine).

sample(2059).
holds(2059, building).
holds(2059, feature).
holds(2059, suburban).
holds(2059, miscresidential).
holds(2059, countryhouse).
holds(2059, residential).
holds(2059, porch).
holds(2059, table).
holds(2059, tiledroof).
holds(2059, car).

sample(2060).
holds(2060, building).
holds(2060, feature).
holds(2060, awning).
holds(2060, table).

sample(2061).
holds(2061, building).
holds(2061, feature).
holds(2061, constructionsite).
holds(2061, awning).
holds(2061, table).
holds(2061, machine).

sample(2062).
holds(2062, building).
holds(2062, feature).
holds(2062, suburban).
holds(2062, miscresidential).
holds(2062, residential).
holds(2062, porch).
holds(2062, table).
holds(2062, tiledroof).

sample(2063).
holds(2063, building).
holds(2063, feature).
holds(2063, awning).
holds(2063, table).

sample(2064).
holds(2064, building).
holds(2064, feature).
holds(2064, constructionsite).
holds(2064, awning).
holds(2064, table).
holds(2064, machine).

sample(2065).
holds(2065, building).
holds(2065, feature).
holds(2065, suburban).
holds(2065, miscresidential).
holds(2065, residential).
holds(2065, porch).
holds(2065, table).
holds(2065, tiledroof).

sample(2066).
holds(2066, building).
holds(2066, feature).
holds(2066, awning).
holds(2066, table).

sample(2067).
holds(2067, building).
holds(2067, feature).
holds(2067, powerplant).
holds(2067, watertreatment).
holds(2067, industrial).
holds(2067, awning).
holds(2067, chimney).
holds(2067, pipe).
holds(2067, truck).

sample(2068).
holds(2068, building).
holds(2068, feature).
holds(2068, suburban).
holds(2068, residential).
holds(2068, awning).
holds(2068, porch).
holds(2068, table).
holds(2068, tiledroof).

sample(2069).
holds(2069, building).
holds(2069, feature).
holds(2069, awning).
holds(2069, table).

sample(2070).
holds(2070, building).
holds(2070, feature).
holds(2070, miscindustrial).
holds(2070, industrial).
holds(2070, truck).

sample(2071).
holds(2071, building).
holds(2071, feature).
holds(2071, suburban).
holds(2071, miscresidential).
holds(2071, residential).
holds(2071, porch).
holds(2071, table).
holds(2071, tiledroof).

sample(2072).
holds(2072, building).
holds(2072, feature).
holds(2072, awning).
holds(2072, table).

sample(2073).
holds(2073, building).
holds(2073, feature).
holds(2073, miscindustrial).
holds(2073, powerplant).
holds(2073, watertreatment).
holds(2073, industrial).
holds(2073, chimney).
holds(2073, pipe).
holds(2073, truck).

sample(2074).
holds(2074, building).
holds(2074, feature).
holds(2074, miscresidential).
holds(2074, countryhouse).
holds(2074, residential).
holds(2074, table).
holds(2074, tiledroof).
holds(2074, car).

sample(2075).
holds(2075, building).
holds(2075, feature).
holds(2075, awning).
holds(2075, table).

sample(2076).
holds(2076, building).
holds(2076, feature).
holds(2076, powerplant).
holds(2076, watertreatment).
holds(2076, industrial).
holds(2076, awning).
holds(2076, chimney).
holds(2076, pipe).
holds(2076, truck).

sample(2077).
holds(2077, building).
holds(2077, feature).
holds(2077, miscresidential).
holds(2077, countryhouse).
holds(2077, residential).
holds(2077, table).
holds(2077, tiledroof).
holds(2077, car).

sample(2078).
holds(2078, building).
holds(2078, feature).
holds(2078, awning).
holds(2078, table).

sample(2079).
holds(2079, building).
holds(2079, feature).
holds(2079, miscindustrial).
holds(2079, powerplant).
holds(2079, watertreatment).
holds(2079, industrial).
holds(2079, chimney).
holds(2079, pipe).
holds(2079, truck).

sample(2080).
holds(2080, building).
holds(2080, feature).
holds(2080, suburban).
holds(2080, miscresidential).
holds(2080, residential).
holds(2080, porch).
holds(2080, table).
holds(2080, tiledroof).

sample(2081).
holds(2081, building).
holds(2081, feature).
holds(2081, awning).
holds(2081, table).

sample(2082).
holds(2082, building).
holds(2082, feature).
holds(2082, constructionsite).
holds(2082, awning).
holds(2082, table).
holds(2082, machine).

sample(2083).
holds(2083, building).
holds(2083, feature).
holds(2083, miscresidential).
holds(2083, residential).
holds(2083, table).
holds(2083, tiledroof).

sample(2084).
holds(2084, building).
holds(2084, feature).
holds(2084, awning).
holds(2084, table).

sample(2085).
holds(2085, building).
holds(2085, feature).
holds(2085, powerplant).
holds(2085, watertreatment).
holds(2085, industrial).
holds(2085, chimney).
holds(2085, pipe).
holds(2085, truck).

sample(2086).
holds(2086, building).
holds(2086, feature).
holds(2086, suburban).
holds(2086, residential).
holds(2086, awning).
holds(2086, porch).
holds(2086, table).
holds(2086, tiledroof).

sample(2087).
holds(2087, building).
holds(2087, feature).
holds(2087, awning).
holds(2087, table).

sample(2088).
holds(2088, building).
holds(2088, feature).
holds(2088, miscindustrial).
holds(2088, industrial).
holds(2088, truck).

sample(2089).
holds(2089, building).
holds(2089, feature).
holds(2089, suburban).
holds(2089, miscresidential).
holds(2089, countryhouse).
holds(2089, residential).
holds(2089, porch).
holds(2089, table).
holds(2089, tiledroof).
holds(2089, car).

sample(2090).
holds(2090, building).
holds(2090, feature).
holds(2090, awning).
holds(2090, table).

sample(2091).
holds(2091, building).
holds(2091, feature).
holds(2091, constructionsite).
holds(2091, awning).
holds(2091, table).
holds(2091, machine).

sample(2092).
holds(2092, building).
holds(2092, feature).
holds(2092, miscresidential).
holds(2092, countryhouse).
holds(2092, residential).
holds(2092, table).
holds(2092, tiledroof).
holds(2092, car).

sample(2093).
holds(2093, building).
holds(2093, feature).
holds(2093, awning).
holds(2093, table).

sample(2094).
holds(2094, building).
holds(2094, feature).
holds(2094, constructionsite).
holds(2094, awning).
holds(2094, table).
holds(2094, machine).

sample(2095).
holds(2095, building).
holds(2095, feature).
holds(2095, suburban).
holds(2095, miscresidential).
holds(2095, residential).
holds(2095, porch).
holds(2095, table).
holds(2095, tiledroof).

sample(2096).
holds(2096, building).
holds(2096, feature).
holds(2096, awning).
holds(2096, table).

sample(2097).
holds(2097, building).
holds(2097, feature).
holds(2097, miscindustrial).
holds(2097, watertreatment).
holds(2097, industrial).
holds(2097, pipe).
holds(2097, truck).

sample(2098).
holds(2098, building).
holds(2098, feature).
holds(2098, miscresidential).
holds(2098, countryhouse).
holds(2098, residential).
holds(2098, table).
holds(2098, tiledroof).
holds(2098, car).

sample(2099).
holds(2099, building).
holds(2099, feature).
holds(2099, awning).
holds(2099, table).

sample(2100).
holds(2100, building).
holds(2100, feature).
holds(2100, powerplant).
holds(2100, industrial).
holds(2100, awning).
holds(2100, chimney).
holds(2100, pipe).

sample(2101).
holds(2101, building).
holds(2101, feature).
holds(2101, suburban).
holds(2101, miscresidential).
holds(2101, residential).
holds(2101, porch).
holds(2101, table).
holds(2101, tiledroof).

sample(2102).
holds(2102, building).
holds(2102, feature).
holds(2102, awning).
holds(2102, table).

sample(2103).
holds(2103, building).
holds(2103, feature).
holds(2103, miscindustrial).
holds(2103, powerplant).
holds(2103, watertreatment).
holds(2103, industrial).
holds(2103, chimney).
holds(2103, pipe).
holds(2103, truck).

sample(2104).
holds(2104, building).
holds(2104, feature).
holds(2104, suburban).
holds(2104, miscresidential).
holds(2104, residential).
holds(2104, porch).
holds(2104, table).
holds(2104, tiledroof).

sample(2105).
holds(2105, building).
holds(2105, feature).
holds(2105, awning).
holds(2105, table).

sample(2106).
holds(2106, building).
holds(2106, feature).
holds(2106, miscindustrial).
holds(2106, industrial).
holds(2106, truck).

sample(2107).
holds(2107, building).
holds(2107, feature).
holds(2107, suburban).
holds(2107, residential).
holds(2107, awning).
holds(2107, porch).
holds(2107, table).
holds(2107, tiledroof).

sample(2108).
holds(2108, building).
holds(2108, feature).
holds(2108, awning).
holds(2108, table).

sample(2109).
holds(2109, building).
holds(2109, feature).
holds(2109, miscindustrial).
holds(2109, powerplant).
holds(2109, watertreatment).
holds(2109, industrial).
holds(2109, chimney).
holds(2109, pipe).
holds(2109, truck).

sample(2110).
holds(2110, building).
holds(2110, feature).
holds(2110, suburban).
holds(2110, miscresidential).
holds(2110, residential).
holds(2110, porch).
holds(2110, table).
holds(2110, tiledroof).

sample(2111).
holds(2111, building).
holds(2111, feature).
holds(2111, awning).
holds(2111, table).

sample(2112).
holds(2112, building).
holds(2112, feature).
holds(2112, miscindustrial).
holds(2112, powerplant).
holds(2112, watertreatment).
holds(2112, industrial).
holds(2112, chimney).
holds(2112, pipe).
holds(2112, truck).

sample(2113).
holds(2113, building).
holds(2113, feature).
holds(2113, suburban).
holds(2113, residential).
holds(2113, awning).
holds(2113, porch).
holds(2113, table).
holds(2113, tiledroof).

sample(2114).
holds(2114, building).
holds(2114, feature).
holds(2114, awning).
holds(2114, table).

sample(2115).
holds(2115, building).
holds(2115, feature).
holds(2115, constructionsite).
holds(2115, awning).
holds(2115, table).
holds(2115, machine).

sample(2116).
holds(2116, building).
holds(2116, feature).
holds(2116, suburban).
holds(2116, miscresidential).
holds(2116, residential).
holds(2116, porch).
holds(2116, table).
holds(2116, tiledroof).

sample(2117).
holds(2117, building).
holds(2117, feature).
holds(2117, awning).
holds(2117, table).

sample(2118).
holds(2118, building).
holds(2118, feature).
holds(2118, constructionsite).
holds(2118, awning).
holds(2118, table).
holds(2118, machine).

sample(2119).
holds(2119, building).
holds(2119, feature).
holds(2119, suburban).
holds(2119, residential).
holds(2119, awning).
holds(2119, porch).
holds(2119, table).
holds(2119, tiledroof).

sample(2120).
holds(2120, building).
holds(2120, feature).
holds(2120, awning).
holds(2120, table).

sample(2121).
holds(2121, building).
holds(2121, feature).
holds(2121, miscindustrial).
holds(2121, powerplant).
holds(2121, watertreatment).
holds(2121, industrial).
holds(2121, chimney).
holds(2121, pipe).
holds(2121, truck).

sample(2122).
holds(2122, building).
holds(2122, feature).
holds(2122, miscresidential).
holds(2122, countryhouse).
holds(2122, residential).
holds(2122, table).
holds(2122, tiledroof).
holds(2122, car).

sample(2123).
holds(2123, building).
holds(2123, feature).
holds(2123, awning).
holds(2123, table).

sample(2124).
holds(2124, building).
holds(2124, feature).
holds(2124, miscindustrial).
holds(2124, watertreatment).
holds(2124, industrial).
holds(2124, pipe).
holds(2124, truck).

sample(2125).
holds(2125, building).
holds(2125, feature).
holds(2125, miscresidential).
holds(2125, countryhouse).
holds(2125, residential).
holds(2125, table).
holds(2125, tiledroof).
holds(2125, car).

sample(2126).
holds(2126, building).
holds(2126, feature).
holds(2126, awning).
holds(2126, table).

sample(2127).
holds(2127, building).
holds(2127, feature).
holds(2127, constructionsite).
holds(2127, powerplant).
holds(2127, awning).
holds(2127, table).
holds(2127, chimney).
holds(2127, pipe).
holds(2127, machine).

sample(2128).
holds(2128, building).
holds(2128, feature).
holds(2128, suburban).
holds(2128, miscresidential).
holds(2128, countryhouse).
holds(2128, residential).
holds(2128, porch).
holds(2128, table).
holds(2128, tiledroof).
holds(2128, car).

sample(2129).
holds(2129, building).
holds(2129, feature).
holds(2129, awning).
holds(2129, table).

sample(2130).
holds(2130, building).
holds(2130, feature).
holds(2130, miscindustrial).
holds(2130, industrial).
holds(2130, truck).

sample(2131).
holds(2131, building).
holds(2131, feature).
holds(2131, suburban).
holds(2131, miscresidential).
holds(2131, residential).
holds(2131, porch).
holds(2131, table).
holds(2131, tiledroof).

sample(2132).
holds(2132, building).
holds(2132, feature).
holds(2132, awning).
holds(2132, table).

sample(2133).
holds(2133, building).
holds(2133, feature).
holds(2133, miscindustrial).
holds(2133, powerplant).
holds(2133, watertreatment).
holds(2133, industrial).
holds(2133, chimney).
holds(2133, pipe).
holds(2133, truck).

sample(2134).
holds(2134, building).
holds(2134, feature).
holds(2134, suburban).
holds(2134, miscresidential).
holds(2134, residential).
holds(2134, porch).
holds(2134, table).
holds(2134, tiledroof).

sample(2135).
holds(2135, building).
holds(2135, feature).
holds(2135, awning).
holds(2135, table).

sample(2136).
holds(2136, building).
holds(2136, feature).
holds(2136, miscindustrial).
holds(2136, industrial).
holds(2136, truck).

sample(2137).
holds(2137, building).
holds(2137, feature).
holds(2137, suburban).
holds(2137, miscresidential).
holds(2137, countryhouse).
holds(2137, residential).
holds(2137, porch).
holds(2137, table).
holds(2137, tiledroof).
holds(2137, car).

sample(2138).
holds(2138, building).
holds(2138, feature).
holds(2138, awning).
holds(2138, table).

sample(2139).
holds(2139, building).
holds(2139, feature).
holds(2139, powerplant).
holds(2139, industrial).
holds(2139, awning).
holds(2139, chimney).
holds(2139, pipe).

sample(2140).
holds(2140, building).
holds(2140, feature).
holds(2140, suburban).
holds(2140, residential).
holds(2140, awning).
holds(2140, porch).
holds(2140, table).
holds(2140, tiledroof).

sample(2141).
holds(2141, building).
holds(2141, feature).
holds(2141, awning).
holds(2141, table).

sample(2142).
holds(2142, building).
holds(2142, feature).
holds(2142, constructionsite).
holds(2142, powerplant).
holds(2142, awning).
holds(2142, table).
holds(2142, chimney).
holds(2142, pipe).
holds(2142, machine).

sample(2143).
holds(2143, building).
holds(2143, feature).
holds(2143, suburban).
holds(2143, miscresidential).
holds(2143, countryhouse).
holds(2143, residential).
holds(2143, porch).
holds(2143, table).
holds(2143, tiledroof).
holds(2143, car).

sample(2144).
holds(2144, building).
holds(2144, feature).
holds(2144, awning).
holds(2144, table).

sample(2145).
holds(2145, building).
holds(2145, feature).
holds(2145, miscindustrial).
holds(2145, industrial).
holds(2145, truck).

sample(2146).
holds(2146, building).
holds(2146, feature).
holds(2146, suburban).
holds(2146, miscresidential).
holds(2146, countryhouse).
holds(2146, residential).
holds(2146, porch).
holds(2146, table).
holds(2146, tiledroof).
holds(2146, car).

sample(2147).
holds(2147, building).
holds(2147, feature).
holds(2147, awning).
holds(2147, table).

sample(2148).
holds(2148, building).
holds(2148, feature).
holds(2148, miscindustrial).
holds(2148, industrial).
holds(2148, truck).

sample(2149).
holds(2149, building).
holds(2149, feature).
holds(2149, miscresidential).
holds(2149, residential).
holds(2149, table).
holds(2149, tiledroof).

sample(2150).
holds(2150, building).
holds(2150, feature).
holds(2150, awning).
holds(2150, table).

sample(2151).
holds(2151, building).
holds(2151, feature).
holds(2151, watertreatment).
holds(2151, industrial).
holds(2151, pipe).
holds(2151, truck).

sample(2152).
holds(2152, building).
holds(2152, feature).
holds(2152, suburban).
holds(2152, miscresidential).
holds(2152, countryhouse).
holds(2152, residential).
holds(2152, porch).
holds(2152, table).
holds(2152, tiledroof).
holds(2152, car).

sample(2153).
holds(2153, building).
holds(2153, feature).
holds(2153, awning).
holds(2153, table).

sample(2154).
holds(2154, building).
holds(2154, feature).
holds(2154, miscindustrial).
holds(2154, industrial).
holds(2154, truck).

sample(2155).
holds(2155, building).
holds(2155, feature).
holds(2155, miscresidential).
holds(2155, countryhouse).
holds(2155, residential).
holds(2155, table).
holds(2155, tiledroof).
holds(2155, car).

sample(2156).
holds(2156, building).
holds(2156, feature).
holds(2156, awning).
holds(2156, table).

sample(2157).
holds(2157, building).
holds(2157, feature).
holds(2157, miscindustrial).
holds(2157, watertreatment).
holds(2157, industrial).
holds(2157, pipe).
holds(2157, truck).

sample(2158).
holds(2158, building).
holds(2158, feature).
holds(2158, miscresidential).
holds(2158, countryhouse).
holds(2158, residential).
holds(2158, table).
holds(2158, tiledroof).
holds(2158, car).

sample(2159).
holds(2159, building).
holds(2159, feature).
holds(2159, awning).
holds(2159, table).

sample(2160).
holds(2160, building).
holds(2160, feature).
holds(2160, constructionsite).
holds(2160, awning).
holds(2160, table).
holds(2160, machine).

sample(2161).
holds(2161, building).
holds(2161, feature).
holds(2161, suburban).
holds(2161, miscresidential).
holds(2161, countryhouse).
holds(2161, residential).
holds(2161, porch).
holds(2161, table).
holds(2161, tiledroof).
holds(2161, car).

sample(2162).
holds(2162, building).
holds(2162, feature).
holds(2162, awning).
holds(2162, table).

sample(2163).
holds(2163, building).
holds(2163, feature).
holds(2163, miscindustrial).
holds(2163, powerplant).
holds(2163, watertreatment).
holds(2163, industrial).
holds(2163, chimney).
holds(2163, pipe).
holds(2163, truck).

sample(2164).
holds(2164, building).
holds(2164, feature).
holds(2164, suburban).
holds(2164, miscresidential).
holds(2164, residential).
holds(2164, porch).
holds(2164, table).
holds(2164, tiledroof).

sample(2165).
holds(2165, building).
holds(2165, feature).
holds(2165, awning).
holds(2165, table).

sample(2166).
holds(2166, building).
holds(2166, feature).
holds(2166, powerplant).
holds(2166, watertreatment).
holds(2166, industrial).
holds(2166, awning).
holds(2166, chimney).
holds(2166, pipe).
holds(2166, truck).

sample(2167).
holds(2167, building).
holds(2167, feature).
holds(2167, suburban).
holds(2167, miscresidential).
holds(2167, residential).
holds(2167, porch).
holds(2167, table).
holds(2167, tiledroof).

sample(2168).
holds(2168, building).
holds(2168, feature).
holds(2168, awning).
holds(2168, table).

sample(2169).
holds(2169, building).
holds(2169, feature).
holds(2169, miscindustrial).
holds(2169, industrial).
holds(2169, truck).

sample(2170).
holds(2170, building).
holds(2170, feature).
holds(2170, miscresidential).
holds(2170, countryhouse).
holds(2170, residential).
holds(2170, table).
holds(2170, tiledroof).
holds(2170, car).

sample(2171).
holds(2171, building).
holds(2171, feature).
holds(2171, awning).
holds(2171, table).

sample(2172).
holds(2172, building).
holds(2172, feature).
holds(2172, powerplant).
holds(2172, industrial).
holds(2172, awning).
holds(2172, chimney).
holds(2172, pipe).

sample(2173).
holds(2173, building).
holds(2173, feature).
holds(2173, suburban).
holds(2173, miscresidential).
holds(2173, countryhouse).
holds(2173, residential).
holds(2173, porch).
holds(2173, table).
holds(2173, tiledroof).
holds(2173, car).

sample(2174).
holds(2174, building).
holds(2174, feature).
holds(2174, awning).
holds(2174, table).

sample(2175).
holds(2175, building).
holds(2175, feature).
holds(2175, miscindustrial).
holds(2175, watertreatment).
holds(2175, industrial).
holds(2175, truck).

sample(2176).
holds(2176, building).
holds(2176, feature).
holds(2176, miscresidential).
holds(2176, countryhouse).
holds(2176, residential).
holds(2176, table).
holds(2176, tiledroof).
holds(2176, car).

sample(2177).
holds(2177, building).
holds(2177, feature).
holds(2177, awning).
holds(2177, table).

sample(2178).
holds(2178, building).
holds(2178, feature).
holds(2178, miscindustrial).
holds(2178, watertreatment).
holds(2178, industrial).
holds(2178, pipe).
holds(2178, truck).

sample(2179).
holds(2179, building).
holds(2179, feature).
holds(2179, suburban).
holds(2179, miscresidential).
holds(2179, countryhouse).
holds(2179, residential).
holds(2179, porch).
holds(2179, table).
holds(2179, tiledroof).
holds(2179, car).

sample(2180).
holds(2180, building).
holds(2180, feature).
holds(2180, awning).
holds(2180, table).

sample(2181).
holds(2181, building).
holds(2181, feature).
holds(2181, miscindustrial).
holds(2181, watertreatment).
holds(2181, industrial).
holds(2181, pipe).
holds(2181, truck).

sample(2182).
holds(2182, building).
holds(2182, feature).
holds(2182, suburban).
holds(2182, miscresidential).
holds(2182, countryhouse).
holds(2182, residential).
holds(2182, porch).
holds(2182, table).
holds(2182, tiledroof).
holds(2182, car).

sample(2183).
holds(2183, building).
holds(2183, feature).
holds(2183, awning).
holds(2183, table).

sample(2184).
holds(2184, building).
holds(2184, feature).
holds(2184, constructionsite).
holds(2184, awning).
holds(2184, table).
holds(2184, machine).

sample(2185).
holds(2185, building).
holds(2185, feature).
holds(2185, miscresidential).
holds(2185, countryhouse).
holds(2185, residential).
holds(2185, table).
holds(2185, tiledroof).
holds(2185, car).

sample(2186).
holds(2186, building).
holds(2186, feature).
holds(2186, awning).
holds(2186, table).

sample(2187).
holds(2187, building).
holds(2187, feature).
holds(2187, powerplant).
holds(2187, watertreatment).
holds(2187, industrial).
holds(2187, chimney).
holds(2187, pipe).
holds(2187, truck).

sample(2188).
holds(2188, building).
holds(2188, feature).
holds(2188, miscresidential).
holds(2188, countryhouse).
holds(2188, residential).
holds(2188, table).
holds(2188, tiledroof).
holds(2188, car).

sample(2189).
holds(2189, building).
holds(2189, feature).
holds(2189, awning).
holds(2189, table).

sample(2190).
holds(2190, building).
holds(2190, feature).
holds(2190, miscindustrial).
holds(2190, watertreatment).
holds(2190, industrial).
holds(2190, pipe).
holds(2190, truck).

sample(2191).
holds(2191, building).
holds(2191, feature).
holds(2191, suburban).
holds(2191, miscresidential).
holds(2191, residential).
holds(2191, porch).
holds(2191, table).
holds(2191, tiledroof).

sample(2192).
holds(2192, building).
holds(2192, feature).
holds(2192, awning).
holds(2192, table).

sample(2193).
holds(2193, building).
holds(2193, feature).
holds(2193, watertreatment).
holds(2193, industrial).
holds(2193, pipe).
holds(2193, truck).

sample(2194).
holds(2194, building).
holds(2194, feature).
holds(2194, miscresidential).
holds(2194, countryhouse).
holds(2194, residential).
holds(2194, table).
holds(2194, tiledroof).
holds(2194, car).

sample(2195).
holds(2195, building).
holds(2195, feature).
holds(2195, awning).
holds(2195, table).

sample(2196).
holds(2196, building).
holds(2196, feature).
holds(2196, constructionsite).
holds(2196, powerplant).
holds(2196, awning).
holds(2196, table).
holds(2196, chimney).
holds(2196, pipe).
holds(2196, machine).

sample(2197).
holds(2197, building).
holds(2197, feature).
holds(2197, suburban).
holds(2197, miscresidential).
holds(2197, countryhouse).
holds(2197, residential).
holds(2197, porch).
holds(2197, table).
holds(2197, tiledroof).
holds(2197, car).

sample(2198).
holds(2198, building).
holds(2198, feature).
holds(2198, awning).
holds(2198, table).

sample(2199).
holds(2199, building).
holds(2199, feature).
holds(2199, miscindustrial).
holds(2199, powerplant).
holds(2199, watertreatment).
holds(2199, industrial).
holds(2199, chimney).
holds(2199, pipe).
holds(2199, truck).

sample(2200).
holds(2200, building).
holds(2200, feature).
holds(2200, suburban).
holds(2200, residential).
holds(2200, awning).
holds(2200, porch).
holds(2200, table).
holds(2200, tiledroof).

sample(2201).
holds(2201, building).
holds(2201, feature).
holds(2201, awning).
holds(2201, table).

sample(2202).
holds(2202, building).
holds(2202, feature).
holds(2202, constructionsite).
holds(2202, powerplant).
holds(2202, awning).
holds(2202, table).
holds(2202, chimney).
holds(2202, pipe).
holds(2202, machine).

sample(2203).
holds(2203, building).
holds(2203, feature).
holds(2203, miscresidential).
holds(2203, countryhouse).
holds(2203, residential).
holds(2203, table).
holds(2203, tiledroof).
holds(2203, car).

sample(2204).
holds(2204, building).
holds(2204, feature).
holds(2204, awning).
holds(2204, table).

sample(2205).
holds(2205, building).
holds(2205, feature).
holds(2205, miscindustrial).
holds(2205, industrial).
holds(2205, truck).

sample(2206).
holds(2206, building).
holds(2206, feature).
holds(2206, miscresidential).
holds(2206, residential).
holds(2206, table).
holds(2206, tiledroof).

sample(2207).
holds(2207, building).
holds(2207, feature).
holds(2207, awning).
holds(2207, table).

sample(2208).
holds(2208, building).
holds(2208, feature).
holds(2208, constructionsite).
holds(2208, awning).
holds(2208, table).
holds(2208, machine).

sample(2209).
holds(2209, building).
holds(2209, feature).
holds(2209, miscresidential).
holds(2209, countryhouse).
holds(2209, residential).
holds(2209, table).
holds(2209, tiledroof).
holds(2209, car).

sample(2210).
holds(2210, building).
holds(2210, feature).
holds(2210, awning).
holds(2210, table).

sample(2211).
holds(2211, building).
holds(2211, feature).
holds(2211, powerplant).
holds(2211, industrial).
holds(2211, awning).
holds(2211, chimney).
holds(2211, pipe).

sample(2212).
holds(2212, building).
holds(2212, feature).
holds(2212, suburban).
holds(2212, miscresidential).
holds(2212, countryhouse).
holds(2212, residential).
holds(2212, porch).
holds(2212, table).
holds(2212, tiledroof).
holds(2212, car).

sample(2213).
holds(2213, building).
holds(2213, feature).
holds(2213, awning).
holds(2213, table).

sample(2214).
holds(2214, building).
holds(2214, feature).
holds(2214, miscindustrial).
holds(2214, industrial).
holds(2214, truck).

sample(2215).
holds(2215, building).
holds(2215, feature).
holds(2215, miscresidential).
holds(2215, residential).
holds(2215, table).
holds(2215, tiledroof).

sample(2216).
holds(2216, building).
holds(2216, feature).
holds(2216, awning).
holds(2216, table).

sample(2217).
holds(2217, building).
holds(2217, feature).
holds(2217, constructionsite).
holds(2217, powerplant).
holds(2217, awning).
holds(2217, table).
holds(2217, chimney).
holds(2217, pipe).
holds(2217, machine).

sample(2218).
holds(2218, building).
holds(2218, feature).
holds(2218, miscresidential).
holds(2218, countryhouse).
holds(2218, residential).
holds(2218, table).
holds(2218, tiledroof).
holds(2218, car).

sample(2219).
holds(2219, building).
holds(2219, feature).
holds(2219, awning).
holds(2219, table).

sample(2220).
holds(2220, building).
holds(2220, feature).
holds(2220, constructionsite).
holds(2220, awning).
holds(2220, table).
holds(2220, machine).

sample(2221).
holds(2221, building).
holds(2221, feature).
holds(2221, miscresidential).
holds(2221, countryhouse).
holds(2221, residential).
holds(2221, table).
holds(2221, tiledroof).
holds(2221, car).

sample(2222).
holds(2222, building).
holds(2222, feature).
holds(2222, awning).
holds(2222, table).

sample(2223).
holds(2223, building).
holds(2223, feature).
holds(2223, watertreatment).
holds(2223, industrial).
holds(2223, awning).
holds(2223, pipe).
holds(2223, truck).

sample(2224).
holds(2224, building).
holds(2224, feature).
holds(2224, suburban).
holds(2224, miscresidential).
holds(2224, countryhouse).
holds(2224, residential).
holds(2224, porch).
holds(2224, table).
holds(2224, tiledroof).
holds(2224, car).

sample(2225).
holds(2225, building).
holds(2225, feature).
holds(2225, awning).
holds(2225, table).

sample(2226).
holds(2226, building).
holds(2226, feature).
holds(2226, miscindustrial).
holds(2226, industrial).
holds(2226, truck).

sample(2227).
holds(2227, building).
holds(2227, feature).
holds(2227, suburban).
holds(2227, miscresidential).
holds(2227, residential).
holds(2227, porch).
holds(2227, table).
holds(2227, tiledroof).

sample(2228).
holds(2228, building).
holds(2228, feature).
holds(2228, awning).
holds(2228, table).

sample(2229).
holds(2229, building).
holds(2229, feature).
holds(2229, miscindustrial).
holds(2229, industrial).
holds(2229, truck).

sample(2230).
holds(2230, building).
holds(2230, feature).
holds(2230, suburban).
holds(2230, residential).
holds(2230, awning).
holds(2230, porch).
holds(2230, table).
holds(2230, tiledroof).

sample(2231).
holds(2231, building).
holds(2231, feature).
holds(2231, awning).
holds(2231, table).

sample(2232).
holds(2232, building).
holds(2232, feature).
holds(2232, constructionsite).
holds(2232, awning).
holds(2232, table).
holds(2232, machine).

sample(2233).
holds(2233, building).
holds(2233, feature).
holds(2233, suburban).
holds(2233, miscresidential).
holds(2233, countryhouse).
holds(2233, residential).
holds(2233, porch).
holds(2233, table).
holds(2233, tiledroof).
holds(2233, car).

sample(2234).
holds(2234, building).
holds(2234, feature).
holds(2234, table).

sample(2235).
holds(2235, building).
holds(2235, feature).
holds(2235, constructionsite).
holds(2235, powerplant).
holds(2235, awning).
holds(2235, table).
holds(2235, chimney).
holds(2235, pipe).
holds(2235, machine).

sample(2236).
holds(2236, building).
holds(2236, feature).
holds(2236, suburban).
holds(2236, miscresidential).
holds(2236, residential).
holds(2236, porch).
holds(2236, table).
holds(2236, tiledroof).

sample(2237).
holds(2237, building).
holds(2237, feature).
holds(2237, awning).
holds(2237, table).

sample(2238).
holds(2238, building).
holds(2238, feature).
holds(2238, powerplant).
holds(2238, industrial).
holds(2238, awning).
holds(2238, chimney).
holds(2238, pipe).

sample(2239).
holds(2239, building).
holds(2239, feature).
holds(2239, suburban).
holds(2239, miscresidential).
holds(2239, countryhouse).
holds(2239, residential).
holds(2239, porch).
holds(2239, table).
holds(2239, tiledroof).
holds(2239, car).

sample(2240).
holds(2240, building).
holds(2240, feature).
holds(2240, awning).
holds(2240, table).

sample(2241).
holds(2241, building).
holds(2241, feature).
holds(2241, constructionsite).
holds(2241, powerplant).
holds(2241, awning).
holds(2241, table).
holds(2241, chimney).
holds(2241, pipe).
holds(2241, machine).

sample(2242).
holds(2242, building).
holds(2242, feature).
holds(2242, miscresidential).
holds(2242, residential).
holds(2242, table).
holds(2242, tiledroof).

sample(2243).
holds(2243, building).
holds(2243, feature).
holds(2243, awning).
holds(2243, table).

sample(2244).
holds(2244, building).
holds(2244, feature).
holds(2244, constructionsite).
holds(2244, powerplant).
holds(2244, awning).
holds(2244, table).
holds(2244, chimney).
holds(2244, pipe).
holds(2244, machine).

sample(2245).
holds(2245, building).
holds(2245, feature).
holds(2245, suburban).
holds(2245, miscresidential).
holds(2245, residential).
holds(2245, porch).
holds(2245, table).
holds(2245, tiledroof).

sample(2246).
holds(2246, building).
holds(2246, feature).
holds(2246, awning).
holds(2246, table).

sample(2247).
holds(2247, building).
holds(2247, feature).
holds(2247, miscindustrial).
holds(2247, powerplant).
holds(2247, watertreatment).
holds(2247, industrial).
holds(2247, chimney).
holds(2247, pipe).
holds(2247, truck).

sample(2248).
holds(2248, building).
holds(2248, feature).
holds(2248, suburban).
holds(2248, miscresidential).
holds(2248, countryhouse).
holds(2248, residential).
holds(2248, porch).
holds(2248, table).
holds(2248, tiledroof).
holds(2248, car).

sample(2249).
holds(2249, building).
holds(2249, feature).
holds(2249, awning).
holds(2249, table).

sample(2250).
holds(2250, building).
holds(2250, feature).
holds(2250, powerplant).
holds(2250, industrial).
holds(2250, awning).
holds(2250, chimney).
holds(2250, pipe).

sample(2251).
holds(2251, building).
holds(2251, feature).
holds(2251, suburban).
holds(2251, miscresidential).
holds(2251, residential).
holds(2251, porch).
holds(2251, table).
holds(2251, tiledroof).

sample(2252).
holds(2252, building).
holds(2252, feature).
holds(2252, awning).
holds(2252, table).

sample(2253).
holds(2253, building).
holds(2253, feature).
holds(2253, constructionsite).
holds(2253, awning).
holds(2253, table).
holds(2253, machine).

sample(2254).
holds(2254, building).
holds(2254, feature).
holds(2254, suburban).
holds(2254, miscresidential).
holds(2254, countryhouse).
holds(2254, residential).
holds(2254, porch).
holds(2254, table).
holds(2254, tiledroof).
holds(2254, car).

sample(2255).
holds(2255, building).
holds(2255, feature).
holds(2255, awning).
holds(2255, table).

sample(2256).
holds(2256, building).
holds(2256, feature).
holds(2256, watertreatment).
holds(2256, industrial).
holds(2256, awning).
holds(2256, pipe).
holds(2256, truck).

sample(2257).
holds(2257, building).
holds(2257, feature).
holds(2257, miscresidential).
holds(2257, countryhouse).
holds(2257, residential).
holds(2257, table).
holds(2257, tiledroof).
holds(2257, car).

sample(2258).
holds(2258, building).
holds(2258, feature).
holds(2258, awning).
holds(2258, table).

sample(2259).
holds(2259, building).
holds(2259, feature).
holds(2259, miscindustrial).
holds(2259, industrial).
holds(2259, truck).

sample(2260).
holds(2260, building).
holds(2260, feature).
holds(2260, miscresidential).
holds(2260, countryhouse).
holds(2260, residential).
holds(2260, table).
holds(2260, tiledroof).
holds(2260, car).

sample(2261).
holds(2261, building).
holds(2261, feature).
holds(2261, awning).
holds(2261, table).

sample(2262).
holds(2262, building).
holds(2262, feature).
holds(2262, miscindustrial).
holds(2262, powerplant).
holds(2262, watertreatment).
holds(2262, industrial).
holds(2262, chimney).
holds(2262, pipe).
holds(2262, truck).

sample(2263).
holds(2263, building).
holds(2263, feature).
holds(2263, suburban).
holds(2263, residential).
holds(2263, awning).
holds(2263, porch).
holds(2263, table).
holds(2263, tiledroof).

sample(2264).
holds(2264, building).
holds(2264, feature).
holds(2264, awning).
holds(2264, table).

sample(2265).
holds(2265, building).
holds(2265, feature).
holds(2265, watertreatment).
holds(2265, industrial).
holds(2265, awning).
holds(2265, pipe).
holds(2265, truck).

sample(2266).
holds(2266, building).
holds(2266, feature).
holds(2266, suburban).
holds(2266, miscresidential).
holds(2266, residential).
holds(2266, porch).
holds(2266, table).
holds(2266, tiledroof).

sample(2267).
holds(2267, building).
holds(2267, feature).
holds(2267, awning).
holds(2267, table).

sample(2268).
holds(2268, building).
holds(2268, feature).
holds(2268, constructionsite).
holds(2268, awning).
holds(2268, table).
holds(2268, machine).

sample(2269).
holds(2269, building).
holds(2269, feature).
holds(2269, suburban).
holds(2269, miscresidential).
holds(2269, countryhouse).
holds(2269, residential).
holds(2269, porch).
holds(2269, table).
holds(2269, tiledroof).
holds(2269, car).

sample(2270).
holds(2270, building).
holds(2270, feature).
holds(2270, awning).
holds(2270, table).

sample(2271).
holds(2271, building).
holds(2271, feature).
holds(2271, miscindustrial).
holds(2271, watertreatment).
holds(2271, industrial).
holds(2271, pipe).
holds(2271, truck).

sample(2272).
holds(2272, building).
holds(2272, feature).
holds(2272, miscresidential).
holds(2272, countryhouse).
holds(2272, residential).
holds(2272, table).
holds(2272, tiledroof).
holds(2272, car).

sample(2273).
holds(2273, building).
holds(2273, feature).
holds(2273, awning).
holds(2273, table).

sample(2274).
holds(2274, building).
holds(2274, feature).
holds(2274, miscindustrial).
holds(2274, watertreatment).
holds(2274, industrial).
holds(2274, pipe).
holds(2274, truck).

sample(2275).
holds(2275, building).
holds(2275, feature).
holds(2275, suburban).
holds(2275, miscresidential).
holds(2275, residential).
holds(2275, porch).
holds(2275, table).
holds(2275, tiledroof).

sample(2276).
holds(2276, building).
holds(2276, feature).
holds(2276, awning).
holds(2276, table).

sample(2277).
holds(2277, building).
holds(2277, feature).
holds(2277, miscindustrial).
holds(2277, powerplant).
holds(2277, watertreatment).
holds(2277, industrial).
holds(2277, chimney).
holds(2277, pipe).
holds(2277, truck).

sample(2278).
holds(2278, building).
holds(2278, feature).
holds(2278, miscresidential).
holds(2278, countryhouse).
holds(2278, residential).
holds(2278, table).
holds(2278, tiledroof).
holds(2278, car).

sample(2279).
holds(2279, building).
holds(2279, feature).
holds(2279, awning).
holds(2279, table).

sample(2280).
holds(2280, building).
holds(2280, feature).
holds(2280, constructionsite).
holds(2280, awning).
holds(2280, table).
holds(2280, machine).

sample(2281).
holds(2281, building).
holds(2281, feature).
holds(2281, suburban).
holds(2281, miscresidential).
holds(2281, residential).
holds(2281, porch).
holds(2281, table).
holds(2281, tiledroof).

sample(2282).
holds(2282, building).
holds(2282, feature).
holds(2282, awning).
holds(2282, table).

sample(2283).
holds(2283, building).
holds(2283, feature).
holds(2283, powerplant).
holds(2283, watertreatment).
holds(2283, industrial).
holds(2283, awning).
holds(2283, chimney).
holds(2283, pipe).
holds(2283, truck).

sample(2284).
holds(2284, building).
holds(2284, feature).
holds(2284, suburban).
holds(2284, miscresidential).
holds(2284, countryhouse).
holds(2284, residential).
holds(2284, porch).
holds(2284, table).
holds(2284, tiledroof).
holds(2284, car).

sample(2285).
holds(2285, building).
holds(2285, feature).
holds(2285, awning).
holds(2285, table).

sample(2286).
holds(2286, building).
holds(2286, feature).
holds(2286, constructionsite).
holds(2286, powerplant).
holds(2286, awning).
holds(2286, table).
holds(2286, chimney).
holds(2286, pipe).
holds(2286, machine).

sample(2287).
holds(2287, building).
holds(2287, feature).
holds(2287, miscresidential).
holds(2287, residential).
holds(2287, table).
holds(2287, tiledroof).

sample(2288).
holds(2288, building).
holds(2288, feature).
holds(2288, awning).
holds(2288, table).

sample(2289).
holds(2289, building).
holds(2289, feature).
holds(2289, miscindustrial).
holds(2289, powerplant).
holds(2289, watertreatment).
holds(2289, industrial).
holds(2289, chimney).
holds(2289, pipe).
holds(2289, truck).

sample(2290).
holds(2290, building).
holds(2290, feature).
holds(2290, miscresidential).
holds(2290, residential).
holds(2290, table).
holds(2290, tiledroof).

sample(2291).
holds(2291, building).
holds(2291, feature).
holds(2291, awning).
holds(2291, table).

sample(2292).
holds(2292, building).
holds(2292, feature).
holds(2292, powerplant).
holds(2292, watertreatment).
holds(2292, industrial).
holds(2292, awning).
holds(2292, chimney).
holds(2292, pipe).
holds(2292, truck).

sample(2293).
holds(2293, building).
holds(2293, feature).
holds(2293, suburban).
holds(2293, residential).
holds(2293, awning).
holds(2293, porch).
holds(2293, table).
holds(2293, tiledroof).

sample(2294).
holds(2294, building).
holds(2294, feature).
holds(2294, awning).
holds(2294, table).

sample(2295).
holds(2295, building).
holds(2295, feature).
holds(2295, miscindustrial).
holds(2295, watertreatment).
holds(2295, industrial).
holds(2295, pipe).
holds(2295, truck).

sample(2296).
holds(2296, building).
holds(2296, feature).
holds(2296, suburban).
holds(2296, miscresidential).
holds(2296, residential).
holds(2296, porch).
holds(2296, table).
holds(2296, tiledroof).

sample(2297).
holds(2297, building).
holds(2297, feature).
holds(2297, awning).
holds(2297, table).

sample(2298).
holds(2298, building).
holds(2298, feature).
holds(2298, miscindustrial).
holds(2298, industrial).
holds(2298, truck).

sample(2299).
holds(2299, building).
holds(2299, feature).
holds(2299, suburban).
holds(2299, miscresidential).
holds(2299, residential).
holds(2299, porch).
holds(2299, table).
holds(2299, tiledroof).

sample(2300).
holds(2300, building).
holds(2300, feature).
holds(2300, awning).
holds(2300, table).

sample(2301).
holds(2301, building).
holds(2301, feature).
holds(2301, miscindustrial).
holds(2301, industrial).
holds(2301, truck).

sample(2302).
holds(2302, building).
holds(2302, feature).
holds(2302, miscresidential).
holds(2302, countryhouse).
holds(2302, residential).
holds(2302, table).
holds(2302, tiledroof).
holds(2302, car).

sample(2303).
holds(2303, building).
holds(2303, feature).
holds(2303, awning).
holds(2303, table).

sample(2304).
holds(2304, building).
holds(2304, feature).
holds(2304, constructionsite).
holds(2304, awning).
holds(2304, table).
holds(2304, machine).

sample(2305).
holds(2305, building).
holds(2305, feature).
holds(2305, suburban).
holds(2305, miscresidential).
holds(2305, residential).
holds(2305, porch).
holds(2305, table).
holds(2305, tiledroof).

sample(2306).
holds(2306, building).
holds(2306, feature).
holds(2306, awning).
holds(2306, table).

sample(2307).
holds(2307, building).
holds(2307, feature).
holds(2307, miscindustrial).
holds(2307, industrial).
holds(2307, truck).

sample(2308).
holds(2308, building).
holds(2308, feature).
holds(2308, miscresidential).
holds(2308, residential).
holds(2308, table).
holds(2308, tiledroof).

sample(2309).
holds(2309, building).
holds(2309, feature).
holds(2309, awning).
holds(2309, table).

sample(2310).
holds(2310, building).
holds(2310, feature).
holds(2310, powerplant).
holds(2310, industrial).
holds(2310, awning).
holds(2310, chimney).
holds(2310, pipe).

sample(2311).
holds(2311, building).
holds(2311, feature).
holds(2311, miscresidential).
holds(2311, countryhouse).
holds(2311, residential).
holds(2311, table).
holds(2311, tiledroof).
holds(2311, car).

sample(2312).
holds(2312, building).
holds(2312, feature).
holds(2312, awning).
holds(2312, table).

sample(2313).
holds(2313, building).
holds(2313, feature).
holds(2313, constructionsite).
holds(2313, powerplant).
holds(2313, awning).
holds(2313, table).
holds(2313, chimney).
holds(2313, pipe).
holds(2313, machine).

sample(2314).
holds(2314, building).
holds(2314, feature).
holds(2314, suburban).
holds(2314, miscresidential).
holds(2314, residential).
holds(2314, porch).
holds(2314, table).
holds(2314, tiledroof).

sample(2315).
holds(2315, building).
holds(2315, feature).
holds(2315, awning).
holds(2315, table).

sample(2316).
holds(2316, building).
holds(2316, feature).
holds(2316, miscindustrial).
holds(2316, watertreatment).
holds(2316, industrial).
holds(2316, pipe).
holds(2316, truck).

sample(2317).
holds(2317, building).
holds(2317, feature).
holds(2317, suburban).
holds(2317, miscresidential).
holds(2317, countryhouse).
holds(2317, residential).
holds(2317, porch).
holds(2317, table).
holds(2317, tiledroof).
holds(2317, car).

sample(2318).
holds(2318, building).
holds(2318, feature).
holds(2318, awning).
holds(2318, table).

sample(2319).
holds(2319, building).
holds(2319, feature).
holds(2319, constructionsite).
holds(2319, awning).
holds(2319, table).
holds(2319, machine).

sample(2320).
holds(2320, building).
holds(2320, feature).
holds(2320, suburban).
holds(2320, residential).
holds(2320, awning).
holds(2320, porch).
holds(2320, table).
holds(2320, tiledroof).

sample(2321).
holds(2321, building).
holds(2321, feature).
holds(2321, awning).
holds(2321, table).

sample(2322).
holds(2322, building).
holds(2322, feature).
holds(2322, powerplant).
holds(2322, industrial).
holds(2322, awning).
holds(2322, chimney).
holds(2322, pipe).

sample(2323).
holds(2323, building).
holds(2323, feature).
holds(2323, suburban).
holds(2323, miscresidential).
holds(2323, countryhouse).
holds(2323, residential).
holds(2323, porch).
holds(2323, table).
holds(2323, tiledroof).
holds(2323, car).

sample(2324).
holds(2324, building).
holds(2324, feature).
holds(2324, awning).
holds(2324, table).

sample(2325).
holds(2325, building).
holds(2325, feature).
holds(2325, constructionsite).
holds(2325, awning).
holds(2325, table).
holds(2325, machine).

sample(2326).
holds(2326, building).
holds(2326, feature).
holds(2326, suburban).
holds(2326, miscresidential).
holds(2326, residential).
holds(2326, porch).
holds(2326, table).
holds(2326, tiledroof).

sample(2327).
holds(2327, building).
holds(2327, feature).
holds(2327, awning).
holds(2327, table).

sample(2328).
holds(2328, building).
holds(2328, feature).
holds(2328, miscindustrial).
holds(2328, watertreatment).
holds(2328, industrial).
holds(2328, pipe).
holds(2328, truck).

sample(2329).
holds(2329, building).
holds(2329, feature).
holds(2329, miscresidential).
holds(2329, residential).
holds(2329, table).
holds(2329, tiledroof).

sample(2330).
holds(2330, building).
holds(2330, feature).
holds(2330, awning).
holds(2330, table).

sample(2331).
holds(2331, building).
holds(2331, feature).
holds(2331, miscindustrial).
holds(2331, powerplant).
holds(2331, watertreatment).
holds(2331, industrial).
holds(2331, chimney).
holds(2331, pipe).
holds(2331, truck).

sample(2332).
holds(2332, building).
holds(2332, feature).
holds(2332, suburban).
holds(2332, miscresidential).
holds(2332, countryhouse).
holds(2332, residential).
holds(2332, porch).
holds(2332, table).
holds(2332, tiledroof).
holds(2332, car).

sample(2333).
holds(2333, building).
holds(2333, feature).
holds(2333, awning).
holds(2333, table).

sample(2334).
holds(2334, building).
holds(2334, feature).
holds(2334, miscindustrial).
holds(2334, industrial).
holds(2334, truck).

sample(2335).
holds(2335, building).
holds(2335, feature).
holds(2335, suburban).
holds(2335, residential).
holds(2335, awning).
holds(2335, porch).
holds(2335, table).
holds(2335, tiledroof).

sample(2336).
holds(2336, building).
holds(2336, feature).
holds(2336, awning).
holds(2336, table).

sample(2337).
holds(2337, building).
holds(2337, feature).
holds(2337, powerplant).
holds(2337, industrial).
holds(2337, awning).
holds(2337, chimney).
holds(2337, pipe).

sample(2338).
holds(2338, building).
holds(2338, feature).
holds(2338, suburban).
holds(2338, miscresidential).
holds(2338, residential).
holds(2338, porch).
holds(2338, table).
holds(2338, tiledroof).

sample(2339).
holds(2339, building).
holds(2339, feature).
holds(2339, awning).
holds(2339, table).

sample(2340).
holds(2340, building).
holds(2340, feature).
holds(2340, constructionsite).
holds(2340, awning).
holds(2340, table).
holds(2340, machine).

sample(2341).
holds(2341, building).
holds(2341, feature).
holds(2341, miscresidential).
holds(2341, residential).
holds(2341, table).
holds(2341, tiledroof).

sample(2342).
holds(2342, building).
holds(2342, feature).
holds(2342, awning).
holds(2342, table).

sample(2343).
holds(2343, building).
holds(2343, feature).
holds(2343, constructionsite).
holds(2343, awning).
holds(2343, table).
holds(2343, machine).

sample(2344).
holds(2344, building).
holds(2344, feature).
holds(2344, miscresidential).
holds(2344, countryhouse).
holds(2344, residential).
holds(2344, table).
holds(2344, tiledroof).
holds(2344, car).

sample(2345).
holds(2345, building).
holds(2345, feature).
holds(2345, awning).
holds(2345, table).

sample(2346).
holds(2346, building).
holds(2346, feature).
holds(2346, constructionsite).
holds(2346, powerplant).
holds(2346, awning).
holds(2346, table).
holds(2346, chimney).
holds(2346, pipe).
holds(2346, machine).

sample(2347).
holds(2347, building).
holds(2347, feature).
holds(2347, suburban).
holds(2347, residential).
holds(2347, awning).
holds(2347, porch).
holds(2347, table).
holds(2347, tiledroof).

sample(2348).
holds(2348, building).
holds(2348, feature).
holds(2348, awning).
holds(2348, table).

sample(2349).
holds(2349, building).
holds(2349, feature).
holds(2349, miscindustrial).
holds(2349, industrial).
holds(2349, truck).

sample(2350).
holds(2350, building).
holds(2350, feature).
holds(2350, suburban).
holds(2350, miscresidential).
holds(2350, countryhouse).
holds(2350, residential).
holds(2350, porch).
holds(2350, table).
holds(2350, tiledroof).
holds(2350, car).

sample(2351).
holds(2351, building).
holds(2351, feature).
holds(2351, awning).
holds(2351, table).

sample(2352).
holds(2352, building).
holds(2352, feature).
holds(2352, miscindustrial).
holds(2352, industrial).
holds(2352, truck).

sample(2353).
holds(2353, building).
holds(2353, feature).
holds(2353, suburban).
holds(2353, miscresidential).
holds(2353, countryhouse).
holds(2353, residential).
holds(2353, porch).
holds(2353, table).
holds(2353, tiledroof).
holds(2353, car).

sample(2354).
holds(2354, building).
holds(2354, feature).
holds(2354, awning).
holds(2354, table).

sample(2355).
holds(2355, building).
holds(2355, feature).
holds(2355, miscindustrial).
holds(2355, powerplant).
holds(2355, watertreatment).
holds(2355, industrial).
holds(2355, chimney).
holds(2355, pipe).
holds(2355, truck).

sample(2356).
holds(2356, building).
holds(2356, feature).
holds(2356, suburban).
holds(2356, miscresidential).
holds(2356, residential).
holds(2356, porch).
holds(2356, table).
holds(2356, tiledroof).

sample(2357).
holds(2357, building).
holds(2357, feature).
holds(2357, awning).
holds(2357, table).

sample(2358).
holds(2358, building).
holds(2358, feature).
holds(2358, miscindustrial).
holds(2358, industrial).
holds(2358, truck).

sample(2359).
holds(2359, building).
holds(2359, feature).
holds(2359, miscresidential).
holds(2359, countryhouse).
holds(2359, residential).
holds(2359, table).
holds(2359, tiledroof).
holds(2359, car).

sample(2360).
holds(2360, building).
holds(2360, feature).
holds(2360, awning).
holds(2360, table).

sample(2361).
holds(2361, building).
holds(2361, feature).
holds(2361, powerplant).
holds(2361, industrial).
holds(2361, awning).
holds(2361, chimney).
holds(2361, pipe).

sample(2362).
holds(2362, building).
holds(2362, feature).
holds(2362, suburban).
holds(2362, miscresidential).
holds(2362, countryhouse).
holds(2362, residential).
holds(2362, porch).
holds(2362, table).
holds(2362, tiledroof).
holds(2362, car).

sample(2363).
holds(2363, building).
holds(2363, feature).
holds(2363, awning).
holds(2363, table).

sample(2364).
holds(2364, building).
holds(2364, feature).
holds(2364, constructionsite).
holds(2364, awning).
holds(2364, table).
holds(2364, machine).

sample(2365).
holds(2365, building).
holds(2365, feature).
holds(2365, miscresidential).
holds(2365, residential).
holds(2365, table).
holds(2365, tiledroof).

sample(2366).
holds(2366, building).
holds(2366, feature).
holds(2366, awning).
holds(2366, table).

sample(2367).
holds(2367, building).
holds(2367, feature).
holds(2367, miscindustrial).
holds(2367, powerplant).
holds(2367, watertreatment).
holds(2367, industrial).
holds(2367, chimney).
holds(2367, pipe).
holds(2367, truck).

sample(2368).
holds(2368, building).
holds(2368, feature).
holds(2368, miscresidential).
holds(2368, countryhouse).
holds(2368, residential).
holds(2368, table).
holds(2368, tiledroof).
holds(2368, car).

sample(2369).
holds(2369, building).
holds(2369, feature).
holds(2369, awning).
holds(2369, table).

sample(2370).
holds(2370, building).
holds(2370, feature).
holds(2370, miscindustrial).
holds(2370, watertreatment).
holds(2370, industrial).
holds(2370, pipe).
holds(2370, truck).

sample(2371).
holds(2371, building).
holds(2371, feature).
holds(2371, miscresidential).
holds(2371, countryhouse).
holds(2371, residential).
holds(2371, table).
holds(2371, tiledroof).
holds(2371, car).

sample(2372).
holds(2372, building).
holds(2372, feature).
holds(2372, awning).
holds(2372, table).

sample(2373).
holds(2373, building).
holds(2373, feature).
holds(2373, miscindustrial).
holds(2373, industrial).
holds(2373, truck).

sample(2374).
holds(2374, building).
holds(2374, feature).
holds(2374, suburban).
holds(2374, miscresidential).
holds(2374, residential).
holds(2374, porch).
holds(2374, table).
holds(2374, tiledroof).

sample(2375).
holds(2375, building).
holds(2375, feature).
holds(2375, awning).
holds(2375, table).

sample(2376).
holds(2376, building).
holds(2376, feature).
holds(2376, miscindustrial).
holds(2376, watertreatment).
holds(2376, industrial).
holds(2376, pipe).
holds(2376, truck).

sample(2377).
holds(2377, building).
holds(2377, feature).
holds(2377, miscresidential).
holds(2377, countryhouse).
holds(2377, residential).
holds(2377, table).
holds(2377, tiledroof).
holds(2377, car).

sample(2378).
holds(2378, building).
holds(2378, feature).
holds(2378, awning).
holds(2378, table).

sample(2379).
holds(2379, building).
holds(2379, feature).
holds(2379, constructionsite).
holds(2379, powerplant).
holds(2379, awning).
holds(2379, table).
holds(2379, chimney).
holds(2379, pipe).
holds(2379, machine).

sample(2380).
holds(2380, building).
holds(2380, feature).
holds(2380, suburban).
holds(2380, residential).
holds(2380, awning).
holds(2380, porch).
holds(2380, table).
holds(2380, tiledroof).

sample(2381).
holds(2381, building).
holds(2381, feature).
holds(2381, awning).
holds(2381, table).

sample(2382).
holds(2382, building).
holds(2382, feature).
holds(2382, watertreatment).
holds(2382, industrial).
holds(2382, pipe).
holds(2382, truck).

sample(2383).
holds(2383, building).
holds(2383, feature).
holds(2383, suburban).
holds(2383, residential).
holds(2383, awning).
holds(2383, porch).
holds(2383, table).
holds(2383, tiledroof).

sample(2384).
holds(2384, building).
holds(2384, feature).
holds(2384, awning).
holds(2384, table).

sample(2385).
holds(2385, building).
holds(2385, feature).
holds(2385, constructionsite).
holds(2385, awning).
holds(2385, table).
holds(2385, machine).

sample(2386).
holds(2386, building).
holds(2386, feature).
holds(2386, suburban).
holds(2386, miscresidential).
holds(2386, countryhouse).
holds(2386, residential).
holds(2386, porch).
holds(2386, table).
holds(2386, tiledroof).
holds(2386, car).

sample(2387).
holds(2387, building).
holds(2387, feature).
holds(2387, awning).
holds(2387, table).

sample(2388).
holds(2388, building).
holds(2388, feature).
holds(2388, miscindustrial).
holds(2388, watertreatment).
holds(2388, industrial).
holds(2388, pipe).
holds(2388, truck).

sample(2389).
holds(2389, building).
holds(2389, feature).
holds(2389, miscresidential).
holds(2389, countryhouse).
holds(2389, residential).
holds(2389, table).
holds(2389, tiledroof).
holds(2389, car).

sample(2390).
holds(2390, building).
holds(2390, feature).
holds(2390, awning).
holds(2390, table).

sample(2391).
holds(2391, building).
holds(2391, feature).
holds(2391, constructionsite).
holds(2391, awning).
holds(2391, table).
holds(2391, machine).

sample(2392).
holds(2392, building).
holds(2392, feature).
holds(2392, miscresidential).
holds(2392, residential).
holds(2392, table).
holds(2392, tiledroof).

sample(2393).
holds(2393, building).
holds(2393, feature).
holds(2393, awning).
holds(2393, table).

sample(2394).
holds(2394, building).
holds(2394, feature).
holds(2394, miscindustrial).
holds(2394, watertreatment).
holds(2394, industrial).
holds(2394, pipe).
holds(2394, truck).

sample(2395).
holds(2395, building).
holds(2395, feature).
holds(2395, suburban).
holds(2395, miscresidential).
holds(2395, residential).
holds(2395, porch).
holds(2395, table).
holds(2395, tiledroof).

sample(2396).
holds(2396, building).
holds(2396, feature).
holds(2396, awning).
holds(2396, table).

sample(2397).
holds(2397, building).
holds(2397, feature).
holds(2397, constructionsite).
holds(2397, powerplant).
holds(2397, awning).
holds(2397, table).
holds(2397, chimney).
holds(2397, pipe).
holds(2397, machine).

sample(2398).
holds(2398, building).
holds(2398, feature).
holds(2398, suburban).
holds(2398, miscresidential).
holds(2398, residential).
holds(2398, porch).
holds(2398, table).
holds(2398, tiledroof).

sample(2399).
holds(2399, building).
holds(2399, feature).
holds(2399, awning).
holds(2399, table).

sample(2400).
holds(2400, building).
holds(2400, feature).
holds(2400, powerplant).
holds(2400, industrial).
holds(2400, awning).
holds(2400, chimney).
holds(2400, pipe).

sample(2401).
holds(2401, building).
holds(2401, feature).
holds(2401, suburban).
holds(2401, miscresidential).
holds(2401, residential).
holds(2401, porch).
holds(2401, table).
holds(2401, tiledroof).

sample(2402).
holds(2402, building).
holds(2402, feature).
holds(2402, awning).
holds(2402, table).

sample(2403).
holds(2403, building).
holds(2403, feature).
holds(2403, miscindustrial).
holds(2403, watertreatment).
holds(2403, industrial).
holds(2403, pipe).
holds(2403, truck).

sample(2404).
holds(2404, building).
holds(2404, feature).
holds(2404, suburban).
holds(2404, residential).
holds(2404, awning).
holds(2404, porch).
holds(2404, table).
holds(2404, tiledroof).

sample(2405).
holds(2405, building).
holds(2405, feature).
holds(2405, awning).
holds(2405, table).

sample(2406).
holds(2406, building).
holds(2406, feature).
holds(2406, powerplant).
holds(2406, industrial).
holds(2406, awning).
holds(2406, chimney).
holds(2406, pipe).

sample(2407).
holds(2407, building).
holds(2407, feature).
holds(2407, suburban).
holds(2407, miscresidential).
holds(2407, residential).
holds(2407, porch).
holds(2407, table).
holds(2407, tiledroof).

sample(2408).
holds(2408, building).
holds(2408, feature).
holds(2408, awning).
holds(2408, table).

sample(2409).
holds(2409, building).
holds(2409, feature).
holds(2409, constructionsite).
holds(2409, powerplant).
holds(2409, awning).
holds(2409, table).
holds(2409, chimney).
holds(2409, pipe).
holds(2409, machine).

sample(2410).
holds(2410, building).
holds(2410, feature).
holds(2410, suburban).
holds(2410, miscresidential).
holds(2410, residential).
holds(2410, porch).
holds(2410, table).
holds(2410, tiledroof).

sample(2411).
holds(2411, building).
holds(2411, feature).
holds(2411, awning).
holds(2411, table).

sample(2412).
holds(2412, building).
holds(2412, feature).
holds(2412, miscindustrial).
holds(2412, powerplant).
holds(2412, watertreatment).
holds(2412, industrial).
holds(2412, chimney).
holds(2412, pipe).
holds(2412, truck).

sample(2413).
holds(2413, building).
holds(2413, feature).
holds(2413, suburban).
holds(2413, miscresidential).
holds(2413, residential).
holds(2413, porch).
holds(2413, table).
holds(2413, tiledroof).

sample(2414).
holds(2414, building).
holds(2414, feature).
holds(2414, awning).
holds(2414, table).

sample(2415).
holds(2415, building).
holds(2415, feature).
holds(2415, constructionsite).
holds(2415, powerplant).
holds(2415, awning).
holds(2415, table).
holds(2415, chimney).
holds(2415, pipe).
holds(2415, machine).

sample(2416).
holds(2416, building).
holds(2416, feature).
holds(2416, suburban).
holds(2416, miscresidential).
holds(2416, countryhouse).
holds(2416, residential).
holds(2416, porch).
holds(2416, table).
holds(2416, tiledroof).
holds(2416, car).

sample(2417).
holds(2417, building).
holds(2417, feature).
holds(2417, awning).
holds(2417, table).

sample(2418).
holds(2418, building).
holds(2418, feature).
holds(2418, powerplant).
holds(2418, industrial).
holds(2418, awning).
holds(2418, chimney).
holds(2418, pipe).

sample(2419).
holds(2419, building).
holds(2419, feature).
holds(2419, miscresidential).
holds(2419, residential).
holds(2419, table).
holds(2419, tiledroof).

sample(2420).
holds(2420, building).
holds(2420, feature).
holds(2420, awning).
holds(2420, table).

sample(2421).
holds(2421, building).
holds(2421, feature).
holds(2421, powerplant).
holds(2421, industrial).
holds(2421, awning).
holds(2421, chimney).
holds(2421, pipe).

sample(2422).
holds(2422, building).
holds(2422, feature).
holds(2422, suburban).
holds(2422, miscresidential).
holds(2422, residential).
holds(2422, porch).
holds(2422, table).
holds(2422, tiledroof).

sample(2423).
holds(2423, building).
holds(2423, feature).
holds(2423, awning).
holds(2423, table).

sample(2424).
holds(2424, building).
holds(2424, feature).
holds(2424, watertreatment).
holds(2424, industrial).
holds(2424, awning).
holds(2424, pipe).
holds(2424, truck).

sample(2425).
holds(2425, building).
holds(2425, feature).
holds(2425, suburban).
holds(2425, residential).
holds(2425, awning).
holds(2425, porch).
holds(2425, table).
holds(2425, tiledroof).

sample(2426).
holds(2426, building).
holds(2426, feature).
holds(2426, awning).
holds(2426, table).

sample(2427).
holds(2427, building).
holds(2427, feature).
holds(2427, miscindustrial).
holds(2427, powerplant).
holds(2427, watertreatment).
holds(2427, industrial).
holds(2427, chimney).
holds(2427, pipe).
holds(2427, truck).

sample(2428).
holds(2428, building).
holds(2428, feature).
holds(2428, miscresidential).
holds(2428, countryhouse).
holds(2428, residential).
holds(2428, table).
holds(2428, tiledroof).
holds(2428, car).

sample(2429).
holds(2429, building).
holds(2429, feature).
holds(2429, awning).
holds(2429, table).

sample(2430).
holds(2430, building).
holds(2430, feature).
holds(2430, powerplant).
holds(2430, watertreatment).
holds(2430, industrial).
holds(2430, awning).
holds(2430, chimney).
holds(2430, pipe).
holds(2430, truck).

sample(2431).
holds(2431, building).
holds(2431, feature).
holds(2431, suburban).
holds(2431, miscresidential).
holds(2431, countryhouse).
holds(2431, residential).
holds(2431, porch).
holds(2431, table).
holds(2431, tiledroof).
holds(2431, car).

sample(2432).
holds(2432, building).
holds(2432, feature).
holds(2432, awning).
holds(2432, table).

sample(2433).
holds(2433, building).
holds(2433, feature).
holds(2433, constructionsite).
holds(2433, powerplant).
holds(2433, awning).
holds(2433, table).
holds(2433, chimney).
holds(2433, pipe).
holds(2433, machine).

sample(2434).
holds(2434, building).
holds(2434, feature).
holds(2434, miscresidential).
holds(2434, residential).
holds(2434, table).
holds(2434, tiledroof).

sample(2435).
holds(2435, building).
holds(2435, feature).
holds(2435, awning).
holds(2435, table).

sample(2436).
holds(2436, building).
holds(2436, feature).
holds(2436, miscindustrial).
holds(2436, powerplant).
holds(2436, watertreatment).
holds(2436, industrial).
holds(2436, chimney).
holds(2436, pipe).
holds(2436, truck).

sample(2437).
holds(2437, building).
holds(2437, feature).
holds(2437, suburban).
holds(2437, residential).
holds(2437, awning).
holds(2437, porch).
holds(2437, table).
holds(2437, tiledroof).

sample(2438).
holds(2438, building).
holds(2438, feature).
holds(2438, awning).
holds(2438, table).

sample(2439).
holds(2439, building).
holds(2439, feature).
holds(2439, powerplant).
holds(2439, industrial).
holds(2439, awning).
holds(2439, chimney).
holds(2439, pipe).

sample(2440).
holds(2440, building).
holds(2440, feature).
holds(2440, suburban).
holds(2440, residential).
holds(2440, awning).
holds(2440, porch).
holds(2440, table).
holds(2440, tiledroof).

sample(2441).
holds(2441, building).
holds(2441, feature).
holds(2441, awning).
holds(2441, table).

sample(2442).
holds(2442, building).
holds(2442, feature).
holds(2442, powerplant).
holds(2442, watertreatment).
holds(2442, industrial).
holds(2442, awning).
holds(2442, chimney).
holds(2442, pipe).
holds(2442, truck).

sample(2443).
holds(2443, building).
holds(2443, feature).
holds(2443, suburban).
holds(2443, miscresidential).
holds(2443, countryhouse).
holds(2443, residential).
holds(2443, porch).
holds(2443, table).
holds(2443, tiledroof).
holds(2443, car).

sample(2444).
holds(2444, building).
holds(2444, feature).
holds(2444, awning).
holds(2444, table).

sample(2445).
holds(2445, building).
holds(2445, feature).
holds(2445, miscindustrial).
holds(2445, watertreatment).
holds(2445, industrial).
holds(2445, pipe).
holds(2445, truck).

sample(2446).
holds(2446, building).
holds(2446, feature).
holds(2446, suburban).
holds(2446, residential).
holds(2446, awning).
holds(2446, porch).
holds(2446, table).
holds(2446, tiledroof).

sample(2447).
holds(2447, building).
holds(2447, feature).
holds(2447, awning).
holds(2447, table).

sample(2448).
holds(2448, building).
holds(2448, feature).
holds(2448, powerplant).
holds(2448, industrial).
holds(2448, awning).
holds(2448, chimney).
holds(2448, pipe).

sample(2449).
holds(2449, building).
holds(2449, feature).
holds(2449, suburban).
holds(2449, residential).
holds(2449, awning).
holds(2449, porch).
holds(2449, table).
holds(2449, tiledroof).

sample(2450).
holds(2450, building).
holds(2450, feature).
holds(2450, awning).
holds(2450, table).

sample(2451).
holds(2451, building).
holds(2451, feature).
holds(2451, watertreatment).
holds(2451, industrial).
holds(2451, pipe).
holds(2451, truck).

sample(2452).
holds(2452, building).
holds(2452, feature).
holds(2452, suburban).
holds(2452, miscresidential).
holds(2452, residential).
holds(2452, porch).
holds(2452, table).
holds(2452, tiledroof).

sample(2453).
holds(2453, building).
holds(2453, feature).
holds(2453, awning).
holds(2453, table).

sample(2454).
holds(2454, building).
holds(2454, feature).
holds(2454, powerplant).
holds(2454, industrial).
holds(2454, awning).
holds(2454, chimney).
holds(2454, pipe).

sample(2455).
holds(2455, building).
holds(2455, feature).
holds(2455, suburban).
holds(2455, miscresidential).
holds(2455, residential).
holds(2455, porch).
holds(2455, table).
holds(2455, tiledroof).

sample(2456).
holds(2456, building).
holds(2456, feature).
holds(2456, awning).
holds(2456, table).

sample(2457).
holds(2457, building).
holds(2457, feature).
holds(2457, constructionsite).
holds(2457, awning).
holds(2457, table).
holds(2457, machine).

sample(2458).
holds(2458, building).
holds(2458, feature).
holds(2458, suburban).
holds(2458, miscresidential).
holds(2458, residential).
holds(2458, porch).
holds(2458, table).
holds(2458, tiledroof).

sample(2459).
holds(2459, building).
holds(2459, feature).
holds(2459, awning).
holds(2459, table).

sample(2460).
holds(2460, building).
holds(2460, feature).
holds(2460, watertreatment).
holds(2460, industrial).
holds(2460, awning).
holds(2460, pipe).
holds(2460, truck).

sample(2461).
holds(2461, building).
holds(2461, feature).
holds(2461, miscresidential).
holds(2461, countryhouse).
holds(2461, residential).
holds(2461, table).
holds(2461, tiledroof).
holds(2461, car).

sample(2462).
holds(2462, building).
holds(2462, feature).
holds(2462, awning).
holds(2462, table).

sample(2463).
holds(2463, building).
holds(2463, feature).
holds(2463, miscindustrial).
holds(2463, industrial).
holds(2463, truck).

sample(2464).
holds(2464, building).
holds(2464, feature).
holds(2464, suburban).
holds(2464, miscresidential).
holds(2464, countryhouse).
holds(2464, residential).
holds(2464, porch).
holds(2464, table).
holds(2464, tiledroof).
holds(2464, car).

sample(2465).
holds(2465, building).
holds(2465, feature).
holds(2465, awning).
holds(2465, table).

sample(2466).
holds(2466, building).
holds(2466, feature).
holds(2466, constructionsite).
holds(2466, awning).
holds(2466, table).
holds(2466, machine).

sample(2467).
holds(2467, building).
holds(2467, feature).
holds(2467, suburban).
holds(2467, miscresidential).
holds(2467, residential).
holds(2467, porch).
holds(2467, table).
holds(2467, tiledroof).

sample(2468).
holds(2468, building).
holds(2468, feature).
holds(2468, awning).
holds(2468, table).

sample(2469).
holds(2469, building).
holds(2469, feature).
holds(2469, powerplant).
holds(2469, industrial).
holds(2469, awning).
holds(2469, chimney).
holds(2469, pipe).

sample(2470).
holds(2470, building).
holds(2470, feature).
holds(2470, miscresidential).
holds(2470, countryhouse).
holds(2470, residential).
holds(2470, table).
holds(2470, tiledroof).
holds(2470, car).

sample(2471).
holds(2471, building).
holds(2471, feature).
holds(2471, awning).
holds(2471, table).

sample(2472).
holds(2472, building).
holds(2472, feature).
holds(2472, powerplant).
holds(2472, industrial).
holds(2472, awning).
holds(2472, chimney).
holds(2472, pipe).

sample(2473).
holds(2473, building).
holds(2473, feature).
holds(2473, suburban).
holds(2473, residential).
holds(2473, awning).
holds(2473, porch).
holds(2473, table).
holds(2473, tiledroof).

sample(2474).
holds(2474, building).
holds(2474, feature).
holds(2474, awning).
holds(2474, table).

sample(2475).
holds(2475, building).
holds(2475, feature).
holds(2475, miscindustrial).
holds(2475, industrial).
holds(2475, truck).

sample(2476).
holds(2476, building).
holds(2476, feature).
holds(2476, suburban).
holds(2476, residential).
holds(2476, awning).
holds(2476, porch).
holds(2476, table).
holds(2476, tiledroof).

sample(2477).
holds(2477, building).
holds(2477, feature).
holds(2477, awning).
holds(2477, table).

sample(2478).
holds(2478, building).
holds(2478, feature).
holds(2478, constructionsite).
holds(2478, awning).
holds(2478, table).
holds(2478, machine).

sample(2479).
holds(2479, building).
holds(2479, feature).
holds(2479, miscresidential).
holds(2479, residential).
holds(2479, table).
holds(2479, tiledroof).

sample(2480).
holds(2480, building).
holds(2480, feature).
holds(2480, awning).
holds(2480, table).

sample(2481).
holds(2481, building).
holds(2481, feature).
holds(2481, powerplant).
holds(2481, industrial).
holds(2481, awning).
holds(2481, chimney).
holds(2481, pipe).

sample(2482).
holds(2482, building).
holds(2482, feature).
holds(2482, miscresidential).
holds(2482, countryhouse).
holds(2482, residential).
holds(2482, table).
holds(2482, tiledroof).
holds(2482, car).

sample(2483).
holds(2483, building).
holds(2483, feature).
holds(2483, awning).
holds(2483, table).

sample(2484).
holds(2484, building).
holds(2484, feature).
holds(2484, miscindustrial).
holds(2484, powerplant).
holds(2484, watertreatment).
holds(2484, industrial).
holds(2484, chimney).
holds(2484, pipe).
holds(2484, truck).

sample(2485).
holds(2485, building).
holds(2485, feature).
holds(2485, miscresidential).
holds(2485, countryhouse).
holds(2485, residential).
holds(2485, table).
holds(2485, tiledroof).
holds(2485, car).

sample(2486).
holds(2486, building).
holds(2486, feature).
holds(2486, awning).
holds(2486, table).

sample(2487).
holds(2487, building).
holds(2487, feature).
holds(2487, powerplant).
holds(2487, industrial).
holds(2487, awning).
holds(2487, chimney).
holds(2487, pipe).

sample(2488).
holds(2488, building).
holds(2488, feature).
holds(2488, suburban).
holds(2488, miscresidential).
holds(2488, countryhouse).
holds(2488, residential).
holds(2488, porch).
holds(2488, table).
holds(2488, tiledroof).
holds(2488, car).

sample(2489).
holds(2489, building).
holds(2489, feature).
holds(2489, awning).
holds(2489, table).

sample(2490).
holds(2490, building).
holds(2490, feature).
holds(2490, powerplant).
holds(2490, industrial).
holds(2490, awning).
holds(2490, chimney).
holds(2490, pipe).

sample(2491).
holds(2491, building).
holds(2491, feature).
holds(2491, suburban).
holds(2491, miscresidential).
holds(2491, countryhouse).
holds(2491, residential).
holds(2491, porch).
holds(2491, table).
holds(2491, tiledroof).
holds(2491, car).

sample(2492).
holds(2492, building).
holds(2492, feature).
holds(2492, awning).
holds(2492, table).

sample(2493).
holds(2493, building).
holds(2493, feature).
holds(2493, miscindustrial).
holds(2493, powerplant).
holds(2493, watertreatment).
holds(2493, industrial).
holds(2493, chimney).
holds(2493, pipe).
holds(2493, truck).

sample(2494).
holds(2494, building).
holds(2494, feature).
holds(2494, suburban).
holds(2494, miscresidential).
holds(2494, countryhouse).
holds(2494, residential).
holds(2494, porch).
holds(2494, table).
holds(2494, tiledroof).
holds(2494, car).

sample(2495).
holds(2495, building).
holds(2495, feature).
holds(2495, awning).
holds(2495, table).

sample(2496).
holds(2496, building).
holds(2496, feature).
holds(2496, miscindustrial).
holds(2496, powerplant).
holds(2496, industrial).
holds(2496, truck).

sample(2497).
holds(2497, building).
holds(2497, feature).
holds(2497, suburban).
holds(2497, miscresidential).
holds(2497, residential).
holds(2497, porch).
holds(2497, table).
holds(2497, tiledroof).

sample(2498).
holds(2498, building).
holds(2498, feature).
holds(2498, awning).
holds(2498, table).

sample(2499).
holds(2499, building).
holds(2499, feature).
holds(2499, miscindustrial).
holds(2499, powerplant).
holds(2499, watertreatment).
holds(2499, industrial).
holds(2499, chimney).
holds(2499, pipe).
holds(2499, truck).

sample(2500).
holds(2500, building).
holds(2500, feature).
holds(2500, suburban).
holds(2500, miscresidential).
holds(2500, residential).
holds(2500, porch).
holds(2500, table).
holds(2500, tiledroof).

sample(2501).
holds(2501, building).
holds(2501, feature).
holds(2501, awning).
holds(2501, table).

sample(2502).
holds(2502, building).
holds(2502, feature).
holds(2502, constructionsite).
holds(2502, powerplant).
holds(2502, awning).
holds(2502, table).
holds(2502, chimney).
holds(2502, pipe).
holds(2502, machine).

sample(2503).
holds(2503, building).
holds(2503, feature).
holds(2503, miscresidential).
holds(2503, countryhouse).
holds(2503, residential).
holds(2503, table).
holds(2503, tiledroof).
holds(2503, car).

sample(2504).
holds(2504, building).
holds(2504, feature).
holds(2504, awning).
holds(2504, table).

sample(2505).
holds(2505, building).
holds(2505, feature).
holds(2505, powerplant).
holds(2505, watertreatment).
holds(2505, industrial).
holds(2505, awning).
holds(2505, chimney).
holds(2505, pipe).
holds(2505, truck).

sample(2506).
holds(2506, building).
holds(2506, feature).
holds(2506, miscresidential).
holds(2506, countryhouse).
holds(2506, residential).
holds(2506, table).
holds(2506, tiledroof).
holds(2506, car).

sample(2507).
holds(2507, building).
holds(2507, feature).
holds(2507, awning).
holds(2507, table).

sample(2508).
holds(2508, building).
holds(2508, feature).
holds(2508, miscindustrial).
holds(2508, watertreatment).
holds(2508, industrial).
holds(2508, truck).

sample(2509).
holds(2509, building).
holds(2509, feature).
holds(2509, suburban).
holds(2509, miscresidential).
holds(2509, residential).
holds(2509, porch).
holds(2509, table).
holds(2509, tiledroof).

sample(2510).
holds(2510, building).
holds(2510, feature).
holds(2510, powerplant).
holds(2510, industrial).
holds(2510, awning).
holds(2510, chimney).
holds(2510, pipe).

sample(2511).
holds(2511, building).
holds(2511, feature).
holds(2511, miscindustrial).
holds(2511, industrial).
holds(2511, truck).

sample(2512).
holds(2512, building).
holds(2512, feature).
holds(2512, miscresidential).
holds(2512, residential).
holds(2512, table).
holds(2512, tiledroof).

sample(2513).
holds(2513, building).
holds(2513, feature).
holds(2513, awning).

sample(2514).
holds(2514, building).
holds(2514, feature).
holds(2514, constructionsite).
holds(2514, awning).
holds(2514, table).
holds(2514, machine).

sample(2515).
holds(2515, building).
holds(2515, feature).
holds(2515, suburban).
holds(2515, residential).
holds(2515, awning).
holds(2515, porch).
holds(2515, table).
holds(2515, tiledroof).

sample(2516).
holds(2516, building).
holds(2516, feature).
holds(2516, awning).
holds(2516, table).

sample(2517).
holds(2517, building).
holds(2517, feature).
holds(2517, powerplant).
holds(2517, watertreatment).
holds(2517, industrial).
holds(2517, awning).
holds(2517, chimney).
holds(2517, pipe).
holds(2517, truck).

sample(2518).
holds(2518, building).
holds(2518, feature).
holds(2518, suburban).
holds(2518, miscresidential).
holds(2518, residential).
holds(2518, porch).
holds(2518, table).
holds(2518, tiledroof).

sample(2519).
holds(2519, building).
holds(2519, feature).
holds(2519, awning).
holds(2519, table).

sample(2520).
holds(2520, building).
holds(2520, feature).
holds(2520, powerplant).
holds(2520, watertreatment).
holds(2520, industrial).
holds(2520, awning).
holds(2520, chimney).
holds(2520, pipe).
holds(2520, truck).

sample(2521).
holds(2521, building).
holds(2521, feature).
holds(2521, suburban).
holds(2521, residential).
holds(2521, awning).
holds(2521, porch).
holds(2521, table).
holds(2521, tiledroof).

sample(2522).
holds(2522, building).
holds(2522, feature).
holds(2522, awning).
holds(2522, table).

sample(2523).
holds(2523, building).
holds(2523, feature).
holds(2523, constructionsite).
holds(2523, awning).
holds(2523, table).
holds(2523, machine).

sample(2524).
holds(2524, building).
holds(2524, feature).
holds(2524, miscresidential).
holds(2524, countryhouse).
holds(2524, residential).
holds(2524, table).
holds(2524, tiledroof).
holds(2524, car).

sample(2525).
holds(2525, building).
holds(2525, feature).
holds(2525, awning).
holds(2525, table).

sample(2526).
holds(2526, building).
holds(2526, feature).
holds(2526, miscindustrial).
holds(2526, industrial).
holds(2526, truck).

sample(2527).
holds(2527, building).
holds(2527, feature).
holds(2527, suburban).
holds(2527, miscresidential).
holds(2527, countryhouse).
holds(2527, residential).
holds(2527, porch).
holds(2527, table).
holds(2527, tiledroof).
holds(2527, car).

sample(2528).
holds(2528, building).
holds(2528, feature).
holds(2528, awning).
holds(2528, table).

sample(2529).
holds(2529, building).
holds(2529, feature).
holds(2529, miscindustrial).
holds(2529, watertreatment).
holds(2529, industrial).
holds(2529, pipe).
holds(2529, truck).

sample(2530).
holds(2530, building).
holds(2530, feature).
holds(2530, suburban).
holds(2530, residential).
holds(2530, awning).
holds(2530, porch).
holds(2530, table).
holds(2530, tiledroof).

sample(2531).
holds(2531, building).
holds(2531, feature).
holds(2531, awning).
holds(2531, table).

sample(2532).
holds(2532, building).
holds(2532, feature).
holds(2532, miscindustrial).
holds(2532, powerplant).
holds(2532, watertreatment).
holds(2532, industrial).
holds(2532, chimney).
holds(2532, pipe).
holds(2532, truck).

sample(2533).
holds(2533, building).
holds(2533, feature).
holds(2533, miscresidential).
holds(2533, countryhouse).
holds(2533, residential).
holds(2533, table).
holds(2533, tiledroof).
holds(2533, car).

sample(2534).
holds(2534, building).
holds(2534, feature).
holds(2534, awning).
holds(2534, table).

sample(2535).
holds(2535, building).
holds(2535, feature).
holds(2535, constructionsite).
holds(2535, powerplant).
holds(2535, awning).
holds(2535, table).
holds(2535, chimney).
holds(2535, pipe).
holds(2535, machine).

sample(2536).
holds(2536, building).
holds(2536, feature).
holds(2536, miscresidential).
holds(2536, countryhouse).
holds(2536, residential).
holds(2536, table).
holds(2536, tiledroof).
holds(2536, car).

sample(2537).
holds(2537, building).
holds(2537, feature).
holds(2537, awning).
holds(2537, table).

sample(2538).
holds(2538, building).
holds(2538, feature).
holds(2538, miscindustrial).
holds(2538, industrial).
holds(2538, truck).

sample(2539).
holds(2539, building).
holds(2539, feature).
holds(2539, suburban).
holds(2539, miscresidential).
holds(2539, countryhouse).
holds(2539, residential).
holds(2539, porch).
holds(2539, table).
holds(2539, tiledroof).
holds(2539, car).

sample(2540).
holds(2540, building).
holds(2540, feature).
holds(2540, awning).
holds(2540, table).

sample(2541).
holds(2541, building).
holds(2541, feature).
holds(2541, constructionsite).
holds(2541, powerplant).
holds(2541, awning).
holds(2541, table).
holds(2541, chimney).
holds(2541, pipe).
holds(2541, machine).

sample(2542).
holds(2542, building).
holds(2542, feature).
holds(2542, suburban).
holds(2542, residential).
holds(2542, awning).
holds(2542, porch).
holds(2542, table).
holds(2542, tiledroof).

sample(2543).
holds(2543, building).
holds(2543, feature).
holds(2543, awning).
holds(2543, table).

sample(2544).
holds(2544, building).
holds(2544, feature).
holds(2544, constructionsite).
holds(2544, powerplant).
holds(2544, awning).
holds(2544, table).
holds(2544, chimney).
holds(2544, pipe).
holds(2544, machine).

sample(2545).
holds(2545, building).
holds(2545, feature).
holds(2545, suburban).
holds(2545, miscresidential).
holds(2545, residential).
holds(2545, porch).
holds(2545, table).
holds(2545, tiledroof).

sample(2546).
holds(2546, building).
holds(2546, feature).
holds(2546, awning).
holds(2546, table).

sample(2547).
holds(2547, building).
holds(2547, feature).
holds(2547, miscindustrial).
holds(2547, industrial).
holds(2547, truck).

sample(2548).
holds(2548, building).
holds(2548, feature).
holds(2548, miscresidential).
holds(2548, residential).
holds(2548, table).
holds(2548, tiledroof).

sample(2549).
holds(2549, building).
holds(2549, feature).
holds(2549, awning).
holds(2549, table).

sample(2550).
holds(2550, building).
holds(2550, feature).
holds(2550, constructionsite).
holds(2550, powerplant).
holds(2550, awning).
holds(2550, table).
holds(2550, chimney).
holds(2550, pipe).
holds(2550, machine).

sample(2551).
holds(2551, building).
holds(2551, feature).
holds(2551, miscresidential).
holds(2551, countryhouse).
holds(2551, residential).
holds(2551, table).
holds(2551, tiledroof).
holds(2551, car).

sample(2552).
holds(2552, building).
holds(2552, feature).
holds(2552, awning).
holds(2552, table).

sample(2553).
holds(2553, building).
holds(2553, feature).
holds(2553, miscindustrial).
holds(2553, industrial).
holds(2553, truck).

sample(2554).
holds(2554, building).
holds(2554, feature).
holds(2554, suburban).
holds(2554, miscresidential).
holds(2554, residential).
holds(2554, porch).
holds(2554, table).
holds(2554, tiledroof).

sample(2555).
holds(2555, building).
holds(2555, feature).
holds(2555, awning).
holds(2555, table).

sample(2556).
holds(2556, building).
holds(2556, feature).
holds(2556, miscindustrial).
holds(2556, powerplant).
holds(2556, watertreatment).
holds(2556, industrial).
holds(2556, chimney).
holds(2556, pipe).
holds(2556, truck).

sample(2557).
holds(2557, building).
holds(2557, feature).
holds(2557, suburban).
holds(2557, miscresidential).
holds(2557, countryhouse).
holds(2557, residential).
holds(2557, porch).
holds(2557, table).
holds(2557, tiledroof).
holds(2557, car).

sample(2558).
holds(2558, building).
holds(2558, feature).
holds(2558, awning).
holds(2558, table).

sample(2559).
holds(2559, building).
holds(2559, feature).
holds(2559, constructionsite).
holds(2559, awning).
holds(2559, table).
holds(2559, machine).

sample(2560).
holds(2560, building).
holds(2560, feature).
holds(2560, suburban).
holds(2560, miscresidential).
holds(2560, residential).
holds(2560, porch).
holds(2560, table).
holds(2560, tiledroof).

sample(2561).
holds(2561, building).
holds(2561, feature).
holds(2561, awning).
holds(2561, table).

sample(2562).
holds(2562, building).
holds(2562, feature).
holds(2562, miscindustrial).
holds(2562, watertreatment).
holds(2562, industrial).
holds(2562, truck).

sample(2563).
holds(2563, building).
holds(2563, feature).
holds(2563, suburban).
holds(2563, residential).
holds(2563, awning).
holds(2563, porch).
holds(2563, table).
holds(2563, tiledroof).

sample(2564).
holds(2564, building).
holds(2564, feature).
holds(2564, awning).
holds(2564, table).

sample(2565).
holds(2565, building).
holds(2565, feature).
holds(2565, miscindustrial).
holds(2565, powerplant).
holds(2565, watertreatment).
holds(2565, industrial).
holds(2565, chimney).
holds(2565, pipe).
holds(2565, truck).

sample(2566).
holds(2566, building).
holds(2566, feature).
holds(2566, suburban).
holds(2566, miscresidential).
holds(2566, residential).
holds(2566, porch).
holds(2566, table).
holds(2566, tiledroof).

sample(2567).
holds(2567, building).
holds(2567, feature).
holds(2567, awning).
holds(2567, table).

sample(2568).
holds(2568, building).
holds(2568, feature).
holds(2568, miscindustrial).
holds(2568, industrial).
holds(2568, truck).

sample(2569).
holds(2569, building).
holds(2569, feature).
holds(2569, suburban).
holds(2569, miscresidential).
holds(2569, residential).
holds(2569, porch).
holds(2569, table).
holds(2569, tiledroof).

sample(2570).
holds(2570, building).
holds(2570, feature).
holds(2570, awning).
holds(2570, table).

sample(2571).
holds(2571, building).
holds(2571, feature).
holds(2571, powerplant).
holds(2571, industrial).
holds(2571, awning).
holds(2571, chimney).
holds(2571, pipe).

sample(2572).
holds(2572, building).
holds(2572, feature).
holds(2572, suburban).
holds(2572, miscresidential).
holds(2572, residential).
holds(2572, porch).
holds(2572, table).
holds(2572, tiledroof).

sample(2573).
holds(2573, building).
holds(2573, feature).
holds(2573, awning).
holds(2573, table).

sample(2574).
holds(2574, building).
holds(2574, feature).
holds(2574, constructionsite).
holds(2574, awning).
holds(2574, table).
holds(2574, machine).

sample(2575).
holds(2575, building).
holds(2575, feature).
holds(2575, suburban).
holds(2575, miscresidential).
holds(2575, residential).
holds(2575, porch).
holds(2575, table).
holds(2575, tiledroof).

sample(2576).
holds(2576, building).
holds(2576, feature).
holds(2576, awning).
holds(2576, table).

sample(2577).
holds(2577, building).
holds(2577, feature).
holds(2577, miscindustrial).
holds(2577, industrial).
holds(2577, truck).

sample(2578).
holds(2578, building).
holds(2578, feature).
holds(2578, miscresidential).
holds(2578, residential).
holds(2578, table).
holds(2578, tiledroof).

sample(2579).
holds(2579, building).
holds(2579, feature).
holds(2579, awning).
holds(2579, table).

sample(2580).
holds(2580, building).
holds(2580, feature).
holds(2580, constructionsite).
holds(2580, awning).
holds(2580, table).
holds(2580, machine).

sample(2581).
holds(2581, building).
holds(2581, feature).
holds(2581, suburban).
holds(2581, residential).
holds(2581, awning).
holds(2581, porch).
holds(2581, table).
holds(2581, tiledroof).

sample(2582).
holds(2582, building).
holds(2582, feature).
holds(2582, awning).
holds(2582, table).

sample(2583).
holds(2583, building).
holds(2583, feature).
holds(2583, powerplant).
holds(2583, watertreatment).
holds(2583, industrial).
holds(2583, awning).
holds(2583, chimney).
holds(2583, pipe).
holds(2583, truck).

sample(2584).
holds(2584, building).
holds(2584, feature).
holds(2584, miscresidential).
holds(2584, countryhouse).
holds(2584, residential).
holds(2584, table).
holds(2584, tiledroof).
holds(2584, car).

sample(2585).
holds(2585, building).
holds(2585, feature).
holds(2585, awning).
holds(2585, table).

sample(2586).
holds(2586, building).
holds(2586, feature).
holds(2586, miscindustrial).
holds(2586, powerplant).
holds(2586, watertreatment).
holds(2586, industrial).
holds(2586, chimney).
holds(2586, pipe).
holds(2586, truck).

sample(2587).
holds(2587, building).
holds(2587, feature).
holds(2587, suburban).
holds(2587, residential).
holds(2587, awning).
holds(2587, porch).
holds(2587, table).
holds(2587, tiledroof).

sample(2588).
holds(2588, building).
holds(2588, feature).
holds(2588, awning).
holds(2588, table).

sample(2589).
holds(2589, building).
holds(2589, feature).
holds(2589, miscindustrial).
holds(2589, industrial).
holds(2589, truck).

sample(2590).
holds(2590, building).
holds(2590, feature).
holds(2590, suburban).
holds(2590, residential).
holds(2590, awning).
holds(2590, porch).
holds(2590, table).
holds(2590, tiledroof).

sample(2591).
holds(2591, building).
holds(2591, feature).
holds(2591, awning).
holds(2591, table).

sample(2592).
holds(2592, building).
holds(2592, feature).
holds(2592, constructionsite).
holds(2592, awning).
holds(2592, table).
holds(2592, machine).

sample(2593).
holds(2593, building).
holds(2593, feature).
holds(2593, suburban).
holds(2593, miscresidential).
holds(2593, countryhouse).
holds(2593, residential).
holds(2593, porch).
holds(2593, table).
holds(2593, tiledroof).
holds(2593, car).

sample(2594).
holds(2594, building).
holds(2594, feature).
holds(2594, awning).
holds(2594, table).

sample(2595).
holds(2595, building).
holds(2595, feature).
holds(2595, constructionsite).
holds(2595, awning).
holds(2595, table).
holds(2595, machine).

sample(2596).
holds(2596, building).
holds(2596, feature).
holds(2596, miscresidential).
holds(2596, countryhouse).
holds(2596, residential).
holds(2596, table).
holds(2596, tiledroof).
holds(2596, car).

sample(2597).
holds(2597, building).
holds(2597, feature).
holds(2597, awning).
holds(2597, table).

sample(2598).
holds(2598, building).
holds(2598, feature).
holds(2598, miscindustrial).
holds(2598, powerplant).
holds(2598, watertreatment).
holds(2598, industrial).
holds(2598, chimney).
holds(2598, pipe).
holds(2598, truck).

sample(2599).
holds(2599, building).
holds(2599, feature).
holds(2599, suburban).
holds(2599, residential).
holds(2599, awning).
holds(2599, porch).
holds(2599, table).
holds(2599, tiledroof).

sample(2600).
holds(2600, building).
holds(2600, feature).
holds(2600, awning).
holds(2600, table).

sample(2601).
holds(2601, building).
holds(2601, feature).
holds(2601, miscindustrial).
holds(2601, powerplant).
holds(2601, watertreatment).
holds(2601, industrial).
holds(2601, chimney).
holds(2601, pipe).
holds(2601, truck).

sample(2602).
holds(2602, building).
holds(2602, feature).
holds(2602, suburban).
holds(2602, miscresidential).
holds(2602, countryhouse).
holds(2602, residential).
holds(2602, porch).
holds(2602, table).
holds(2602, tiledroof).
holds(2602, car).

sample(2603).
holds(2603, building).
holds(2603, feature).
holds(2603, awning).
holds(2603, table).

sample(2604).
holds(2604, building).
holds(2604, feature).
holds(2604, constructionsite).
holds(2604, awning).
holds(2604, table).
holds(2604, machine).

sample(2605).
holds(2605, building).
holds(2605, feature).
holds(2605, suburban).
holds(2605, residential).
holds(2605, awning).
holds(2605, porch).
holds(2605, table).
holds(2605, tiledroof).

sample(2606).
holds(2606, building).
holds(2606, feature).
holds(2606, awning).
holds(2606, table).

sample(2607).
holds(2607, building).
holds(2607, feature).
holds(2607, constructionsite).
holds(2607, awning).
holds(2607, table).
holds(2607, machine).

sample(2608).
holds(2608, building).
holds(2608, feature).
holds(2608, suburban).
holds(2608, miscresidential).
holds(2608, countryhouse).
holds(2608, residential).
holds(2608, porch).
holds(2608, table).
holds(2608, tiledroof).
holds(2608, car).

sample(2609).
holds(2609, building).
holds(2609, feature).
holds(2609, awning).
holds(2609, table).

sample(2610).
holds(2610, building).
holds(2610, feature).
holds(2610, watertreatment).
holds(2610, industrial).
holds(2610, awning).
holds(2610, pipe).
holds(2610, truck).

sample(2611).
holds(2611, building).
holds(2611, feature).
holds(2611, suburban).
holds(2611, miscresidential).
holds(2611, countryhouse).
holds(2611, residential).
holds(2611, porch).
holds(2611, table).
holds(2611, tiledroof).
holds(2611, car).

sample(2612).
holds(2612, building).
holds(2612, feature).
holds(2612, awning).
holds(2612, table).

sample(2613).
holds(2613, building).
holds(2613, feature).
holds(2613, miscindustrial).
holds(2613, powerplant).
holds(2613, watertreatment).
holds(2613, industrial).
holds(2613, chimney).
holds(2613, pipe).
holds(2613, truck).

sample(2614).
holds(2614, building).
holds(2614, feature).
holds(2614, suburban).
holds(2614, miscresidential).
holds(2614, residential).
holds(2614, porch).
holds(2614, table).
holds(2614, tiledroof).

sample(2615).
holds(2615, building).
holds(2615, feature).
holds(2615, awning).
holds(2615, table).

sample(2616).
holds(2616, building).
holds(2616, feature).
holds(2616, miscindustrial).
holds(2616, powerplant).
holds(2616, watertreatment).
holds(2616, industrial).
holds(2616, chimney).
holds(2616, pipe).
holds(2616, truck).

sample(2617).
holds(2617, building).
holds(2617, feature).
holds(2617, miscresidential).
holds(2617, countryhouse).
holds(2617, residential).
holds(2617, table).
holds(2617, tiledroof).
holds(2617, car).

sample(2618).
holds(2618, building).
holds(2618, feature).
holds(2618, awning).
holds(2618, table).

sample(2619).
holds(2619, building).
holds(2619, feature).
holds(2619, miscindustrial).
holds(2619, industrial).
holds(2619, truck).

sample(2620).
holds(2620, building).
holds(2620, feature).
holds(2620, miscresidential).
holds(2620, countryhouse).
holds(2620, residential).
holds(2620, table).
holds(2620, tiledroof).
holds(2620, car).

sample(2621).
holds(2621, building).
holds(2621, feature).
holds(2621, awning).
holds(2621, table).

sample(2622).
holds(2622, building).
holds(2622, feature).
holds(2622, constructionsite).
holds(2622, awning).
holds(2622, table).
holds(2622, machine).

sample(2623).
holds(2623, building).
holds(2623, feature).
holds(2623, suburban).
holds(2623, miscresidential).
holds(2623, residential).
holds(2623, porch).
holds(2623, table).
holds(2623, tiledroof).

sample(2624).
holds(2624, building).
holds(2624, feature).
holds(2624, awning).
holds(2624, table).

sample(2625).
holds(2625, building).
holds(2625, feature).
holds(2625, miscindustrial).
holds(2625, powerplant).
holds(2625, watertreatment).
holds(2625, industrial).
holds(2625, chimney).
holds(2625, pipe).
holds(2625, truck).

sample(2626).
holds(2626, building).
holds(2626, feature).
holds(2626, suburban).
holds(2626, residential).
holds(2626, awning).
holds(2626, porch).
holds(2626, table).
holds(2626, tiledroof).

sample(2627).
holds(2627, building).
holds(2627, feature).
holds(2627, awning).
holds(2627, table).

sample(2628).
holds(2628, building).
holds(2628, feature).
holds(2628, powerplant).
holds(2628, industrial).
holds(2628, awning).
holds(2628, chimney).
holds(2628, pipe).

sample(2629).
holds(2629, building).
holds(2629, feature).
holds(2629, suburban).
holds(2629, miscresidential).
holds(2629, countryhouse).
holds(2629, residential).
holds(2629, porch).
holds(2629, table).
holds(2629, tiledroof).
holds(2629, car).

sample(2630).
holds(2630, building).
holds(2630, feature).
holds(2630, awning).
holds(2630, table).

sample(2631).
holds(2631, building).
holds(2631, feature).
holds(2631, miscindustrial).
holds(2631, industrial).
holds(2631, truck).

sample(2632).
holds(2632, building).
holds(2632, feature).
holds(2632, miscresidential).
holds(2632, countryhouse).
holds(2632, residential).
holds(2632, table).
holds(2632, tiledroof).
holds(2632, car).

sample(2633).
holds(2633, building).
holds(2633, feature).
holds(2633, awning).
holds(2633, table).

sample(2634).
holds(2634, building).
holds(2634, feature).
holds(2634, miscindustrial).
holds(2634, powerplant).
holds(2634, watertreatment).
holds(2634, industrial).
holds(2634, chimney).
holds(2634, pipe).
holds(2634, truck).

sample(2635).
holds(2635, building).
holds(2635, feature).
holds(2635, suburban).
holds(2635, residential).
holds(2635, awning).
holds(2635, porch).
holds(2635, table).
holds(2635, tiledroof).

sample(2636).
holds(2636, building).
holds(2636, feature).
holds(2636, awning).
holds(2636, table).

sample(2637).
holds(2637, building).
holds(2637, feature).
holds(2637, miscindustrial).
holds(2637, powerplant).
holds(2637, watertreatment).
holds(2637, industrial).
holds(2637, chimney).
holds(2637, pipe).
holds(2637, truck).

sample(2638).
holds(2638, building).
holds(2638, feature).
holds(2638, suburban).
holds(2638, miscresidential).
holds(2638, countryhouse).
holds(2638, residential).
holds(2638, porch).
holds(2638, table).
holds(2638, tiledroof).
holds(2638, car).

sample(2639).
holds(2639, building).
holds(2639, feature).
holds(2639, awning).
holds(2639, table).

sample(2640).
holds(2640, building).
holds(2640, feature).
holds(2640, miscindustrial).
holds(2640, powerplant).
holds(2640, watertreatment).
holds(2640, industrial).
holds(2640, chimney).
holds(2640, pipe).
holds(2640, truck).

sample(2641).
holds(2641, building).
holds(2641, feature).
holds(2641, suburban).
holds(2641, miscresidential).
holds(2641, countryhouse).
holds(2641, residential).
holds(2641, porch).
holds(2641, table).
holds(2641, tiledroof).
holds(2641, car).

sample(2642).
holds(2642, building).
holds(2642, feature).
holds(2642, awning).
holds(2642, table).

sample(2643).
holds(2643, building).
holds(2643, feature).
holds(2643, powerplant).
holds(2643, industrial).
holds(2643, awning).
holds(2643, chimney).
holds(2643, pipe).

sample(2644).
holds(2644, building).
holds(2644, feature).
holds(2644, suburban).
holds(2644, miscresidential).
holds(2644, residential).
holds(2644, porch).
holds(2644, table).
holds(2644, tiledroof).

sample(2645).
holds(2645, building).
holds(2645, feature).
holds(2645, awning).
holds(2645, table).

sample(2646).
holds(2646, building).
holds(2646, feature).
holds(2646, constructionsite).
holds(2646, awning).
holds(2646, table).
holds(2646, machine).

sample(2647).
holds(2647, building).
holds(2647, feature).
holds(2647, suburban).
holds(2647, miscresidential).
holds(2647, residential).
holds(2647, porch).
holds(2647, table).
holds(2647, tiledroof).

sample(2648).
holds(2648, building).
holds(2648, feature).
holds(2648, awning).
holds(2648, table).

sample(2649).
holds(2649, building).
holds(2649, feature).
holds(2649, constructionsite).
holds(2649, awning).
holds(2649, table).
holds(2649, machine).

sample(2650).
holds(2650, building).
holds(2650, feature).
holds(2650, suburban).
holds(2650, miscresidential).
holds(2650, residential).
holds(2650, porch).
holds(2650, table).
holds(2650, tiledroof).

sample(2651).
holds(2651, building).
holds(2651, feature).
holds(2651, awning).
holds(2651, table).

sample(2652).
holds(2652, building).
holds(2652, feature).
holds(2652, constructionsite).
holds(2652, awning).
holds(2652, table).
holds(2652, machine).

sample(2653).
holds(2653, building).
holds(2653, feature).
holds(2653, suburban).
holds(2653, miscresidential).
holds(2653, countryhouse).
holds(2653, residential).
holds(2653, porch).
holds(2653, table).
holds(2653, tiledroof).
holds(2653, car).

sample(2654).
holds(2654, building).
holds(2654, feature).
holds(2654, awning).
holds(2654, table).

sample(2655).
holds(2655, building).
holds(2655, feature).
holds(2655, miscindustrial).
holds(2655, powerplant).
holds(2655, watertreatment).
holds(2655, industrial).
holds(2655, chimney).
holds(2655, pipe).
holds(2655, truck).

sample(2656).
holds(2656, building).
holds(2656, feature).
holds(2656, miscresidential).
holds(2656, residential).
holds(2656, table).
holds(2656, tiledroof).

sample(2657).
holds(2657, building).
holds(2657, feature).
holds(2657, awning).
holds(2657, table).

sample(2658).
holds(2658, building).
holds(2658, feature).
holds(2658, constructionsite).
holds(2658, awning).
holds(2658, table).
holds(2658, machine).

sample(2659).
holds(2659, building).
holds(2659, feature).
holds(2659, miscresidential).
holds(2659, countryhouse).
holds(2659, residential).
holds(2659, table).
holds(2659, tiledroof).
holds(2659, car).

sample(2660).
holds(2660, building).
holds(2660, feature).
holds(2660, awning).
holds(2660, table).

sample(2661).
holds(2661, building).
holds(2661, feature).
holds(2661, powerplant).
holds(2661, industrial).
holds(2661, awning).
holds(2661, chimney).
holds(2661, pipe).

sample(2662).
holds(2662, building).
holds(2662, feature).
holds(2662, suburban).
holds(2662, residential).
holds(2662, awning).
holds(2662, porch).
holds(2662, table).
holds(2662, tiledroof).

sample(2663).
holds(2663, building).
holds(2663, feature).
holds(2663, awning).
holds(2663, table).

sample(2664).
holds(2664, building).
holds(2664, feature).
holds(2664, constructionsite).
holds(2664, awning).
holds(2664, table).
holds(2664, machine).

sample(2665).
holds(2665, building).
holds(2665, feature).
holds(2665, suburban).
holds(2665, miscresidential).
holds(2665, countryhouse).
holds(2665, residential).
holds(2665, porch).
holds(2665, table).
holds(2665, tiledroof).
holds(2665, car).

sample(2666).
holds(2666, building).
holds(2666, feature).
holds(2666, awning).
holds(2666, table).

sample(2667).
holds(2667, building).
holds(2667, feature).
holds(2667, miscindustrial).
holds(2667, watertreatment).
holds(2667, industrial).
holds(2667, pipe).
holds(2667, truck).

sample(2668).
holds(2668, building).
holds(2668, feature).
holds(2668, suburban).
holds(2668, miscresidential).
holds(2668, countryhouse).
holds(2668, residential).
holds(2668, porch).
holds(2668, table).
holds(2668, tiledroof).
holds(2668, car).

sample(2669).
holds(2669, building).
holds(2669, feature).
holds(2669, awning).
holds(2669, table).

sample(2670).
holds(2670, building).
holds(2670, feature).
holds(2670, miscindustrial).
holds(2670, powerplant).
holds(2670, watertreatment).
holds(2670, industrial).
holds(2670, chimney).
holds(2670, pipe).
holds(2670, truck).

sample(2671).
holds(2671, building).
holds(2671, feature).
holds(2671, suburban).
holds(2671, residential).
holds(2671, awning).
holds(2671, porch).
holds(2671, table).
holds(2671, tiledroof).

sample(2672).
holds(2672, building).
holds(2672, feature).
holds(2672, awning).
holds(2672, table).

sample(2673).
holds(2673, building).
holds(2673, feature).
holds(2673, constructionsite).
holds(2673, powerplant).
holds(2673, awning).
holds(2673, table).
holds(2673, chimney).
holds(2673, pipe).
holds(2673, machine).

sample(2674).
holds(2674, building).
holds(2674, feature).
holds(2674, suburban).
holds(2674, miscresidential).
holds(2674, countryhouse).
holds(2674, residential).
holds(2674, porch).
holds(2674, table).
holds(2674, tiledroof).
holds(2674, car).

sample(2675).
holds(2675, building).
holds(2675, feature).
holds(2675, awning).
holds(2675, table).

sample(2676).
holds(2676, building).
holds(2676, feature).
holds(2676, watertreatment).
holds(2676, industrial).
holds(2676, awning).
holds(2676, pipe).
holds(2676, truck).

sample(2677).
holds(2677, building).
holds(2677, feature).
holds(2677, miscresidential).
holds(2677, residential).
holds(2677, table).
holds(2677, tiledroof).

sample(2678).
holds(2678, building).
holds(2678, feature).
holds(2678, awning).
holds(2678, table).

sample(2679).
holds(2679, building).
holds(2679, feature).
holds(2679, powerplant).
holds(2679, industrial).
holds(2679, awning).
holds(2679, chimney).
holds(2679, pipe).

sample(2680).
holds(2680, building).
holds(2680, feature).
holds(2680, miscresidential).
holds(2680, countryhouse).
holds(2680, residential).
holds(2680, table).
holds(2680, tiledroof).
holds(2680, car).

sample(2681).
holds(2681, building).
holds(2681, feature).
holds(2681, awning).
holds(2681, table).

sample(2682).
holds(2682, building).
holds(2682, feature).
holds(2682, miscindustrial).
holds(2682, watertreatment).
holds(2682, industrial).
holds(2682, pipe).
holds(2682, truck).

sample(2683).
holds(2683, building).
holds(2683, feature).
holds(2683, suburban).
holds(2683, miscresidential).
holds(2683, residential).
holds(2683, porch).
holds(2683, table).
holds(2683, tiledroof).

sample(2684).
holds(2684, building).
holds(2684, feature).
holds(2684, awning).
holds(2684, table).

sample(2685).
holds(2685, building).
holds(2685, feature).
holds(2685, constructionsite).
holds(2685, awning).
holds(2685, table).
holds(2685, machine).

sample(2686).
holds(2686, building).
holds(2686, feature).
holds(2686, suburban).
holds(2686, miscresidential).
holds(2686, residential).
holds(2686, porch).
holds(2686, table).
holds(2686, tiledroof).

sample(2687).
holds(2687, building).
holds(2687, feature).
holds(2687, awning).
holds(2687, table).

sample(2688).
holds(2688, building).
holds(2688, feature).
holds(2688, miscindustrial).
holds(2688, watertreatment).
holds(2688, industrial).
holds(2688, pipe).
holds(2688, truck).

sample(2689).
holds(2689, building).
holds(2689, feature).
holds(2689, suburban).
holds(2689, miscresidential).
holds(2689, residential).
holds(2689, porch).
holds(2689, table).
holds(2689, tiledroof).

sample(2690).
holds(2690, building).
holds(2690, feature).
holds(2690, awning).
holds(2690, table).

sample(2691).
holds(2691, building).
holds(2691, feature).
holds(2691, constructionsite).
holds(2691, awning).
holds(2691, table).
holds(2691, machine).

sample(2692).
holds(2692, building).
holds(2692, feature).
holds(2692, miscresidential).
holds(2692, residential).
holds(2692, table).
holds(2692, tiledroof).

sample(2693).
holds(2693, building).
holds(2693, feature).
holds(2693, awning).
holds(2693, table).

sample(2694).
holds(2694, building).
holds(2694, feature).
holds(2694, constructionsite).
holds(2694, awning).
holds(2694, table).
holds(2694, machine).

sample(2695).
holds(2695, building).
holds(2695, feature).
holds(2695, suburban).
holds(2695, miscresidential).
holds(2695, residential).
holds(2695, porch).
holds(2695, table).
holds(2695, tiledroof).

sample(2696).
holds(2696, building).
holds(2696, feature).
holds(2696, awning).
holds(2696, table).

sample(2697).
holds(2697, building).
holds(2697, feature).
holds(2697, watertreatment).
holds(2697, industrial).
holds(2697, pipe).
holds(2697, truck).

sample(2698).
holds(2698, building).
holds(2698, feature).
holds(2698, suburban).
holds(2698, miscresidential).
holds(2698, residential).
holds(2698, porch).
holds(2698, table).
holds(2698, tiledroof).

sample(2699).
holds(2699, building).
holds(2699, feature).
holds(2699, awning).
holds(2699, table).

sample(2700).
holds(2700, building).
holds(2700, feature).
holds(2700, powerplant).
holds(2700, watertreatment).
holds(2700, industrial).
holds(2700, awning).
holds(2700, chimney).
holds(2700, pipe).
holds(2700, truck).

sample(2701).
holds(2701, building).
holds(2701, feature).
holds(2701, suburban).
holds(2701, residential).
holds(2701, awning).
holds(2701, porch).
holds(2701, table).
holds(2701, tiledroof).

sample(2702).
holds(2702, building).
holds(2702, feature).
holds(2702, awning).
holds(2702, table).

sample(2703).
holds(2703, building).
holds(2703, feature).
holds(2703, miscindustrial).
holds(2703, watertreatment).
holds(2703, industrial).
holds(2703, pipe).
holds(2703, truck).

sample(2704).
holds(2704, building).
holds(2704, feature).
holds(2704, suburban).
holds(2704, miscresidential).
holds(2704, residential).
holds(2704, porch).
holds(2704, table).
holds(2704, tiledroof).

sample(2705).
holds(2705, building).
holds(2705, feature).
holds(2705, awning).
holds(2705, table).

sample(2706).
holds(2706, building).
holds(2706, feature).
holds(2706, powerplant).
holds(2706, industrial).
holds(2706, awning).
holds(2706, chimney).
holds(2706, pipe).

sample(2707).
holds(2707, building).
holds(2707, feature).
holds(2707, miscresidential).
holds(2707, countryhouse).
holds(2707, residential).
holds(2707, table).
holds(2707, tiledroof).
holds(2707, car).

sample(2708).
holds(2708, building).
holds(2708, feature).
holds(2708, awning).
holds(2708, table).

sample(2709).
holds(2709, building).
holds(2709, feature).
holds(2709, miscindustrial).
holds(2709, industrial).
holds(2709, truck).

sample(2710).
holds(2710, building).
holds(2710, feature).
holds(2710, suburban).
holds(2710, miscresidential).
holds(2710, residential).
holds(2710, porch).
holds(2710, table).
holds(2710, tiledroof).

sample(2711).
holds(2711, building).
holds(2711, feature).
holds(2711, awning).
holds(2711, table).

sample(2712).
holds(2712, building).
holds(2712, feature).
holds(2712, constructionsite).
holds(2712, awning).
holds(2712, table).
holds(2712, machine).

sample(2713).
holds(2713, building).
holds(2713, feature).
holds(2713, suburban).
holds(2713, miscresidential).
holds(2713, residential).
holds(2713, porch).
holds(2713, table).
holds(2713, tiledroof).

sample(2714).
holds(2714, building).
holds(2714, feature).
holds(2714, awning).
holds(2714, table).

sample(2715).
holds(2715, building).
holds(2715, feature).
holds(2715, powerplant).
holds(2715, industrial).
holds(2715, awning).
holds(2715, chimney).
holds(2715, pipe).

sample(2716).
holds(2716, building).
holds(2716, feature).
holds(2716, miscresidential).
holds(2716, countryhouse).
holds(2716, residential).
holds(2716, table).
holds(2716, tiledroof).
holds(2716, car).

sample(2717).
holds(2717, building).
holds(2717, feature).
holds(2717, awning).
holds(2717, table).

sample(2718).
holds(2718, building).
holds(2718, feature).
holds(2718, powerplant).
holds(2718, industrial).
holds(2718, awning).
holds(2718, chimney).
holds(2718, pipe).

sample(2719).
holds(2719, building).
holds(2719, feature).
holds(2719, suburban).
holds(2719, miscresidential).
holds(2719, countryhouse).
holds(2719, residential).
holds(2719, porch).
holds(2719, table).
holds(2719, tiledroof).
holds(2719, car).

sample(2720).
holds(2720, building).
holds(2720, feature).
holds(2720, awning).
holds(2720, table).

sample(2721).
holds(2721, building).
holds(2721, feature).
holds(2721, miscindustrial).
holds(2721, watertreatment).
holds(2721, industrial).
holds(2721, pipe).
holds(2721, truck).

sample(2722).
holds(2722, building).
holds(2722, feature).
holds(2722, suburban).
holds(2722, miscresidential).
holds(2722, residential).
holds(2722, porch).
holds(2722, table).
holds(2722, tiledroof).

sample(2723).
holds(2723, building).
holds(2723, feature).
holds(2723, awning).
holds(2723, table).

sample(2724).
holds(2724, building).
holds(2724, feature).
holds(2724, powerplant).
holds(2724, industrial).
holds(2724, awning).
holds(2724, chimney).
holds(2724, pipe).

sample(2725).
holds(2725, building).
holds(2725, feature).
holds(2725, miscresidential).
holds(2725, countryhouse).
holds(2725, residential).
holds(2725, table).
holds(2725, tiledroof).
holds(2725, car).

sample(2726).
holds(2726, building).
holds(2726, feature).
holds(2726, awning).
holds(2726, table).

sample(2727).
holds(2727, building).
holds(2727, feature).
holds(2727, constructionsite).
holds(2727, powerplant).
holds(2727, awning).
holds(2727, table).
holds(2727, chimney).
holds(2727, pipe).
holds(2727, machine).

sample(2728).
holds(2728, building).
holds(2728, feature).
holds(2728, miscresidential).
holds(2728, countryhouse).
holds(2728, residential).
holds(2728, table).
holds(2728, tiledroof).
holds(2728, car).

sample(2729).
holds(2729, building).
holds(2729, feature).
holds(2729, awning).
holds(2729, table).

sample(2730).
holds(2730, building).
holds(2730, feature).
holds(2730, constructionsite).
holds(2730, powerplant).
holds(2730, awning).
holds(2730, table).
holds(2730, chimney).
holds(2730, pipe).
holds(2730, machine).

sample(2731).
holds(2731, building).
holds(2731, feature).
holds(2731, suburban).
holds(2731, miscresidential).
holds(2731, residential).
holds(2731, porch).
holds(2731, table).
holds(2731, tiledroof).

sample(2732).
holds(2732, building).
holds(2732, feature).
holds(2732, awning).
holds(2732, table).

sample(2733).
holds(2733, building).
holds(2733, feature).
holds(2733, powerplant).
holds(2733, industrial).
holds(2733, awning).
holds(2733, chimney).
holds(2733, pipe).

sample(2734).
holds(2734, building).
holds(2734, feature).
holds(2734, suburban).
holds(2734, miscresidential).
holds(2734, residential).
holds(2734, porch).
holds(2734, table).
holds(2734, tiledroof).

sample(2735).
holds(2735, building).
holds(2735, feature).
holds(2735, awning).
holds(2735, table).

sample(2736).
holds(2736, building).
holds(2736, feature).
holds(2736, miscindustrial).
holds(2736, powerplant).
holds(2736, watertreatment).
holds(2736, industrial).
holds(2736, chimney).
holds(2736, pipe).
holds(2736, truck).

sample(2737).
holds(2737, building).
holds(2737, feature).
holds(2737, suburban).
holds(2737, miscresidential).
holds(2737, countryhouse).
holds(2737, residential).
holds(2737, porch).
holds(2737, table).
holds(2737, tiledroof).
holds(2737, car).

sample(2738).
holds(2738, building).
holds(2738, feature).
holds(2738, awning).
holds(2738, table).

sample(2739).
holds(2739, building).
holds(2739, feature).
holds(2739, constructionsite).
holds(2739, awning).
holds(2739, table).
holds(2739, machine).

sample(2740).
holds(2740, building).
holds(2740, feature).
holds(2740, suburban).
holds(2740, residential).
holds(2740, awning).
holds(2740, porch).
holds(2740, table).
holds(2740, tiledroof).

sample(2741).
holds(2741, building).
holds(2741, feature).
holds(2741, awning).
holds(2741, table).

sample(2742).
holds(2742, building).
holds(2742, feature).
holds(2742, powerplant).
holds(2742, industrial).
holds(2742, awning).
holds(2742, chimney).
holds(2742, pipe).

sample(2743).
holds(2743, building).
holds(2743, feature).
holds(2743, miscresidential).
holds(2743, countryhouse).
holds(2743, residential).
holds(2743, table).
holds(2743, tiledroof).
holds(2743, car).

sample(2744).
holds(2744, building).
holds(2744, feature).
holds(2744, awning).
holds(2744, table).

sample(2745).
holds(2745, building).
holds(2745, feature).
holds(2745, miscindustrial).
holds(2745, watertreatment).
holds(2745, industrial).
holds(2745, pipe).
holds(2745, truck).

sample(2746).
holds(2746, building).
holds(2746, feature).
holds(2746, miscresidential).
holds(2746, countryhouse).
holds(2746, residential).
holds(2746, table).
holds(2746, tiledroof).
holds(2746, car).

sample(2747).
holds(2747, building).
holds(2747, feature).
holds(2747, awning).
holds(2747, table).

sample(2748).
holds(2748, building).
holds(2748, feature).
holds(2748, powerplant).
holds(2748, industrial).
holds(2748, awning).
holds(2748, chimney).
holds(2748, pipe).

sample(2749).
holds(2749, building).
holds(2749, feature).
holds(2749, suburban).
holds(2749, miscresidential).
holds(2749, residential).
holds(2749, porch).
holds(2749, table).
holds(2749, tiledroof).

sample(2750).
holds(2750, building).
holds(2750, feature).
holds(2750, awning).
holds(2750, table).

sample(2751).
holds(2751, building).
holds(2751, feature).
holds(2751, miscindustrial).
holds(2751, powerplant).
holds(2751, watertreatment).
holds(2751, industrial).
holds(2751, chimney).
holds(2751, pipe).
holds(2751, truck).

sample(2752).
holds(2752, building).
holds(2752, feature).
holds(2752, miscresidential).
holds(2752, countryhouse).
holds(2752, residential).
holds(2752, table).
holds(2752, tiledroof).
holds(2752, car).

sample(2753).
holds(2753, building).
holds(2753, feature).
holds(2753, awning).
holds(2753, table).

sample(2754).
holds(2754, building).
holds(2754, feature).
holds(2754, constructionsite).
holds(2754, powerplant).
holds(2754, awning).
holds(2754, table).
holds(2754, chimney).
holds(2754, pipe).
holds(2754, machine).

sample(2755).
holds(2755, building).
holds(2755, feature).
holds(2755, suburban).
holds(2755, residential).
holds(2755, awning).
holds(2755, porch).
holds(2755, table).
holds(2755, tiledroof).

sample(2756).
holds(2756, building).
holds(2756, feature).
holds(2756, awning).
holds(2756, table).

sample(2757).
holds(2757, building).
holds(2757, feature).
holds(2757, miscindustrial).
holds(2757, watertreatment).
holds(2757, industrial).
holds(2757, pipe).
holds(2757, truck).

sample(2758).
holds(2758, building).
holds(2758, feature).
holds(2758, miscresidential).
holds(2758, countryhouse).
holds(2758, residential).
holds(2758, table).
holds(2758, tiledroof).
holds(2758, car).

sample(2759).
holds(2759, building).
holds(2759, feature).
holds(2759, awning).
holds(2759, table).

sample(2760).
holds(2760, building).
holds(2760, feature).
holds(2760, constructionsite).
holds(2760, awning).
holds(2760, table).
holds(2760, machine).

sample(2761).
holds(2761, building).
holds(2761, feature).
holds(2761, suburban).
holds(2761, miscresidential).
holds(2761, residential).
holds(2761, porch).
holds(2761, table).
holds(2761, tiledroof).

sample(2762).
holds(2762, building).
holds(2762, feature).
holds(2762, table).

sample(2763).
holds(2763, building).
holds(2763, feature).
holds(2763, miscindustrial).
holds(2763, watertreatment).
holds(2763, industrial).
holds(2763, truck).

sample(2764).
holds(2764, building).
holds(2764, feature).
holds(2764, suburban).
holds(2764, miscresidential).
holds(2764, countryhouse).
holds(2764, residential).
holds(2764, porch).
holds(2764, table).
holds(2764, tiledroof).
holds(2764, car).

sample(2765).
holds(2765, building).
holds(2765, feature).
holds(2765, awning).
holds(2765, table).

sample(2766).
holds(2766, building).
holds(2766, feature).
holds(2766, constructionsite).
holds(2766, powerplant).
holds(2766, awning).
holds(2766, table).
holds(2766, chimney).
holds(2766, pipe).
holds(2766, machine).

sample(2767).
holds(2767, building).
holds(2767, feature).
holds(2767, suburban).
holds(2767, miscresidential).
holds(2767, residential).
holds(2767, porch).
holds(2767, table).
holds(2767, tiledroof).

sample(2768).
holds(2768, building).
holds(2768, feature).
holds(2768, awning).
holds(2768, table).

sample(2769).
holds(2769, building).
holds(2769, feature).
holds(2769, miscindustrial).
holds(2769, powerplant).
holds(2769, watertreatment).
holds(2769, industrial).
holds(2769, chimney).
holds(2769, pipe).
holds(2769, truck).

sample(2770).
holds(2770, building).
holds(2770, feature).
holds(2770, miscresidential).
holds(2770, residential).
holds(2770, table).
holds(2770, tiledroof).

sample(2771).
holds(2771, building).
holds(2771, feature).
holds(2771, awning).
holds(2771, table).

sample(2772).
holds(2772, building).
holds(2772, feature).
holds(2772, constructionsite).
holds(2772, powerplant).
holds(2772, awning).
holds(2772, table).
holds(2772, chimney).
holds(2772, pipe).
holds(2772, machine).

sample(2773).
holds(2773, building).
holds(2773, feature).
holds(2773, suburban).
holds(2773, miscresidential).
holds(2773, countryhouse).
holds(2773, residential).
holds(2773, porch).
holds(2773, table).
holds(2773, tiledroof).
holds(2773, car).

sample(2774).
holds(2774, building).
holds(2774, feature).
holds(2774, awning).
holds(2774, table).

sample(2775).
holds(2775, building).
holds(2775, feature).
holds(2775, miscindustrial).
holds(2775, watertreatment).
holds(2775, industrial).
holds(2775, pipe).
holds(2775, truck).

sample(2776).
holds(2776, building).
holds(2776, feature).
holds(2776, miscresidential).
holds(2776, residential).
holds(2776, table).
holds(2776, tiledroof).

sample(2777).
holds(2777, building).
holds(2777, feature).
holds(2777, awning).
holds(2777, table).

sample(2778).
holds(2778, building).
holds(2778, feature).
holds(2778, powerplant).
holds(2778, watertreatment).
holds(2778, industrial).
holds(2778, awning).
holds(2778, chimney).
holds(2778, pipe).
holds(2778, truck).

sample(2779).
holds(2779, building).
holds(2779, feature).
holds(2779, suburban).
holds(2779, residential).
holds(2779, awning).
holds(2779, porch).
holds(2779, table).
holds(2779, tiledroof).

sample(2780).
holds(2780, building).
holds(2780, feature).
holds(2780, awning).
holds(2780, table).

sample(2781).
holds(2781, building).
holds(2781, feature).
holds(2781, powerplant).
holds(2781, industrial).
holds(2781, awning).
holds(2781, chimney).
holds(2781, pipe).

sample(2782).
holds(2782, building).
holds(2782, feature).
holds(2782, suburban).
holds(2782, miscresidential).
holds(2782, residential).
holds(2782, porch).
holds(2782, table).
holds(2782, tiledroof).

sample(2783).
holds(2783, building).
holds(2783, feature).
holds(2783, table).

sample(2784).
holds(2784, building).
holds(2784, feature).
holds(2784, powerplant).
holds(2784, industrial).
holds(2784, awning).
holds(2784, chimney).
holds(2784, pipe).

sample(2785).
holds(2785, building).
holds(2785, feature).
holds(2785, suburban).
holds(2785, residential).
holds(2785, awning).
holds(2785, porch).
holds(2785, table).
holds(2785, tiledroof).

sample(2786).
holds(2786, building).
holds(2786, feature).
holds(2786, awning).
holds(2786, table).

sample(2787).
holds(2787, building).
holds(2787, feature).
holds(2787, miscindustrial).
holds(2787, powerplant).
holds(2787, watertreatment).
holds(2787, industrial).
holds(2787, chimney).
holds(2787, pipe).
holds(2787, truck).

sample(2788).
holds(2788, building).
holds(2788, feature).
holds(2788, suburban).
holds(2788, residential).
holds(2788, awning).
holds(2788, porch).
holds(2788, table).
holds(2788, tiledroof).

sample(2789).
holds(2789, building).
holds(2789, feature).
holds(2789, awning).
holds(2789, table).

sample(2790).
holds(2790, building).
holds(2790, feature).
holds(2790, constructionsite).
holds(2790, powerplant).
holds(2790, awning).
holds(2790, table).
holds(2790, chimney).
holds(2790, pipe).
holds(2790, machine).

sample(2791).
holds(2791, building).
holds(2791, feature).
holds(2791, miscresidential).
holds(2791, countryhouse).
holds(2791, residential).
holds(2791, table).
holds(2791, tiledroof).
holds(2791, car).

sample(2792).
holds(2792, building).
holds(2792, feature).
holds(2792, awning).
holds(2792, table).

sample(2793).
holds(2793, building).
holds(2793, feature).
holds(2793, constructionsite).
holds(2793, awning).
holds(2793, table).
holds(2793, machine).

sample(2794).
holds(2794, building).
holds(2794, feature).
holds(2794, suburban).
holds(2794, residential).
holds(2794, awning).
holds(2794, porch).
holds(2794, table).
holds(2794, tiledroof).

sample(2795).
holds(2795, building).
holds(2795, feature).
holds(2795, awning).
holds(2795, table).

sample(2796).
holds(2796, building).
holds(2796, feature).
holds(2796, miscindustrial).
holds(2796, industrial).
holds(2796, truck).

sample(2797).
holds(2797, building).
holds(2797, feature).
holds(2797, suburban).
holds(2797, miscresidential).
holds(2797, countryhouse).
holds(2797, residential).
holds(2797, porch).
holds(2797, table).
holds(2797, tiledroof).
holds(2797, car).

sample(2798).
holds(2798, building).
holds(2798, feature).
holds(2798, awning).
holds(2798, table).

sample(2799).
holds(2799, building).
holds(2799, feature).
holds(2799, powerplant).
holds(2799, industrial).
holds(2799, awning).
holds(2799, chimney).
holds(2799, pipe).

sample(2800).
holds(2800, building).
holds(2800, feature).
holds(2800, miscresidential).
holds(2800, residential).
holds(2800, table).
holds(2800, tiledroof).

sample(2801).
holds(2801, building).
holds(2801, feature).
holds(2801, awning).
holds(2801, table).

sample(2802).
holds(2802, building).
holds(2802, feature).
holds(2802, constructionsite).
holds(2802, awning).
holds(2802, table).
holds(2802, machine).

sample(2803).
holds(2803, building).
holds(2803, feature).
holds(2803, suburban).
holds(2803, miscresidential).
holds(2803, countryhouse).
holds(2803, residential).
holds(2803, porch).
holds(2803, table).
holds(2803, tiledroof).
holds(2803, car).

sample(2804).
holds(2804, building).
holds(2804, feature).
holds(2804, awning).
holds(2804, table).

sample(2805).
holds(2805, building).
holds(2805, feature).
holds(2805, miscindustrial).
holds(2805, industrial).
holds(2805, truck).

sample(2806).
holds(2806, building).
holds(2806, feature).
holds(2806, suburban).
holds(2806, miscresidential).
holds(2806, residential).
holds(2806, porch).
holds(2806, table).
holds(2806, tiledroof).

sample(2807).
holds(2807, building).
holds(2807, feature).
holds(2807, awning).
holds(2807, table).

sample(2808).
holds(2808, building).
holds(2808, feature).
holds(2808, powerplant).
holds(2808, industrial).
holds(2808, awning).
holds(2808, chimney).
holds(2808, pipe).

sample(2809).
holds(2809, building).
holds(2809, feature).
holds(2809, suburban).
holds(2809, residential).
holds(2809, awning).
holds(2809, porch).
holds(2809, table).
holds(2809, tiledroof).

sample(2810).
holds(2810, building).
holds(2810, feature).
holds(2810, awning).
holds(2810, table).

sample(2811).
holds(2811, building).
holds(2811, feature).
holds(2811, miscindustrial).
holds(2811, industrial).
holds(2811, truck).

sample(2812).
holds(2812, building).
holds(2812, feature).
holds(2812, miscresidential).
holds(2812, residential).
holds(2812, table).
holds(2812, tiledroof).

sample(2813).
holds(2813, building).
holds(2813, feature).
holds(2813, awning).
holds(2813, table).

sample(2814).
holds(2814, building).
holds(2814, feature).
holds(2814, miscindustrial).
holds(2814, watertreatment).
holds(2814, industrial).
holds(2814, pipe).
holds(2814, truck).

sample(2815).
holds(2815, building).
holds(2815, feature).
holds(2815, suburban).
holds(2815, miscresidential).
holds(2815, residential).
holds(2815, porch).
holds(2815, table).
holds(2815, tiledroof).

sample(2816).
holds(2816, building).
holds(2816, feature).
holds(2816, awning).
holds(2816, table).

sample(2817).
holds(2817, building).
holds(2817, feature).
holds(2817, miscindustrial).
holds(2817, watertreatment).
holds(2817, industrial).
holds(2817, pipe).
holds(2817, truck).

sample(2818).
holds(2818, building).
holds(2818, feature).
holds(2818, suburban).
holds(2818, residential).
holds(2818, awning).
holds(2818, porch).
holds(2818, table).
holds(2818, tiledroof).

sample(2819).
holds(2819, building).
holds(2819, feature).
holds(2819, awning).
holds(2819, table).

sample(2820).
holds(2820, building).
holds(2820, feature).
holds(2820, powerplant).
holds(2820, watertreatment).
holds(2820, industrial).
holds(2820, awning).
holds(2820, chimney).
holds(2820, pipe).
holds(2820, truck).

sample(2821).
holds(2821, building).
holds(2821, feature).
holds(2821, miscresidential).
holds(2821, countryhouse).
holds(2821, residential).
holds(2821, table).
holds(2821, tiledroof).
holds(2821, car).

sample(2822).
holds(2822, building).
holds(2822, feature).
holds(2822, awning).
holds(2822, table).

sample(2823).
holds(2823, building).
holds(2823, feature).
holds(2823, powerplant).
holds(2823, industrial).
holds(2823, awning).
holds(2823, chimney).
holds(2823, pipe).

sample(2824).
holds(2824, building).
holds(2824, feature).
holds(2824, miscresidential).
holds(2824, residential).
holds(2824, table).
holds(2824, tiledroof).

sample(2825).
holds(2825, building).
holds(2825, feature).
holds(2825, awning).
holds(2825, table).

sample(2826).
holds(2826, building).
holds(2826, feature).
holds(2826, miscindustrial).
holds(2826, powerplant).
holds(2826, watertreatment).
holds(2826, industrial).
holds(2826, chimney).
holds(2826, pipe).
holds(2826, truck).

sample(2827).
holds(2827, building).
holds(2827, feature).
holds(2827, suburban).
holds(2827, residential).
holds(2827, awning).
holds(2827, porch).
holds(2827, table).
holds(2827, tiledroof).

sample(2828).
holds(2828, building).
holds(2828, feature).
holds(2828, awning).
holds(2828, table).

sample(2829).
holds(2829, building).
holds(2829, feature).
holds(2829, miscindustrial).
holds(2829, powerplant).
holds(2829, watertreatment).
holds(2829, industrial).
holds(2829, chimney).
holds(2829, pipe).
holds(2829, truck).

sample(2830).
holds(2830, building).
holds(2830, feature).
holds(2830, miscresidential).
holds(2830, countryhouse).
holds(2830, residential).
holds(2830, table).
holds(2830, tiledroof).
holds(2830, car).

sample(2831).
holds(2831, building).
holds(2831, feature).
holds(2831, awning).
holds(2831, table).

sample(2832).
holds(2832, building).
holds(2832, feature).
holds(2832, miscindustrial).
holds(2832, watertreatment).
holds(2832, industrial).
holds(2832, pipe).
holds(2832, truck).

sample(2833).
holds(2833, building).
holds(2833, feature).
holds(2833, miscresidential).
holds(2833, countryhouse).
holds(2833, residential).
holds(2833, table).
holds(2833, tiledroof).
holds(2833, car).

sample(2834).
holds(2834, building).
holds(2834, feature).
holds(2834, awning).
holds(2834, table).

sample(2835).
holds(2835, building).
holds(2835, feature).
holds(2835, miscindustrial).
holds(2835, powerplant).
holds(2835, watertreatment).
holds(2835, industrial).
holds(2835, chimney).
holds(2835, pipe).
holds(2835, truck).

sample(2836).
holds(2836, building).
holds(2836, feature).
holds(2836, miscresidential).
holds(2836, residential).
holds(2836, table).
holds(2836, tiledroof).

sample(2837).
holds(2837, building).
holds(2837, feature).
holds(2837, awning).
holds(2837, table).

sample(2838).
holds(2838, building).
holds(2838, feature).
holds(2838, miscindustrial).
holds(2838, industrial).
holds(2838, truck).

sample(2839).
holds(2839, building).
holds(2839, feature).
holds(2839, miscresidential).
holds(2839, residential).
holds(2839, table).
holds(2839, tiledroof).

sample(2840).
holds(2840, building).
holds(2840, feature).
holds(2840, awning).
holds(2840, table).

sample(2841).
holds(2841, building).
holds(2841, feature).
holds(2841, miscindustrial).
holds(2841, industrial).
holds(2841, truck).

sample(2842).
holds(2842, building).
holds(2842, feature).
holds(2842, miscresidential).
holds(2842, countryhouse).
holds(2842, residential).
holds(2842, table).
holds(2842, tiledroof).
holds(2842, car).

sample(2843).
holds(2843, building).
holds(2843, feature).
holds(2843, awning).
holds(2843, table).

sample(2844).
holds(2844, building).
holds(2844, feature).
holds(2844, miscindustrial).
holds(2844, powerplant).
holds(2844, watertreatment).
holds(2844, industrial).
holds(2844, chimney).
holds(2844, pipe).
holds(2844, truck).

sample(2845).
holds(2845, building).
holds(2845, feature).
holds(2845, suburban).
holds(2845, residential).
holds(2845, awning).
holds(2845, porch).
holds(2845, table).
holds(2845, tiledroof).

sample(2846).
holds(2846, building).
holds(2846, feature).
holds(2846, awning).
holds(2846, table).

sample(2847).
holds(2847, building).
holds(2847, feature).
holds(2847, watertreatment).
holds(2847, industrial).
holds(2847, pipe).
holds(2847, truck).

sample(2848).
holds(2848, building).
holds(2848, feature).
holds(2848, suburban).
holds(2848, miscresidential).
holds(2848, countryhouse).
holds(2848, residential).
holds(2848, porch).
holds(2848, table).
holds(2848, tiledroof).
holds(2848, car).

sample(2849).
holds(2849, building).
holds(2849, feature).
holds(2849, awning).
holds(2849, table).

sample(2850).
holds(2850, building).
holds(2850, feature).
holds(2850, miscindustrial).
holds(2850, industrial).
holds(2850, truck).

sample(2851).
holds(2851, building).
holds(2851, feature).
holds(2851, miscresidential).
holds(2851, countryhouse).
holds(2851, residential).
holds(2851, table).
holds(2851, tiledroof).
holds(2851, car).

sample(2852).
holds(2852, building).
holds(2852, feature).
holds(2852, awning).
holds(2852, table).

sample(2853).
holds(2853, building).
holds(2853, feature).
holds(2853, miscindustrial).
holds(2853, powerplant).
holds(2853, watertreatment).
holds(2853, industrial).
holds(2853, chimney).
holds(2853, pipe).
holds(2853, truck).

sample(2854).
holds(2854, building).
holds(2854, feature).
holds(2854, suburban).
holds(2854, miscresidential).
holds(2854, countryhouse).
holds(2854, residential).
holds(2854, porch).
holds(2854, table).
holds(2854, tiledroof).
holds(2854, car).

sample(2855).
holds(2855, building).
holds(2855, feature).
holds(2855, awning).
holds(2855, table).

sample(2856).
holds(2856, building).
holds(2856, feature).
holds(2856, powerplant).
holds(2856, industrial).
holds(2856, awning).
holds(2856, chimney).
holds(2856, pipe).

sample(2857).
holds(2857, building).
holds(2857, feature).
holds(2857, suburban).
holds(2857, miscresidential).
holds(2857, countryhouse).
holds(2857, residential).
holds(2857, porch).
holds(2857, table).
holds(2857, tiledroof).
holds(2857, car).

sample(2858).
holds(2858, building).
holds(2858, feature).
holds(2858, awning).
holds(2858, table).

sample(2859).
holds(2859, building).
holds(2859, feature).
holds(2859, miscindustrial).
holds(2859, industrial).
holds(2859, truck).

sample(2860).
holds(2860, building).
holds(2860, feature).
holds(2860, suburban).
holds(2860, miscresidential).
holds(2860, countryhouse).
holds(2860, residential).
holds(2860, porch).
holds(2860, table).
holds(2860, tiledroof).
holds(2860, car).

sample(2861).
holds(2861, building).
holds(2861, feature).
holds(2861, awning).
holds(2861, table).

sample(2862).
holds(2862, building).
holds(2862, feature).
holds(2862, watertreatment).
holds(2862, industrial).
holds(2862, pipe).
holds(2862, truck).

sample(2863).
holds(2863, building).
holds(2863, feature).
holds(2863, suburban).
holds(2863, miscresidential).
holds(2863, countryhouse).
holds(2863, residential).
holds(2863, porch).
holds(2863, table).
holds(2863, tiledroof).
holds(2863, car).

sample(2864).
holds(2864, building).
holds(2864, feature).
holds(2864, awning).
holds(2864, table).

sample(2865).
holds(2865, building).
holds(2865, feature).
holds(2865, miscindustrial).
holds(2865, powerplant).
holds(2865, watertreatment).
holds(2865, industrial).
holds(2865, chimney).
holds(2865, pipe).
holds(2865, truck).

sample(2866).
holds(2866, building).
holds(2866, feature).
holds(2866, suburban).
holds(2866, miscresidential).
holds(2866, residential).
holds(2866, porch).
holds(2866, table).
holds(2866, tiledroof).

sample(2867).
holds(2867, building).
holds(2867, feature).
holds(2867, awning).
holds(2867, table).

sample(2868).
holds(2868, building).
holds(2868, feature).
holds(2868, miscindustrial).
holds(2868, powerplant).
holds(2868, watertreatment).
holds(2868, industrial).
holds(2868, chimney).
holds(2868, pipe).
holds(2868, truck).

sample(2869).
holds(2869, building).
holds(2869, feature).
holds(2869, suburban).
holds(2869, miscresidential).
holds(2869, residential).
holds(2869, porch).
holds(2869, table).
holds(2869, tiledroof).

sample(2870).
holds(2870, building).
holds(2870, feature).
holds(2870, awning).
holds(2870, table).

sample(2871).
holds(2871, building).
holds(2871, feature).
holds(2871, miscindustrial).
holds(2871, powerplant).
holds(2871, watertreatment).
holds(2871, industrial).
holds(2871, chimney).
holds(2871, pipe).
holds(2871, truck).

sample(2872).
holds(2872, building).
holds(2872, feature).
holds(2872, suburban).
holds(2872, miscresidential).
holds(2872, residential).
holds(2872, porch).
holds(2872, table).
holds(2872, tiledroof).

sample(2873).
holds(2873, building).
holds(2873, feature).
holds(2873, awning).
holds(2873, table).

sample(2874).
holds(2874, building).
holds(2874, feature).
holds(2874, constructionsite).
holds(2874, awning).
holds(2874, table).
holds(2874, machine).

sample(2875).
holds(2875, building).
holds(2875, feature).
holds(2875, miscresidential).
holds(2875, countryhouse).
holds(2875, residential).
holds(2875, table).
holds(2875, tiledroof).
holds(2875, car).

sample(2876).
holds(2876, building).
holds(2876, feature).
holds(2876, awning).
holds(2876, table).

sample(2877).
holds(2877, building).
holds(2877, feature).
holds(2877, miscindustrial).
holds(2877, watertreatment).
holds(2877, industrial).
holds(2877, pipe).
holds(2877, truck).

sample(2878).
holds(2878, building).
holds(2878, feature).
holds(2878, miscresidential).
holds(2878, residential).
holds(2878, table).
holds(2878, tiledroof).

sample(2879).
holds(2879, building).
holds(2879, feature).
holds(2879, awning).
holds(2879, table).

sample(2880).
holds(2880, building).
holds(2880, feature).
holds(2880, miscindustrial).
holds(2880, industrial).
holds(2880, truck).

sample(2881).
holds(2881, building).
holds(2881, feature).
holds(2881, miscresidential).
holds(2881, countryhouse).
holds(2881, residential).
holds(2881, table).
holds(2881, tiledroof).
holds(2881, car).

sample(2882).
holds(2882, building).
holds(2882, feature).
holds(2882, awning).
holds(2882, table).

sample(2883).
holds(2883, building).
holds(2883, feature).
holds(2883, constructionsite).
holds(2883, awning).
holds(2883, table).
holds(2883, machine).

sample(2884).
holds(2884, building).
holds(2884, feature).
holds(2884, suburban).
holds(2884, residential).
holds(2884, awning).
holds(2884, porch).
holds(2884, table).
holds(2884, tiledroof).

sample(2885).
holds(2885, building).
holds(2885, feature).
holds(2885, awning).
holds(2885, table).

sample(2886).
holds(2886, building).
holds(2886, feature).
holds(2886, constructionsite).
holds(2886, awning).
holds(2886, table).
holds(2886, machine).

sample(2887).
holds(2887, building).
holds(2887, feature).
holds(2887, suburban).
holds(2887, miscresidential).
holds(2887, countryhouse).
holds(2887, residential).
holds(2887, porch).
holds(2887, table).
holds(2887, tiledroof).
holds(2887, car).

sample(2888).
holds(2888, building).
holds(2888, feature).
holds(2888, awning).
holds(2888, table).

sample(2889).
holds(2889, building).
holds(2889, feature).
holds(2889, powerplant).
holds(2889, watertreatment).
holds(2889, industrial).
holds(2889, awning).
holds(2889, chimney).
holds(2889, pipe).
holds(2889, truck).

sample(2890).
holds(2890, building).
holds(2890, feature).
holds(2890, suburban).
holds(2890, miscresidential).
holds(2890, residential).
holds(2890, porch).
holds(2890, table).
holds(2890, tiledroof).

sample(2891).
holds(2891, building).
holds(2891, feature).
holds(2891, awning).
holds(2891, table).

sample(2892).
holds(2892, building).
holds(2892, feature).
holds(2892, powerplant).
holds(2892, watertreatment).
holds(2892, industrial).
holds(2892, awning).
holds(2892, chimney).
holds(2892, pipe).
holds(2892, truck).

sample(2893).
holds(2893, building).
holds(2893, feature).
holds(2893, suburban).
holds(2893, residential).
holds(2893, awning).
holds(2893, porch).
holds(2893, table).
holds(2893, tiledroof).

sample(2894).
holds(2894, building).
holds(2894, feature).
holds(2894, awning).
holds(2894, table).

sample(2895).
holds(2895, building).
holds(2895, feature).
holds(2895, constructionsite).
holds(2895, awning).
holds(2895, table).
holds(2895, machine).

sample(2896).
holds(2896, building).
holds(2896, feature).
holds(2896, miscresidential).
holds(2896, residential).
holds(2896, table).
holds(2896, tiledroof).

sample(2897).
holds(2897, building).
holds(2897, feature).
holds(2897, awning).
holds(2897, table).

sample(2898).
holds(2898, building).
holds(2898, feature).
holds(2898, miscindustrial).
holds(2898, watertreatment).
holds(2898, industrial).
holds(2898, pipe).
holds(2898, truck).

sample(2899).
holds(2899, building).
holds(2899, feature).
holds(2899, suburban).
holds(2899, miscresidential).
holds(2899, countryhouse).
holds(2899, residential).
holds(2899, porch).
holds(2899, table).
holds(2899, tiledroof).
holds(2899, car).

sample(2900).
holds(2900, building).
holds(2900, feature).
holds(2900, awning).
holds(2900, table).

sample(2901).
holds(2901, building).
holds(2901, feature).
holds(2901, constructionsite).
holds(2901, awning).
holds(2901, table).
holds(2901, machine).

sample(2902).
holds(2902, building).
holds(2902, feature).
holds(2902, miscresidential).
holds(2902, countryhouse).
holds(2902, residential).
holds(2902, table).
holds(2902, tiledroof).
holds(2902, car).

sample(2903).
holds(2903, building).
holds(2903, feature).
holds(2903, awning).
holds(2903, table).

sample(2904).
holds(2904, building).
holds(2904, feature).
holds(2904, miscindustrial).
holds(2904, powerplant).
holds(2904, watertreatment).
holds(2904, industrial).
holds(2904, chimney).
holds(2904, pipe).
holds(2904, truck).

sample(2905).
holds(2905, building).
holds(2905, feature).
holds(2905, suburban).
holds(2905, miscresidential).
holds(2905, countryhouse).
holds(2905, residential).
holds(2905, porch).
holds(2905, table).
holds(2905, tiledroof).
holds(2905, car).

sample(2906).
holds(2906, building).
holds(2906, feature).
holds(2906, awning).
holds(2906, table).

sample(2907).
holds(2907, building).
holds(2907, feature).
holds(2907, miscindustrial).
holds(2907, watertreatment).
holds(2907, industrial).
holds(2907, pipe).
holds(2907, truck).

sample(2908).
holds(2908, building).
holds(2908, feature).
holds(2908, miscresidential).
holds(2908, countryhouse).
holds(2908, residential).
holds(2908, table).
holds(2908, tiledroof).
holds(2908, car).

sample(2909).
holds(2909, building).
holds(2909, feature).
holds(2909, awning).
holds(2909, table).

sample(2910).
holds(2910, building).
holds(2910, feature).
holds(2910, miscindustrial).
holds(2910, powerplant).
holds(2910, watertreatment).
holds(2910, industrial).
holds(2910, chimney).
holds(2910, pipe).
holds(2910, truck).

sample(2911).
holds(2911, building).
holds(2911, feature).
holds(2911, suburban).
holds(2911, miscresidential).
holds(2911, residential).
holds(2911, porch).
holds(2911, table).
holds(2911, tiledroof).

sample(2912).
holds(2912, building).
holds(2912, feature).
holds(2912, awning).
holds(2912, table).

sample(2913).
holds(2913, building).
holds(2913, feature).
holds(2913, constructionsite).
holds(2913, awning).
holds(2913, table).
holds(2913, machine).

sample(2914).
holds(2914, building).
holds(2914, feature).
holds(2914, suburban).
holds(2914, residential).
holds(2914, awning).
holds(2914, porch).
holds(2914, table).
holds(2914, tiledroof).

sample(2915).
holds(2915, building).
holds(2915, feature).
holds(2915, awning).
holds(2915, table).

sample(2916).
holds(2916, building).
holds(2916, feature).
holds(2916, constructionsite).
holds(2916, awning).
holds(2916, table).
holds(2916, machine).

sample(2917).
holds(2917, building).
holds(2917, feature).
holds(2917, suburban).
holds(2917, residential).
holds(2917, awning).
holds(2917, porch).
holds(2917, table).
holds(2917, tiledroof).

sample(2918).
holds(2918, building).
holds(2918, feature).
holds(2918, awning).
holds(2918, table).

sample(2919).
holds(2919, building).
holds(2919, feature).
holds(2919, powerplant).
holds(2919, industrial).
holds(2919, awning).
holds(2919, chimney).
holds(2919, pipe).

sample(2920).
holds(2920, building).
holds(2920, feature).
holds(2920, suburban).
holds(2920, residential).
holds(2920, awning).
holds(2920, porch).
holds(2920, table).
holds(2920, tiledroof).

sample(2921).
holds(2921, building).
holds(2921, feature).
holds(2921, awning).
holds(2921, table).

sample(2922).
holds(2922, building).
holds(2922, feature).
holds(2922, constructionsite).
holds(2922, awning).
holds(2922, table).
holds(2922, machine).

sample(2923).
holds(2923, building).
holds(2923, feature).
holds(2923, miscresidential).
holds(2923, countryhouse).
holds(2923, residential).
holds(2923, table).
holds(2923, tiledroof).
holds(2923, car).

sample(2924).
holds(2924, building).
holds(2924, feature).
holds(2924, awning).
holds(2924, table).

sample(2925).
holds(2925, building).
holds(2925, feature).
holds(2925, miscindustrial).
holds(2925, industrial).
holds(2925, truck).

sample(2926).
holds(2926, building).
holds(2926, feature).
holds(2926, suburban).
holds(2926, miscresidential).
holds(2926, residential).
holds(2926, porch).
holds(2926, table).
holds(2926, tiledroof).

sample(2927).
holds(2927, building).
holds(2927, feature).
holds(2927, awning).
holds(2927, table).

sample(2928).
holds(2928, building).
holds(2928, feature).
holds(2928, miscindustrial).
holds(2928, powerplant).
holds(2928, watertreatment).
holds(2928, industrial).
holds(2928, chimney).
holds(2928, pipe).
holds(2928, truck).

sample(2929).
holds(2929, building).
holds(2929, feature).
holds(2929, suburban).
holds(2929, miscresidential).
holds(2929, countryhouse).
holds(2929, residential).
holds(2929, porch).
holds(2929, table).
holds(2929, tiledroof).
holds(2929, car).

sample(2930).
holds(2930, building).
holds(2930, feature).
holds(2930, awning).
holds(2930, table).

sample(2931).
holds(2931, building).
holds(2931, feature).
holds(2931, miscindustrial).
holds(2931, industrial).
holds(2931, truck).

sample(2932).
holds(2932, building).
holds(2932, feature).
holds(2932, miscresidential).
holds(2932, residential).
holds(2932, table).
holds(2932, tiledroof).

sample(2933).
holds(2933, building).
holds(2933, feature).
holds(2933, awning).
holds(2933, table).

sample(2934).
holds(2934, building).
holds(2934, feature).
holds(2934, miscindustrial).
holds(2934, powerplant).
holds(2934, watertreatment).
holds(2934, industrial).
holds(2934, chimney).
holds(2934, pipe).
holds(2934, truck).

sample(2935).
holds(2935, building).
holds(2935, feature).
holds(2935, suburban).
holds(2935, residential).
holds(2935, awning).
holds(2935, porch).
holds(2935, table).
holds(2935, tiledroof).

sample(2936).
holds(2936, building).
holds(2936, feature).
holds(2936, awning).
holds(2936, table).

sample(2937).
holds(2937, building).
holds(2937, feature).
holds(2937, constructionsite).
holds(2937, awning).
holds(2937, table).
holds(2937, machine).

sample(2938).
holds(2938, building).
holds(2938, feature).
holds(2938, suburban).
holds(2938, miscresidential).
holds(2938, residential).
holds(2938, porch).
holds(2938, table).
holds(2938, tiledroof).

sample(2939).
holds(2939, building).
holds(2939, feature).
holds(2939, awning).
holds(2939, table).

sample(2940).
holds(2940, building).
holds(2940, feature).
holds(2940, miscindustrial).
holds(2940, watertreatment).
holds(2940, industrial).
holds(2940, pipe).
holds(2940, truck).

sample(2941).
holds(2941, building).
holds(2941, feature).
holds(2941, miscresidential).
holds(2941, residential).
holds(2941, table).
holds(2941, tiledroof).

sample(2942).
holds(2942, building).
holds(2942, feature).
holds(2942, awning).
holds(2942, table).

sample(2943).
holds(2943, building).
holds(2943, feature).
holds(2943, constructionsite).
holds(2943, powerplant).
holds(2943, awning).
holds(2943, table).
holds(2943, chimney).
holds(2943, pipe).
holds(2943, machine).

sample(2944).
holds(2944, building).
holds(2944, feature).
holds(2944, miscresidential).
holds(2944, countryhouse).
holds(2944, residential).
holds(2944, table).
holds(2944, tiledroof).
holds(2944, car).

sample(2945).
holds(2945, building).
holds(2945, feature).
holds(2945, awning).
holds(2945, table).

sample(2946).
holds(2946, building).
holds(2946, feature).
holds(2946, constructionsite).
holds(2946, powerplant).
holds(2946, awning).
holds(2946, table).
holds(2946, chimney).
holds(2946, pipe).
holds(2946, machine).

sample(2947).
holds(2947, building).
holds(2947, feature).
holds(2947, suburban).
holds(2947, miscresidential).
holds(2947, residential).
holds(2947, porch).
holds(2947, table).
holds(2947, tiledroof).

sample(2948).
holds(2948, building).
holds(2948, feature).
holds(2948, awning).
holds(2948, table).

sample(2949).
holds(2949, building).
holds(2949, feature).
holds(2949, powerplant).
holds(2949, industrial).
holds(2949, awning).
holds(2949, chimney).
holds(2949, pipe).

sample(2950).
holds(2950, building).
holds(2950, feature).
holds(2950, miscresidential).
holds(2950, residential).
holds(2950, table).
holds(2950, tiledroof).

sample(2951).
holds(2951, building).
holds(2951, feature).
holds(2951, awning).
holds(2951, table).

sample(2952).
holds(2952, building).
holds(2952, feature).
holds(2952, constructionsite).
holds(2952, awning).
holds(2952, table).
holds(2952, machine).

sample(2953).
holds(2953, building).
holds(2953, feature).
holds(2953, suburban).
holds(2953, miscresidential).
holds(2953, countryhouse).
holds(2953, residential).
holds(2953, porch).
holds(2953, table).
holds(2953, tiledroof).
holds(2953, car).

sample(2954).
holds(2954, building).
holds(2954, feature).
holds(2954, awning).
holds(2954, table).

sample(2955).
holds(2955, building).
holds(2955, feature).
holds(2955, powerplant).
holds(2955, industrial).
holds(2955, awning).
holds(2955, chimney).
holds(2955, pipe).

sample(2956).
holds(2956, building).
holds(2956, feature).
holds(2956, suburban).
holds(2956, miscresidential).
holds(2956, residential).
holds(2956, porch).
holds(2956, table).
holds(2956, tiledroof).

sample(2957).
holds(2957, building).
holds(2957, feature).
holds(2957, awning).
holds(2957, table).

sample(2958).
holds(2958, building).
holds(2958, feature).
holds(2958, constructionsite).
holds(2958, awning).
holds(2958, table).
holds(2958, machine).

sample(2959).
holds(2959, building).
holds(2959, feature).
holds(2959, miscresidential).
holds(2959, countryhouse).
holds(2959, residential).
holds(2959, table).
holds(2959, tiledroof).
holds(2959, car).

sample(2960).
holds(2960, building).
holds(2960, feature).
holds(2960, awning).
holds(2960, table).

sample(2961).
holds(2961, building).
holds(2961, feature).
holds(2961, powerplant).
holds(2961, industrial).
holds(2961, awning).
holds(2961, chimney).
holds(2961, pipe).

sample(2962).
holds(2962, building).
holds(2962, feature).
holds(2962, suburban).
holds(2962, miscresidential).
holds(2962, countryhouse).
holds(2962, residential).
holds(2962, porch).
holds(2962, table).
holds(2962, tiledroof).
holds(2962, car).

sample(2963).
holds(2963, building).
holds(2963, feature).
holds(2963, awning).
holds(2963, table).

sample(2964).
holds(2964, building).
holds(2964, feature).
holds(2964, constructionsite).
holds(2964, awning).
holds(2964, table).
holds(2964, machine).

sample(2965).
holds(2965, building).
holds(2965, feature).
holds(2965, suburban).
holds(2965, miscresidential).
holds(2965, residential).
holds(2965, porch).
holds(2965, table).
holds(2965, tiledroof).

sample(2966).
holds(2966, building).
holds(2966, feature).
holds(2966, awning).
holds(2966, table).

sample(2967).
holds(2967, building).
holds(2967, feature).
holds(2967, miscindustrial).
holds(2967, powerplant).
holds(2967, watertreatment).
holds(2967, industrial).
holds(2967, chimney).
holds(2967, pipe).
holds(2967, truck).

sample(2968).
holds(2968, building).
holds(2968, feature).
holds(2968, suburban).
holds(2968, miscresidential).
holds(2968, countryhouse).
holds(2968, residential).
holds(2968, porch).
holds(2968, table).
holds(2968, tiledroof).
holds(2968, car).

sample(2969).
holds(2969, building).
holds(2969, feature).
holds(2969, awning).
holds(2969, table).

sample(2970).
holds(2970, building).
holds(2970, feature).
holds(2970, miscindustrial).
holds(2970, powerplant).
holds(2970, watertreatment).
holds(2970, industrial).
holds(2970, chimney).
holds(2970, pipe).
holds(2970, truck).

sample(2971).
holds(2971, building).
holds(2971, feature).
holds(2971, suburban).
holds(2971, residential).
holds(2971, awning).
holds(2971, porch).
holds(2971, table).
holds(2971, tiledroof).

sample(2972).
holds(2972, building).
holds(2972, feature).
holds(2972, awning).
holds(2972, table).

sample(2973).
holds(2973, building).
holds(2973, feature).
holds(2973, powerplant).
holds(2973, industrial).
holds(2973, awning).
holds(2973, chimney).
holds(2973, pipe).

sample(2974).
holds(2974, building).
holds(2974, feature).
holds(2974, miscresidential).
holds(2974, residential).
holds(2974, table).
holds(2974, tiledroof).

sample(2975).
holds(2975, building).
holds(2975, feature).
holds(2975, awning).
holds(2975, table).

sample(2976).
holds(2976, building).
holds(2976, feature).
holds(2976, constructionsite).
holds(2976, awning).
holds(2976, table).
holds(2976, machine).

sample(2977).
holds(2977, building).
holds(2977, feature).
holds(2977, suburban).
holds(2977, miscresidential).
holds(2977, countryhouse).
holds(2977, residential).
holds(2977, porch).
holds(2977, table).
holds(2977, tiledroof).
holds(2977, car).

sample(2978).
holds(2978, building).
holds(2978, feature).
holds(2978, awning).
holds(2978, table).

sample(2979).
holds(2979, building).
holds(2979, feature).
holds(2979, miscindustrial).
holds(2979, powerplant).
holds(2979, watertreatment).
holds(2979, industrial).
holds(2979, chimney).
holds(2979, pipe).
holds(2979, truck).

sample(2980).
holds(2980, building).
holds(2980, feature).
holds(2980, suburban).
holds(2980, miscresidential).
holds(2980, residential).
holds(2980, porch).
holds(2980, table).
holds(2980, tiledroof).

sample(2981).
holds(2981, building).
holds(2981, feature).
holds(2981, awning).
holds(2981, table).

sample(2982).
holds(2982, building).
holds(2982, feature).
holds(2982, miscindustrial).
holds(2982, powerplant).
holds(2982, watertreatment).
holds(2982, industrial).
holds(2982, chimney).
holds(2982, pipe).
holds(2982, truck).

sample(2983).
holds(2983, building).
holds(2983, feature).
holds(2983, suburban).
holds(2983, miscresidential).
holds(2983, residential).
holds(2983, porch).
holds(2983, table).
holds(2983, tiledroof).

sample(2984).
holds(2984, building).
holds(2984, feature).
holds(2984, awning).
holds(2984, table).

sample(2985).
holds(2985, building).
holds(2985, feature).
holds(2985, powerplant).
holds(2985, industrial).
holds(2985, awning).
holds(2985, chimney).
holds(2985, pipe).

sample(2986).
holds(2986, building).
holds(2986, feature).
holds(2986, suburban).
holds(2986, residential).
holds(2986, awning).
holds(2986, porch).
holds(2986, table).
holds(2986, tiledroof).

sample(2987).
holds(2987, building).
holds(2987, feature).
holds(2987, awning).
holds(2987, table).

sample(2988).
holds(2988, building).
holds(2988, feature).
holds(2988, powerplant).
holds(2988, industrial).
holds(2988, awning).
holds(2988, chimney).
holds(2988, pipe).

sample(2989).
holds(2989, building).
holds(2989, feature).
holds(2989, suburban).
holds(2989, residential).
holds(2989, awning).
holds(2989, porch).
holds(2989, table).
holds(2989, tiledroof).

sample(2990).
holds(2990, building).
holds(2990, feature).
holds(2990, awning).
holds(2990, table).

sample(2991).
holds(2991, building).
holds(2991, feature).
holds(2991, watertreatment).
holds(2991, industrial).
holds(2991, awning).
holds(2991, pipe).
holds(2991, truck).

sample(2992).
holds(2992, building).
holds(2992, feature).
holds(2992, suburban).
holds(2992, residential).
holds(2992, awning).
holds(2992, porch).
holds(2992, table).
holds(2992, tiledroof).

sample(2993).
holds(2993, building).
holds(2993, feature).
holds(2993, awning).
holds(2993, table).

sample(2994).
holds(2994, building).
holds(2994, feature).
holds(2994, miscindustrial).
holds(2994, industrial).
holds(2994, truck).

sample(2995).
holds(2995, building).
holds(2995, feature).
holds(2995, suburban).
holds(2995, miscresidential).
holds(2995, countryhouse).
holds(2995, residential).
holds(2995, porch).
holds(2995, table).
holds(2995, tiledroof).
holds(2995, car).

sample(2996).
holds(2996, building).
holds(2996, feature).
holds(2996, awning).
holds(2996, table).

sample(2997).
holds(2997, building).
holds(2997, feature).
holds(2997, constructionsite).
holds(2997, awning).
holds(2997, table).
holds(2997, machine).

sample(2998).
holds(2998, building).
holds(2998, feature).
holds(2998, miscresidential).
holds(2998, residential).
holds(2998, table).
holds(2998, tiledroof).

sample(2999).
holds(2999, building).
holds(2999, feature).
holds(2999, awning).
holds(2999, table).

sample(3000).
holds(3000, building).
holds(3000, feature).
holds(3000, miscindustrial).
holds(3000, industrial).
holds(3000, truck).

sample(3001).
holds(3001, building).
holds(3001, feature).
holds(3001, suburban).
holds(3001, miscresidential).
holds(3001, residential).
holds(3001, porch).
holds(3001, table).
holds(3001, tiledroof).

sample(3002).
holds(3002, building).
holds(3002, feature).
holds(3002, awning).
holds(3002, table).

sample(3003).
holds(3003, building).
holds(3003, feature).
holds(3003, powerplant).
holds(3003, industrial).
holds(3003, awning).
holds(3003, chimney).
holds(3003, pipe).

sample(3004).
holds(3004, building).
holds(3004, feature).
holds(3004, suburban).
holds(3004, residential).
holds(3004, awning).
holds(3004, porch).
holds(3004, table).
holds(3004, tiledroof).

sample(3005).
holds(3005, building).
holds(3005, feature).
holds(3005, awning).
holds(3005, table).

sample(3006).
holds(3006, building).
holds(3006, feature).
holds(3006, miscindustrial).
holds(3006, powerplant).
holds(3006, watertreatment).
holds(3006, industrial).
holds(3006, chimney).
holds(3006, pipe).
holds(3006, truck).

sample(3007).
holds(3007, building).
holds(3007, feature).
holds(3007, suburban).
holds(3007, miscresidential).
holds(3007, countryhouse).
holds(3007, residential).
holds(3007, porch).
holds(3007, table).
holds(3007, tiledroof).
holds(3007, car).

sample(3008).
holds(3008, building).
holds(3008, feature).
holds(3008, awning).
holds(3008, table).

sample(3009).
holds(3009, building).
holds(3009, feature).
holds(3009, powerplant).
holds(3009, industrial).
holds(3009, awning).
holds(3009, chimney).
holds(3009, pipe).

sample(3010).
holds(3010, building).
holds(3010, feature).
holds(3010, miscresidential).
holds(3010, countryhouse).
holds(3010, residential).
holds(3010, table).
holds(3010, tiledroof).
holds(3010, car).

sample(3011).
holds(3011, building).
holds(3011, feature).
holds(3011, awning).
holds(3011, table).

sample(3012).
holds(3012, building).
holds(3012, feature).
holds(3012, awning).

sample(3013).
holds(3013, building).
holds(3013, feature).
holds(3013, suburban).
holds(3013, miscresidential).
holds(3013, residential).
holds(3013, porch).
holds(3013, table).
holds(3013, tiledroof).

sample(3014).
holds(3014, building).
holds(3014, feature).
holds(3014, awning).
holds(3014, table).

sample(3015).
holds(3015, building).
holds(3015, feature).
holds(3015, powerplant).
holds(3015, industrial).
holds(3015, awning).
holds(3015, chimney).
holds(3015, pipe).

sample(3016).
holds(3016, building).
holds(3016, feature).
holds(3016, miscresidential).
holds(3016, residential).
holds(3016, table).
holds(3016, tiledroof).

sample(3017).
holds(3017, building).
holds(3017, feature).
holds(3017, awning).
holds(3017, table).

sample(3018).
holds(3018, building).
holds(3018, feature).
holds(3018, miscindustrial).
holds(3018, industrial).
holds(3018, truck).

sample(3019).
holds(3019, building).
holds(3019, feature).
holds(3019, miscresidential).
holds(3019, residential).
holds(3019, table).
holds(3019, tiledroof).

sample(3020).
holds(3020, building).
holds(3020, feature).
holds(3020, awning).
holds(3020, table).

sample(3021).
holds(3021, building).
holds(3021, feature).
holds(3021, miscindustrial).
holds(3021, industrial).
holds(3021, truck).

sample(3022).
holds(3022, building).
holds(3022, feature).
holds(3022, suburban).
holds(3022, miscresidential).
holds(3022, residential).
holds(3022, porch).
holds(3022, table).
holds(3022, tiledroof).

sample(3023).
holds(3023, building).
holds(3023, feature).
holds(3023, awning).
holds(3023, table).

sample(3024).
holds(3024, building).
holds(3024, feature).
holds(3024, powerplant).
holds(3024, industrial).
holds(3024, awning).
holds(3024, chimney).
holds(3024, pipe).

sample(3025).
holds(3025, building).
holds(3025, feature).
holds(3025, suburban).
holds(3025, miscresidential).
holds(3025, residential).
holds(3025, porch).
holds(3025, table).
holds(3025, tiledroof).

sample(3026).
holds(3026, building).
holds(3026, feature).
holds(3026, awning).
holds(3026, table).

sample(3027).
holds(3027, building).
holds(3027, feature).
holds(3027, powerplant).
holds(3027, industrial).
holds(3027, awning).
holds(3027, chimney).
holds(3027, pipe).

sample(3028).
holds(3028, building).
holds(3028, feature).
holds(3028, suburban).
holds(3028, miscresidential).
holds(3028, residential).
holds(3028, porch).
holds(3028, table).
holds(3028, tiledroof).

sample(3029).
holds(3029, building).
holds(3029, feature).
holds(3029, awning).
holds(3029, table).

sample(3030).
holds(3030, building).
holds(3030, feature).
holds(3030, constructionsite).
holds(3030, awning).
holds(3030, table).
holds(3030, machine).

sample(3031).
holds(3031, building).
holds(3031, feature).
holds(3031, suburban).
holds(3031, residential).
holds(3031, awning).
holds(3031, porch).
holds(3031, table).
holds(3031, tiledroof).

sample(3032).
holds(3032, building).
holds(3032, feature).
holds(3032, awning).
holds(3032, table).

sample(3033).
holds(3033, building).
holds(3033, feature).
holds(3033, powerplant).
holds(3033, industrial).
holds(3033, awning).
holds(3033, chimney).
holds(3033, pipe).

sample(3034).
holds(3034, building).
holds(3034, feature).
holds(3034, miscresidential).
holds(3034, countryhouse).
holds(3034, residential).
holds(3034, table).
holds(3034, tiledroof).
holds(3034, car).

sample(3035).
holds(3035, building).
holds(3035, feature).
holds(3035, awning).
holds(3035, table).

sample(3036).
holds(3036, building).
holds(3036, feature).
holds(3036, miscindustrial).
holds(3036, powerplant).
holds(3036, watertreatment).
holds(3036, industrial).
holds(3036, chimney).
holds(3036, pipe).
holds(3036, truck).

sample(3037).
holds(3037, building).
holds(3037, feature).
holds(3037, suburban).
holds(3037, miscresidential).
holds(3037, countryhouse).
holds(3037, residential).
holds(3037, porch).
holds(3037, table).
holds(3037, tiledroof).
holds(3037, car).

sample(3038).
holds(3038, building).
holds(3038, feature).
holds(3038, awning).
holds(3038, table).

sample(3039).
holds(3039, building).
holds(3039, feature).
holds(3039, constructionsite).
holds(3039, powerplant).
holds(3039, awning).
holds(3039, table).
holds(3039, chimney).
holds(3039, pipe).
holds(3039, machine).

sample(3040).
holds(3040, building).
holds(3040, feature).
holds(3040, suburban).
holds(3040, residential).
holds(3040, awning).
holds(3040, porch).
holds(3040, table).
holds(3040, tiledroof).

sample(3041).
holds(3041, building).
holds(3041, feature).
holds(3041, awning).
holds(3041, table).

sample(3042).
holds(3042, building).
holds(3042, feature).
holds(3042, powerplant).
holds(3042, industrial).
holds(3042, awning).
holds(3042, chimney).
holds(3042, pipe).

sample(3043).
holds(3043, building).
holds(3043, feature).
holds(3043, suburban).
holds(3043, miscresidential).
holds(3043, residential).
holds(3043, porch).
holds(3043, table).
holds(3043, tiledroof).

sample(3044).
holds(3044, building).
holds(3044, feature).
holds(3044, awning).
holds(3044, table).

sample(3045).
holds(3045, building).
holds(3045, feature).
holds(3045, miscindustrial).
holds(3045, watertreatment).
holds(3045, industrial).
holds(3045, pipe).
holds(3045, truck).

sample(3046).
holds(3046, building).
holds(3046, feature).
holds(3046, suburban).
holds(3046, residential).
holds(3046, awning).
holds(3046, porch).
holds(3046, table).
holds(3046, tiledroof).

sample(3047).
holds(3047, building).
holds(3047, feature).
holds(3047, awning).
holds(3047, table).

sample(3048).
holds(3048, building).
holds(3048, feature).
holds(3048, miscindustrial).
holds(3048, powerplant).
holds(3048, watertreatment).
holds(3048, industrial).
holds(3048, chimney).
holds(3048, pipe).
holds(3048, truck).

sample(3049).
holds(3049, building).
holds(3049, feature).
holds(3049, miscresidential).
holds(3049, countryhouse).
holds(3049, residential).
holds(3049, table).
holds(3049, tiledroof).
holds(3049, car).

sample(3050).
holds(3050, building).
holds(3050, feature).
holds(3050, awning).
holds(3050, table).

sample(3051).
holds(3051, building).
holds(3051, feature).
holds(3051, miscindustrial).
holds(3051, powerplant).
holds(3051, watertreatment).
holds(3051, industrial).
holds(3051, chimney).
holds(3051, pipe).
holds(3051, truck).

sample(3052).
holds(3052, building).
holds(3052, feature).
holds(3052, miscresidential).
holds(3052, countryhouse).
holds(3052, residential).
holds(3052, table).
holds(3052, tiledroof).
holds(3052, car).

sample(3053).
holds(3053, building).
holds(3053, feature).
holds(3053, awning).
holds(3053, table).

sample(3054).
holds(3054, building).
holds(3054, feature).
holds(3054, constructionsite).
holds(3054, awning).
holds(3054, table).
holds(3054, machine).

sample(3055).
holds(3055, building).
holds(3055, feature).
holds(3055, suburban).
holds(3055, miscresidential).
holds(3055, countryhouse).
holds(3055, residential).
holds(3055, porch).
holds(3055, table).
holds(3055, tiledroof).
holds(3055, car).

sample(3056).
holds(3056, building).
holds(3056, feature).
holds(3056, awning).
holds(3056, table).

sample(3057).
holds(3057, building).
holds(3057, feature).
holds(3057, powerplant).
holds(3057, industrial).
holds(3057, awning).
holds(3057, chimney).
holds(3057, pipe).

sample(3058).
holds(3058, building).
holds(3058, feature).
holds(3058, suburban).
holds(3058, miscresidential).
holds(3058, residential).
holds(3058, porch).
holds(3058, table).
holds(3058, tiledroof).

sample(3059).
holds(3059, building).
holds(3059, feature).
holds(3059, awning).
holds(3059, table).

sample(3060).
holds(3060, building).
holds(3060, feature).
holds(3060, miscindustrial).
holds(3060, powerplant).
holds(3060, watertreatment).
holds(3060, industrial).
holds(3060, chimney).
holds(3060, pipe).
holds(3060, truck).

sample(3061).
holds(3061, building).
holds(3061, feature).
holds(3061, miscresidential).
holds(3061, countryhouse).
holds(3061, residential).
holds(3061, table).
holds(3061, tiledroof).
holds(3061, car).

sample(3062).
holds(3062, building).
holds(3062, feature).
holds(3062, awning).
holds(3062, table).

sample(3063).
holds(3063, building).
holds(3063, feature).
holds(3063, miscindustrial).
holds(3063, industrial).
holds(3063, truck).

sample(3064).
holds(3064, building).
holds(3064, feature).
holds(3064, suburban).
holds(3064, miscresidential).
holds(3064, residential).
holds(3064, porch).
holds(3064, table).
holds(3064, tiledroof).

sample(3065).
holds(3065, building).
holds(3065, feature).
holds(3065, awning).
holds(3065, table).

sample(3066).
holds(3066, building).
holds(3066, feature).
holds(3066, constructionsite).
holds(3066, powerplant).
holds(3066, awning).
holds(3066, table).
holds(3066, chimney).
holds(3066, pipe).
holds(3066, machine).

sample(3067).
holds(3067, building).
holds(3067, feature).
holds(3067, miscresidential).
holds(3067, residential).
holds(3067, table).
holds(3067, tiledroof).

sample(3068).
holds(3068, building).
holds(3068, feature).
holds(3068, awning).
holds(3068, table).

sample(3069).
holds(3069, building).
holds(3069, feature).
holds(3069, miscindustrial).
holds(3069, industrial).
holds(3069, truck).

sample(3070).
holds(3070, building).
holds(3070, feature).
holds(3070, suburban).
holds(3070, residential).
holds(3070, awning).
holds(3070, porch).
holds(3070, table).
holds(3070, tiledroof).

sample(3071).
holds(3071, building).
holds(3071, feature).
holds(3071, awning).
holds(3071, table).

sample(3072).
holds(3072, building).
holds(3072, feature).
holds(3072, powerplant).
holds(3072, industrial).
holds(3072, awning).
holds(3072, chimney).
holds(3072, pipe).

sample(3073).
holds(3073, building).
holds(3073, feature).
holds(3073, suburban).
holds(3073, residential).
holds(3073, awning).
holds(3073, porch).
holds(3073, table).
holds(3073, tiledroof).

sample(3074).
holds(3074, building).
holds(3074, feature).
holds(3074, awning).
holds(3074, table).

sample(3075).
holds(3075, building).
holds(3075, feature).
holds(3075, watertreatment).
holds(3075, industrial).
holds(3075, pipe).
holds(3075, truck).

sample(3076).
holds(3076, building).
holds(3076, feature).
holds(3076, suburban).
holds(3076, miscresidential).
holds(3076, residential).
holds(3076, porch).
holds(3076, table).
holds(3076, tiledroof).

sample(3077).
holds(3077, building).
holds(3077, feature).
holds(3077, awning).
holds(3077, table).

sample(3078).
holds(3078, building).
holds(3078, feature).
holds(3078, powerplant).
holds(3078, watertreatment).
holds(3078, industrial).
holds(3078, chimney).
holds(3078, pipe).
holds(3078, truck).

sample(3079).
holds(3079, building).
holds(3079, feature).
holds(3079, suburban).
holds(3079, miscresidential).
holds(3079, residential).
holds(3079, porch).
holds(3079, table).
holds(3079, tiledroof).

sample(3080).
holds(3080, building).
holds(3080, feature).
holds(3080, awning).
holds(3080, table).

sample(3081).
holds(3081, building).
holds(3081, feature).
holds(3081, powerplant).
holds(3081, watertreatment).
holds(3081, industrial).
holds(3081, awning).
holds(3081, chimney).
holds(3081, pipe).
holds(3081, truck).

sample(3082).
holds(3082, building).
holds(3082, feature).
holds(3082, suburban).
holds(3082, residential).
holds(3082, awning).
holds(3082, porch).
holds(3082, table).
holds(3082, tiledroof).

sample(3083).
holds(3083, building).
holds(3083, feature).
holds(3083, awning).
holds(3083, table).

sample(3084).
holds(3084, building).
holds(3084, feature).
holds(3084, constructionsite).
holds(3084, awning).
holds(3084, table).
holds(3084, machine).

sample(3085).
holds(3085, building).
holds(3085, feature).
holds(3085, suburban).
holds(3085, miscresidential).
holds(3085, residential).
holds(3085, porch).
holds(3085, table).
holds(3085, tiledroof).

sample(3086).
holds(3086, building).
holds(3086, feature).
holds(3086, awning).
holds(3086, table).

sample(3087).
holds(3087, building).
holds(3087, feature).
holds(3087, miscindustrial).
holds(3087, watertreatment).
holds(3087, industrial).
holds(3087, pipe).
holds(3087, truck).

sample(3088).
holds(3088, building).
holds(3088, feature).
holds(3088, miscresidential).
holds(3088, countryhouse).
holds(3088, residential).
holds(3088, table).
holds(3088, tiledroof).
holds(3088, car).

sample(3089).
holds(3089, building).
holds(3089, feature).
holds(3089, awning).
holds(3089, table).

sample(3090).
holds(3090, building).
holds(3090, feature).
holds(3090, miscindustrial).
holds(3090, powerplant).
holds(3090, watertreatment).
holds(3090, industrial).
holds(3090, chimney).
holds(3090, pipe).
holds(3090, truck).

sample(3091).
holds(3091, building).
holds(3091, feature).
holds(3091, suburban).
holds(3091, residential).
holds(3091, awning).
holds(3091, porch).
holds(3091, table).
holds(3091, tiledroof).

sample(3092).
holds(3092, building).
holds(3092, feature).
holds(3092, awning).
holds(3092, table).

sample(3093).
holds(3093, building).
holds(3093, feature).
holds(3093, miscindustrial).
holds(3093, industrial).
holds(3093, truck).

sample(3094).
holds(3094, building).
holds(3094, feature).
holds(3094, suburban).
holds(3094, miscresidential).
holds(3094, residential).
holds(3094, porch).
holds(3094, table).
holds(3094, tiledroof).

sample(3095).
holds(3095, building).
holds(3095, feature).
holds(3095, awning).
holds(3095, table).

sample(3096).
holds(3096, building).
holds(3096, feature).
holds(3096, miscindustrial).
holds(3096, industrial).
holds(3096, truck).

sample(3097).
holds(3097, building).
holds(3097, feature).
holds(3097, miscresidential).
holds(3097, countryhouse).
holds(3097, residential).
holds(3097, table).
holds(3097, tiledroof).
holds(3097, car).

sample(3098).
holds(3098, building).
holds(3098, feature).
holds(3098, awning).
holds(3098, table).

sample(3099).
holds(3099, building).
holds(3099, feature).
holds(3099, constructionsite).
holds(3099, awning).
holds(3099, table).
holds(3099, machine).

sample(3100).
holds(3100, building).
holds(3100, feature).
holds(3100, suburban).
holds(3100, miscresidential).
holds(3100, countryhouse).
holds(3100, residential).
holds(3100, porch).
holds(3100, table).
holds(3100, tiledroof).
holds(3100, car).

sample(3101).
holds(3101, building).
holds(3101, feature).
holds(3101, awning).
holds(3101, table).

sample(3102).
holds(3102, building).
holds(3102, feature).
holds(3102, miscindustrial).
holds(3102, powerplant).
holds(3102, watertreatment).
holds(3102, industrial).
holds(3102, chimney).
holds(3102, pipe).
holds(3102, truck).

sample(3103).
holds(3103, building).
holds(3103, feature).
holds(3103, suburban).
holds(3103, miscresidential).
holds(3103, residential).
holds(3103, porch).
holds(3103, table).
holds(3103, tiledroof).

sample(3104).
holds(3104, building).
holds(3104, feature).
holds(3104, awning).
holds(3104, table).

sample(3105).
holds(3105, building).
holds(3105, feature).
holds(3105, constructionsite).
holds(3105, awning).
holds(3105, table).
holds(3105, machine).

sample(3106).
holds(3106, building).
holds(3106, feature).
holds(3106, suburban).
holds(3106, miscresidential).
holds(3106, residential).
holds(3106, porch).
holds(3106, table).
holds(3106, tiledroof).

sample(3107).
holds(3107, building).
holds(3107, feature).
holds(3107, awning).
holds(3107, table).

sample(3108).
holds(3108, building).
holds(3108, feature).
holds(3108, constructionsite).
holds(3108, awning).
holds(3108, table).
holds(3108, machine).

sample(3109).
holds(3109, building).
holds(3109, feature).
holds(3109, suburban).
holds(3109, miscresidential).
holds(3109, residential).
holds(3109, porch).
holds(3109, table).
holds(3109, tiledroof).

sample(3110).
holds(3110, building).
holds(3110, feature).
holds(3110, awning).
holds(3110, table).

sample(3111).
holds(3111, building).
holds(3111, feature).
holds(3111, constructionsite).
holds(3111, powerplant).
holds(3111, awning).
holds(3111, table).
holds(3111, chimney).
holds(3111, pipe).
holds(3111, machine).

sample(3112).
holds(3112, building).
holds(3112, feature).
holds(3112, suburban).
holds(3112, miscresidential).
holds(3112, residential).
holds(3112, porch).
holds(3112, table).
holds(3112, tiledroof).

sample(3113).
holds(3113, building).
holds(3113, feature).
holds(3113, awning).
holds(3113, table).

sample(3114).
holds(3114, building).
holds(3114, feature).
holds(3114, miscindustrial).
holds(3114, powerplant).
holds(3114, watertreatment).
holds(3114, industrial).
holds(3114, chimney).
holds(3114, pipe).
holds(3114, truck).

sample(3115).
holds(3115, building).
holds(3115, feature).
holds(3115, suburban).
holds(3115, miscresidential).
holds(3115, residential).
holds(3115, porch).
holds(3115, table).
holds(3115, tiledroof).

sample(3116).
holds(3116, building).
holds(3116, feature).
holds(3116, awning).
holds(3116, table).

sample(3117).
holds(3117, building).
holds(3117, feature).
holds(3117, constructionsite).
holds(3117, powerplant).
holds(3117, awning).
holds(3117, table).
holds(3117, chimney).
holds(3117, pipe).
holds(3117, machine).

sample(3118).
holds(3118, building).
holds(3118, feature).
holds(3118, suburban).
holds(3118, miscresidential).
holds(3118, countryhouse).
holds(3118, residential).
holds(3118, porch).
holds(3118, table).
holds(3118, tiledroof).
holds(3118, car).

sample(3119).
holds(3119, building).
holds(3119, feature).
holds(3119, awning).
holds(3119, table).

sample(3120).
holds(3120, building).
holds(3120, feature).
holds(3120, constructionsite).
holds(3120, powerplant).
holds(3120, awning).
holds(3120, table).
holds(3120, chimney).
holds(3120, pipe).
holds(3120, machine).

sample(3121).
holds(3121, building).
holds(3121, feature).
holds(3121, suburban).
holds(3121, miscresidential).
holds(3121, residential).
holds(3121, porch).
holds(3121, table).
holds(3121, tiledroof).

sample(3122).
holds(3122, building).
holds(3122, feature).
holds(3122, awning).
holds(3122, table).

sample(3123).
holds(3123, building).
holds(3123, feature).
holds(3123, miscindustrial).
holds(3123, industrial).
holds(3123, truck).

sample(3124).
holds(3124, building).
holds(3124, feature).
holds(3124, miscresidential).
holds(3124, residential).
holds(3124, table).
holds(3124, tiledroof).

sample(3125).
holds(3125, building).
holds(3125, feature).
holds(3125, awning).
holds(3125, table).

sample(3126).
holds(3126, building).
holds(3126, feature).
holds(3126, miscindustrial).
holds(3126, powerplant).
holds(3126, watertreatment).
holds(3126, industrial).
holds(3126, chimney).
holds(3126, pipe).
holds(3126, truck).

sample(3127).
holds(3127, building).
holds(3127, feature).
holds(3127, miscresidential).
holds(3127, residential).
holds(3127, table).
holds(3127, tiledroof).

sample(3128).
holds(3128, building).
holds(3128, feature).
holds(3128, awning).
holds(3128, table).

sample(3129).
holds(3129, building).
holds(3129, feature).
holds(3129, constructionsite).
holds(3129, powerplant).
holds(3129, awning).
holds(3129, table).
holds(3129, chimney).
holds(3129, pipe).
holds(3129, machine).

sample(3130).
holds(3130, building).
holds(3130, feature).
holds(3130, suburban).
holds(3130, miscresidential).
holds(3130, countryhouse).
holds(3130, residential).
holds(3130, porch).
holds(3130, table).
holds(3130, tiledroof).
holds(3130, car).

sample(3131).
holds(3131, building).
holds(3131, feature).
holds(3131, awning).
holds(3131, table).

sample(3132).
holds(3132, building).
holds(3132, feature).
holds(3132, miscindustrial).
holds(3132, watertreatment).
holds(3132, industrial).
holds(3132, pipe).
holds(3132, truck).

sample(3133).
holds(3133, building).
holds(3133, feature).
holds(3133, suburban).
holds(3133, residential).
holds(3133, awning).
holds(3133, porch).
holds(3133, table).
holds(3133, tiledroof).

sample(3134).
holds(3134, building).
holds(3134, feature).
holds(3134, awning).
holds(3134, table).

sample(3135).
holds(3135, building).
holds(3135, feature).
holds(3135, miscindustrial).
holds(3135, industrial).
holds(3135, truck).

sample(3136).
holds(3136, building).
holds(3136, feature).
holds(3136, miscresidential).
holds(3136, residential).
holds(3136, table).
holds(3136, tiledroof).

sample(3137).
holds(3137, building).
holds(3137, feature).
holds(3137, awning).
holds(3137, table).

sample(3138).
holds(3138, building).
holds(3138, feature).
holds(3138, powerplant).
holds(3138, industrial).
holds(3138, awning).
holds(3138, chimney).
holds(3138, pipe).

sample(3139).
holds(3139, building).
holds(3139, feature).
holds(3139, miscresidential).
holds(3139, countryhouse).
holds(3139, residential).
holds(3139, table).
holds(3139, tiledroof).
holds(3139, car).

sample(3140).
holds(3140, building).
holds(3140, feature).
holds(3140, awning).
holds(3140, table).

sample(3141).
holds(3141, building).
holds(3141, feature).
holds(3141, miscindustrial).
holds(3141, industrial).
holds(3141, truck).

sample(3142).
holds(3142, building).
holds(3142, feature).
holds(3142, suburban).
holds(3142, miscresidential).
holds(3142, residential).
holds(3142, porch).
holds(3142, table).
holds(3142, tiledroof).

sample(3143).
holds(3143, building).
holds(3143, feature).
holds(3143, awning).
holds(3143, table).

sample(3144).
holds(3144, building).
holds(3144, feature).
holds(3144, miscindustrial).
holds(3144, watertreatment).
holds(3144, industrial).
holds(3144, pipe).
holds(3144, truck).

sample(3145).
holds(3145, building).
holds(3145, feature).
holds(3145, suburban).
holds(3145, miscresidential).
holds(3145, residential).
holds(3145, porch).
holds(3145, table).
holds(3145, tiledroof).

sample(3146).
holds(3146, building).
holds(3146, feature).
holds(3146, awning).
holds(3146, table).

sample(3147).
holds(3147, building).
holds(3147, feature).
holds(3147, miscindustrial).
holds(3147, powerplant).
holds(3147, watertreatment).
holds(3147, industrial).
holds(3147, chimney).
holds(3147, pipe).
holds(3147, truck).

sample(3148).
holds(3148, building).
holds(3148, feature).
holds(3148, suburban).
holds(3148, residential).
holds(3148, awning).
holds(3148, porch).
holds(3148, table).
holds(3148, tiledroof).

sample(3149).
holds(3149, building).
holds(3149, feature).
holds(3149, awning).
holds(3149, table).

sample(3150).
holds(3150, building).
holds(3150, feature).
holds(3150, powerplant).
holds(3150, watertreatment).
holds(3150, industrial).
holds(3150, awning).
holds(3150, chimney).
holds(3150, pipe).
holds(3150, truck).

sample(3151).
holds(3151, building).
holds(3151, feature).
holds(3151, miscresidential).
holds(3151, countryhouse).
holds(3151, residential).
holds(3151, table).
holds(3151, tiledroof).
holds(3151, car).

sample(3152).
holds(3152, building).
holds(3152, feature).
holds(3152, awning).
holds(3152, table).

sample(3153).
holds(3153, building).
holds(3153, feature).
holds(3153, constructionsite).
holds(3153, awning).
holds(3153, table).
holds(3153, machine).

sample(3154).
holds(3154, building).
holds(3154, feature).
holds(3154, suburban).
holds(3154, miscresidential).
holds(3154, residential).
holds(3154, porch).
holds(3154, table).
holds(3154, tiledroof).

sample(3155).
holds(3155, building).
holds(3155, feature).
holds(3155, awning).
holds(3155, table).

sample(3156).
holds(3156, building).
holds(3156, feature).
holds(3156, constructionsite).
holds(3156, awning).
holds(3156, table).
holds(3156, machine).

sample(3157).
holds(3157, building).
holds(3157, feature).
holds(3157, miscresidential).
holds(3157, countryhouse).
holds(3157, residential).
holds(3157, table).
holds(3157, tiledroof).
holds(3157, car).

sample(3158).
holds(3158, building).
holds(3158, feature).
holds(3158, awning).
holds(3158, table).

sample(3159).
holds(3159, building).
holds(3159, feature).
holds(3159, constructionsite).
holds(3159, awning).
holds(3159, table).
holds(3159, machine).

sample(3160).
holds(3160, building).
holds(3160, feature).
holds(3160, suburban).
holds(3160, residential).
holds(3160, awning).
holds(3160, porch).
holds(3160, table).
holds(3160, tiledroof).

sample(3161).
holds(3161, building).
holds(3161, feature).
holds(3161, awning).
holds(3161, table).

sample(3162).
holds(3162, building).
holds(3162, feature).
holds(3162, watertreatment).
holds(3162, industrial).
holds(3162, awning).
holds(3162, pipe).
holds(3162, truck).

sample(3163).
holds(3163, building).
holds(3163, feature).
holds(3163, suburban).
holds(3163, miscresidential).
holds(3163, residential).
holds(3163, porch).
holds(3163, table).
holds(3163, tiledroof).

sample(3164).
holds(3164, building).
holds(3164, feature).
holds(3164, awning).
holds(3164, table).

sample(3165).
holds(3165, building).
holds(3165, feature).
holds(3165, miscindustrial).
holds(3165, watertreatment).
holds(3165, industrial).
holds(3165, pipe).
holds(3165, truck).

sample(3166).
holds(3166, building).
holds(3166, feature).
holds(3166, suburban).
holds(3166, residential).
holds(3166, awning).
holds(3166, porch).
holds(3166, table).
holds(3166, tiledroof).

sample(3167).
holds(3167, building).
holds(3167, feature).
holds(3167, awning).
holds(3167, table).

sample(3168).
holds(3168, building).
holds(3168, feature).
holds(3168, powerplant).
holds(3168, industrial).
holds(3168, awning).
holds(3168, chimney).
holds(3168, pipe).

sample(3169).
holds(3169, building).
holds(3169, feature).
holds(3169, miscresidential).
holds(3169, countryhouse).
holds(3169, residential).
holds(3169, table).
holds(3169, tiledroof).
holds(3169, car).

sample(3170).
holds(3170, building).
holds(3170, feature).
holds(3170, awning).
holds(3170, table).

sample(3171).
holds(3171, building).
holds(3171, feature).
holds(3171, miscindustrial).
holds(3171, industrial).
holds(3171, truck).

sample(3172).
holds(3172, building).
holds(3172, feature).
holds(3172, suburban).
holds(3172, miscresidential).
holds(3172, residential).
holds(3172, porch).
holds(3172, table).
holds(3172, tiledroof).

sample(3173).
holds(3173, building).
holds(3173, feature).
holds(3173, awning).
holds(3173, table).

sample(3174).
holds(3174, building).
holds(3174, feature).
holds(3174, miscindustrial).
holds(3174, powerplant).
holds(3174, watertreatment).
holds(3174, industrial).
holds(3174, chimney).
holds(3174, pipe).
holds(3174, truck).

sample(3175).
holds(3175, building).
holds(3175, feature).
holds(3175, suburban).
holds(3175, miscresidential).
holds(3175, residential).
holds(3175, porch).
holds(3175, table).
holds(3175, tiledroof).

sample(3176).
holds(3176, building).
holds(3176, feature).
holds(3176, awning).
holds(3176, table).

sample(3177).
holds(3177, building).
holds(3177, feature).
holds(3177, powerplant).
holds(3177, industrial).
holds(3177, awning).
holds(3177, chimney).
holds(3177, pipe).

sample(3178).
holds(3178, building).
holds(3178, feature).
holds(3178, miscresidential).
holds(3178, countryhouse).
holds(3178, residential).
holds(3178, table).
holds(3178, tiledroof).
holds(3178, car).

sample(3179).
holds(3179, building).
holds(3179, feature).
holds(3179, awning).
holds(3179, table).

sample(3180).
holds(3180, building).
holds(3180, feature).
holds(3180, miscindustrial).
holds(3180, watertreatment).
holds(3180, industrial).
holds(3180, pipe).
holds(3180, truck).

sample(3181).
holds(3181, building).
holds(3181, feature).
holds(3181, suburban).
holds(3181, residential).
holds(3181, awning).
holds(3181, porch).
holds(3181, table).
holds(3181, tiledroof).

sample(3182).
holds(3182, building).
holds(3182, feature).
holds(3182, awning).
holds(3182, table).

sample(3183).
holds(3183, building).
holds(3183, feature).
holds(3183, constructionsite).
holds(3183, awning).
holds(3183, table).
holds(3183, machine).

sample(3184).
holds(3184, building).
holds(3184, feature).
holds(3184, suburban).
holds(3184, miscresidential).
holds(3184, residential).
holds(3184, porch).
holds(3184, table).
holds(3184, tiledroof).

sample(3185).
holds(3185, building).
holds(3185, feature).
holds(3185, awning).
holds(3185, table).

sample(3186).
holds(3186, building).
holds(3186, feature).
holds(3186, constructionsite).
holds(3186, powerplant).
holds(3186, awning).
holds(3186, table).
holds(3186, chimney).
holds(3186, pipe).
holds(3186, machine).

sample(3187).
holds(3187, building).
holds(3187, feature).
holds(3187, suburban).
holds(3187, residential).
holds(3187, awning).
holds(3187, porch).
holds(3187, table).
holds(3187, tiledroof).

sample(3188).
holds(3188, building).
holds(3188, feature).
holds(3188, awning).
holds(3188, table).

sample(3189).
holds(3189, building).
holds(3189, feature).
holds(3189, powerplant).
holds(3189, watertreatment).
holds(3189, industrial).
holds(3189, awning).
holds(3189, chimney).
holds(3189, pipe).
holds(3189, truck).

sample(3190).
holds(3190, building).
holds(3190, feature).
holds(3190, miscresidential).
holds(3190, countryhouse).
holds(3190, residential).
holds(3190, table).
holds(3190, tiledroof).
holds(3190, car).

sample(3191).
holds(3191, building).
holds(3191, feature).
holds(3191, awning).
holds(3191, table).

sample(3192).
holds(3192, building).
holds(3192, feature).
holds(3192, constructionsite).
holds(3192, awning).
holds(3192, table).
holds(3192, machine).

sample(3193).
holds(3193, building).
holds(3193, feature).
holds(3193, miscresidential).
holds(3193, residential).
holds(3193, table).
holds(3193, tiledroof).

sample(3194).
holds(3194, building).
holds(3194, feature).
holds(3194, awning).
holds(3194, table).

sample(3195).
holds(3195, building).
holds(3195, feature).
holds(3195, powerplant).
holds(3195, industrial).
holds(3195, awning).
holds(3195, chimney).
holds(3195, pipe).

sample(3196).
holds(3196, building).
holds(3196, feature).
holds(3196, suburban).
holds(3196, miscresidential).
holds(3196, countryhouse).
holds(3196, residential).
holds(3196, porch).
holds(3196, table).
holds(3196, tiledroof).
holds(3196, car).

sample(3197).
holds(3197, building).
holds(3197, feature).
holds(3197, awning).
holds(3197, table).

sample(3198).
holds(3198, building).
holds(3198, feature).
holds(3198, powerplant).
holds(3198, industrial).
holds(3198, awning).
holds(3198, chimney).
holds(3198, pipe).

sample(3199).
holds(3199, building).
holds(3199, feature).
holds(3199, suburban).
holds(3199, residential).
holds(3199, awning).
holds(3199, porch).
holds(3199, table).
holds(3199, tiledroof).

sample(3200).
holds(3200, building).
holds(3200, feature).
holds(3200, awning).
holds(3200, table).

sample(3201).
holds(3201, building).
holds(3201, feature).
holds(3201, constructionsite).
holds(3201, powerplant).
holds(3201, awning).
holds(3201, table).
holds(3201, chimney).
holds(3201, pipe).
holds(3201, machine).

sample(3202).
holds(3202, building).
holds(3202, feature).
holds(3202, suburban).
holds(3202, residential).
holds(3202, awning).
holds(3202, porch).
holds(3202, table).
holds(3202, tiledroof).

sample(3203).
holds(3203, building).
holds(3203, feature).
holds(3203, awning).
holds(3203, table).

sample(3204).
holds(3204, building).
holds(3204, feature).
holds(3204, constructionsite).
holds(3204, awning).
holds(3204, table).
holds(3204, chimney).
holds(3204, machine).

sample(3205).
holds(3205, building).
holds(3205, feature).
holds(3205, miscresidential).
holds(3205, countryhouse).
holds(3205, residential).
holds(3205, table).
holds(3205, tiledroof).
holds(3205, car).

sample(3206).
holds(3206, building).
holds(3206, feature).
holds(3206, awning).
holds(3206, table).

sample(3207).
holds(3207, building).
holds(3207, feature).
holds(3207, constructionsite).
holds(3207, powerplant).
holds(3207, awning).
holds(3207, table).
holds(3207, chimney).
holds(3207, pipe).
holds(3207, machine).

sample(3208).
holds(3208, building).
holds(3208, feature).
holds(3208, suburban).
holds(3208, residential).
holds(3208, awning).
holds(3208, porch).
holds(3208, table).
holds(3208, tiledroof).

sample(3209).
holds(3209, building).
holds(3209, feature).
holds(3209, awning).
holds(3209, table).

sample(3210).
holds(3210, building).
holds(3210, feature).
holds(3210, constructionsite).
holds(3210, powerplant).
holds(3210, awning).
holds(3210, table).
holds(3210, chimney).
holds(3210, pipe).
holds(3210, machine).

sample(3211).
holds(3211, building).
holds(3211, feature).
holds(3211, miscresidential).
holds(3211, countryhouse).
holds(3211, residential).
holds(3211, table).
holds(3211, tiledroof).
holds(3211, car).

sample(3212).
holds(3212, building).
holds(3212, feature).
holds(3212, awning).
holds(3212, table).

sample(3213).
holds(3213, building).
holds(3213, feature).
holds(3213, miscindustrial).
holds(3213, industrial).
holds(3213, truck).

sample(3214).
holds(3214, building).
holds(3214, feature).
holds(3214, miscresidential).
holds(3214, countryhouse).
holds(3214, residential).
holds(3214, table).
holds(3214, tiledroof).
holds(3214, car).

sample(3215).
holds(3215, building).
holds(3215, feature).
holds(3215, awning).
holds(3215, table).

sample(3216).
holds(3216, building).
holds(3216, feature).
holds(3216, miscindustrial).
holds(3216, industrial).
holds(3216, truck).

sample(3217).
holds(3217, building).
holds(3217, feature).
holds(3217, miscresidential).
holds(3217, residential).
holds(3217, table).
holds(3217, tiledroof).

sample(3218).
holds(3218, building).
holds(3218, feature).
holds(3218, awning).
holds(3218, table).

sample(3219).
holds(3219, building).
holds(3219, feature).
holds(3219, miscindustrial).
holds(3219, industrial).
holds(3219, truck).

sample(3220).
holds(3220, building).
holds(3220, feature).
holds(3220, suburban).
holds(3220, miscresidential).
holds(3220, residential).
holds(3220, porch).
holds(3220, table).
holds(3220, tiledroof).

sample(3221).
holds(3221, building).
holds(3221, feature).
holds(3221, awning).
holds(3221, table).

sample(3222).
holds(3222, building).
holds(3222, feature).
holds(3222, constructionsite).
holds(3222, awning).
holds(3222, table).
holds(3222, machine).

sample(3223).
holds(3223, building).
holds(3223, feature).
holds(3223, suburban).
holds(3223, miscresidential).
holds(3223, residential).
holds(3223, porch).
holds(3223, table).
holds(3223, tiledroof).

sample(3224).
holds(3224, building).
holds(3224, feature).
holds(3224, awning).
holds(3224, table).

sample(3225).
holds(3225, building).
holds(3225, feature).
holds(3225, miscindustrial).
holds(3225, industrial).
holds(3225, truck).

sample(3226).
holds(3226, building).
holds(3226, feature).
holds(3226, suburban).
holds(3226, miscresidential).
holds(3226, countryhouse).
holds(3226, residential).
holds(3226, porch).
holds(3226, table).
holds(3226, tiledroof).
holds(3226, car).

sample(3227).
holds(3227, building).
holds(3227, feature).
holds(3227, awning).
holds(3227, table).

sample(3228).
holds(3228, building).
holds(3228, feature).
holds(3228, constructionsite).
holds(3228, awning).
holds(3228, table).
holds(3228, machine).

sample(3229).
holds(3229, building).
holds(3229, feature).
holds(3229, suburban).
holds(3229, miscresidential).
holds(3229, residential).
holds(3229, porch).
holds(3229, table).
holds(3229, tiledroof).

sample(3230).
holds(3230, building).
holds(3230, feature).
holds(3230, awning).
holds(3230, table).

sample(3231).
holds(3231, building).
holds(3231, feature).
holds(3231, miscindustrial).
holds(3231, watertreatment).
holds(3231, industrial).
holds(3231, pipe).
holds(3231, truck).

sample(3232).
holds(3232, building).
holds(3232, feature).
holds(3232, suburban).
holds(3232, miscresidential).
holds(3232, residential).
holds(3232, porch).
holds(3232, table).
holds(3232, tiledroof).

sample(3233).
holds(3233, building).
holds(3233, feature).
holds(3233, awning).
holds(3233, table).

sample(3234).
holds(3234, building).
holds(3234, feature).
holds(3234, powerplant).
holds(3234, watertreatment).
holds(3234, industrial).
holds(3234, chimney).
holds(3234, pipe).
holds(3234, truck).

sample(3235).
holds(3235, building).
holds(3235, feature).
holds(3235, miscresidential).
holds(3235, table).
holds(3235, tiledroof).

sample(3236).
holds(3236, building).
holds(3236, feature).
holds(3236, awning).
holds(3236, table).

sample(3237).
holds(3237, building).
holds(3237, feature).
holds(3237, constructionsite).
holds(3237, powerplant).
holds(3237, awning).
holds(3237, table).
holds(3237, chimney).
holds(3237, pipe).
holds(3237, machine).

sample(3238).
holds(3238, building).
holds(3238, feature).
holds(3238, suburban).
holds(3238, residential).
holds(3238, awning).
holds(3238, porch).
holds(3238, table).
holds(3238, tiledroof).

sample(3239).
holds(3239, building).
holds(3239, feature).
holds(3239, awning).
holds(3239, table).

sample(3240).
holds(3240, building).
holds(3240, feature).
holds(3240, constructionsite).
holds(3240, powerplant).
holds(3240, awning).
holds(3240, table).
holds(3240, chimney).
holds(3240, pipe).
holds(3240, machine).

sample(3241).
holds(3241, building).
holds(3241, feature).
holds(3241, miscresidential).
holds(3241, countryhouse).
holds(3241, residential).
holds(3241, table).
holds(3241, tiledroof).
holds(3241, car).

sample(3242).
holds(3242, building).
holds(3242, feature).
holds(3242, awning).
holds(3242, table).

sample(3243).
holds(3243, building).
holds(3243, feature).
holds(3243, watertreatment).
holds(3243, industrial).
holds(3243, awning).
holds(3243, pipe).
holds(3243, truck).

sample(3244).
holds(3244, building).
holds(3244, feature).
holds(3244, suburban).
holds(3244, miscresidential).
holds(3244, residential).
holds(3244, porch).
holds(3244, table).
holds(3244, tiledroof).

sample(3245).
holds(3245, building).
holds(3245, feature).
holds(3245, awning).
holds(3245, table).

sample(3246).
holds(3246, building).
holds(3246, feature).
holds(3246, miscindustrial).
holds(3246, powerplant).
holds(3246, watertreatment).
holds(3246, industrial).
holds(3246, chimney).
holds(3246, pipe).
holds(3246, truck).

sample(3247).
holds(3247, building).
holds(3247, feature).
holds(3247, suburban).
holds(3247, miscresidential).
holds(3247, countryhouse).
holds(3247, residential).
holds(3247, porch).
holds(3247, table).
holds(3247, tiledroof).
holds(3247, car).

sample(3248).
holds(3248, building).
holds(3248, feature).
holds(3248, awning).
holds(3248, table).

sample(3249).
holds(3249, building).
holds(3249, feature).
holds(3249, constructionsite).
holds(3249, awning).
holds(3249, table).
holds(3249, machine).

sample(3250).
holds(3250, building).
holds(3250, feature).
holds(3250, miscresidential).
holds(3250, residential).
holds(3250, table).
holds(3250, tiledroof).

sample(3251).
holds(3251, building).
holds(3251, feature).
holds(3251, awning).
holds(3251, table).

sample(3252).
holds(3252, building).
holds(3252, feature).
holds(3252, powerplant).
holds(3252, watertreatment).
holds(3252, industrial).
holds(3252, awning).
holds(3252, chimney).
holds(3252, pipe).
holds(3252, truck).

sample(3253).
holds(3253, building).
holds(3253, feature).
holds(3253, suburban).
holds(3253, miscresidential).
holds(3253, residential).
holds(3253, porch).
holds(3253, table).
holds(3253, tiledroof).

sample(3254).
holds(3254, building).
holds(3254, feature).
holds(3254, awning).
holds(3254, table).

sample(3255).
holds(3255, building).
holds(3255, feature).
holds(3255, constructionsite).
holds(3255, awning).
holds(3255, table).
holds(3255, machine).

sample(3256).
holds(3256, building).
holds(3256, feature).
holds(3256, suburban).
holds(3256, miscresidential).
holds(3256, countryhouse).
holds(3256, residential).
holds(3256, porch).
holds(3256, table).
holds(3256, tiledroof).
holds(3256, car).

sample(3257).
holds(3257, building).
holds(3257, feature).
holds(3257, awning).
holds(3257, table).

sample(3258).
holds(3258, building).
holds(3258, feature).
holds(3258, miscindustrial).
holds(3258, powerplant).
holds(3258, watertreatment).
holds(3258, industrial).
holds(3258, chimney).
holds(3258, pipe).
holds(3258, truck).

sample(3259).
holds(3259, building).
holds(3259, feature).
holds(3259, suburban).
holds(3259, miscresidential).
holds(3259, residential).
holds(3259, porch).
holds(3259, table).
holds(3259, tiledroof).

sample(3260).
holds(3260, building).
holds(3260, feature).
holds(3260, awning).
holds(3260, table).

sample(3261).
holds(3261, building).
holds(3261, feature).
holds(3261, miscindustrial).
holds(3261, watertreatment).
holds(3261, industrial).
holds(3261, pipe).
holds(3261, truck).

sample(3262).
holds(3262, building).
holds(3262, feature).
holds(3262, miscresidential).
holds(3262, residential).
holds(3262, table).
holds(3262, tiledroof).

sample(3263).
holds(3263, building).
holds(3263, feature).
holds(3263, awning).
holds(3263, table).

sample(3264).
holds(3264, building).
holds(3264, feature).
holds(3264, powerplant).
holds(3264, industrial).
holds(3264, awning).
holds(3264, chimney).
holds(3264, pipe).

sample(3265).
holds(3265, building).
holds(3265, feature).
holds(3265, suburban).
holds(3265, miscresidential).
holds(3265, countryhouse).
holds(3265, residential).
holds(3265, porch).
holds(3265, table).
holds(3265, tiledroof).
holds(3265, car).

sample(3266).
holds(3266, building).
holds(3266, feature).
holds(3266, awning).
holds(3266, table).

sample(3267).
holds(3267, building).
holds(3267, feature).
holds(3267, powerplant).
holds(3267, watertreatment).
holds(3267, industrial).
holds(3267, awning).
holds(3267, chimney).
holds(3267, pipe).
holds(3267, truck).

sample(3268).
holds(3268, building).
holds(3268, feature).
holds(3268, suburban).
holds(3268, miscresidential).
holds(3268, countryhouse).
holds(3268, residential).
holds(3268, porch).
holds(3268, table).
holds(3268, tiledroof).
holds(3268, car).

sample(3269).
holds(3269, building).
holds(3269, feature).
holds(3269, awning).
holds(3269, table).

sample(3270).
holds(3270, building).
holds(3270, feature).
holds(3270, miscindustrial).
holds(3270, watertreatment).
holds(3270, industrial).
holds(3270, pipe).
holds(3270, truck).

sample(3271).
holds(3271, building).
holds(3271, feature).
holds(3271, suburban).
holds(3271, miscresidential).
holds(3271, residential).
holds(3271, porch).
holds(3271, table).
holds(3271, tiledroof).

sample(3272).
holds(3272, building).
holds(3272, feature).
holds(3272, awning).
holds(3272, table).

sample(3273).
holds(3273, building).
holds(3273, feature).
holds(3273, constructionsite).
holds(3273, powerplant).
holds(3273, awning).
holds(3273, table).
holds(3273, chimney).
holds(3273, pipe).
holds(3273, machine).

sample(3274).
holds(3274, building).
holds(3274, feature).
holds(3274, suburban).
holds(3274, miscresidential).
holds(3274, residential).
holds(3274, porch).
holds(3274, table).
holds(3274, tiledroof).

sample(3275).
holds(3275, building).
holds(3275, feature).
holds(3275, awning).
holds(3275, table).

sample(3276).
holds(3276, building).
holds(3276, feature).
holds(3276, miscindustrial).
holds(3276, industrial).
holds(3276, truck).

sample(3277).
holds(3277, building).
holds(3277, feature).
holds(3277, miscresidential).
holds(3277, countryhouse).
holds(3277, residential).
holds(3277, table).
holds(3277, tiledroof).
holds(3277, car).

sample(3278).
holds(3278, building).
holds(3278, feature).
holds(3278, awning).
holds(3278, table).

sample(3279).
holds(3279, building).
holds(3279, feature).
holds(3279, miscindustrial).
holds(3279, industrial).
holds(3279, truck).

sample(3280).
holds(3280, building).
holds(3280, feature).
holds(3280, miscresidential).
holds(3280, countryhouse).
holds(3280, residential).
holds(3280, table).
holds(3280, tiledroof).
holds(3280, car).

sample(3281).
holds(3281, building).
holds(3281, feature).
holds(3281, awning).
holds(3281, table).

sample(3282).
holds(3282, building).
holds(3282, feature).
holds(3282, powerplant).
holds(3282, industrial).
holds(3282, awning).
holds(3282, chimney).
holds(3282, pipe).

sample(3283).
holds(3283, building).
holds(3283, feature).
holds(3283, suburban).
holds(3283, miscresidential).
holds(3283, countryhouse).
holds(3283, residential).
holds(3283, porch).
holds(3283, table).
holds(3283, tiledroof).
holds(3283, car).

sample(3284).
holds(3284, building).
holds(3284, feature).
holds(3284, awning).

sample(3285).
holds(3285, building).
holds(3285, feature).
holds(3285, constructionsite).
holds(3285, powerplant).
holds(3285, awning).
holds(3285, table).
holds(3285, chimney).
holds(3285, pipe).
holds(3285, machine).

sample(3286).
holds(3286, building).
holds(3286, feature).
holds(3286, miscresidential).
holds(3286, countryhouse).
holds(3286, residential).
holds(3286, table).
holds(3286, tiledroof).
holds(3286, car).

sample(3287).
holds(3287, building).
holds(3287, feature).
holds(3287, awning).
holds(3287, table).

sample(3288).
holds(3288, building).
holds(3288, feature).
holds(3288, miscindustrial).
holds(3288, industrial).
holds(3288, truck).

sample(3289).
holds(3289, building).
holds(3289, feature).
holds(3289, miscresidential).
holds(3289, residential).
holds(3289, table).
holds(3289, tiledroof).

sample(3290).
holds(3290, building).
holds(3290, feature).
holds(3290, awning).
holds(3290, table).

sample(3291).
holds(3291, building).
holds(3291, feature).
holds(3291, miscindustrial).
holds(3291, watertreatment).
holds(3291, industrial).
holds(3291, pipe).
holds(3291, truck).

sample(3292).
holds(3292, building).
holds(3292, feature).
holds(3292, miscresidential).
holds(3292, countryhouse).
holds(3292, residential).
holds(3292, table).
holds(3292, tiledroof).
holds(3292, car).

sample(3293).
holds(3293, building).
holds(3293, feature).
holds(3293, awning).
holds(3293, table).

sample(3294).
holds(3294, building).
holds(3294, feature).
holds(3294, miscindustrial).
holds(3294, powerplant).
holds(3294, watertreatment).
holds(3294, industrial).
holds(3294, chimney).
holds(3294, pipe).
holds(3294, truck).

sample(3295).
holds(3295, building).
holds(3295, feature).
holds(3295, miscresidential).
holds(3295, residential).
holds(3295, table).
holds(3295, tiledroof).

sample(3296).
holds(3296, building).
holds(3296, feature).
holds(3296, awning).
holds(3296, table).

sample(3297).
holds(3297, building).
holds(3297, feature).
holds(3297, constructionsite).
holds(3297, awning).
holds(3297, table).
holds(3297, machine).

sample(3298).
holds(3298, building).
holds(3298, feature).
holds(3298, suburban).
holds(3298, miscresidential).
holds(3298, countryhouse).
holds(3298, residential).
holds(3298, porch).
holds(3298, table).
holds(3298, tiledroof).
holds(3298, car).

sample(3299).
holds(3299, building).
holds(3299, feature).
holds(3299, awning).
holds(3299, table).

sample(3300).
holds(3300, building).
holds(3300, feature).
holds(3300, awning).

sample(3301).
holds(3301, building).
holds(3301, feature).
holds(3301, suburban).
holds(3301, miscresidential).
holds(3301, countryhouse).
holds(3301, residential).
holds(3301, porch).
holds(3301, table).
holds(3301, tiledroof).
holds(3301, car).

sample(3302).
holds(3302, building).
holds(3302, feature).
holds(3302, awning).
holds(3302, table).

sample(3303).
holds(3303, building).
holds(3303, feature).
holds(3303, constructionsite).
holds(3303, awning).
holds(3303, table).
holds(3303, machine).

sample(3304).
holds(3304, building).
holds(3304, feature).
holds(3304, suburban).
holds(3304, residential).
holds(3304, awning).
holds(3304, porch).
holds(3304, table).
holds(3304, tiledroof).

sample(3305).
holds(3305, building).
holds(3305, feature).
holds(3305, awning).
holds(3305, table).

sample(3306).
holds(3306, building).
holds(3306, feature).
holds(3306, constructionsite).
holds(3306, awning).
holds(3306, table).
holds(3306, machine).

sample(3307).
holds(3307, building).
holds(3307, feature).
holds(3307, suburban).
holds(3307, miscresidential).
holds(3307, countryhouse).
holds(3307, residential).
holds(3307, porch).
holds(3307, table).
holds(3307, tiledroof).
holds(3307, car).

sample(3308).
holds(3308, building).
holds(3308, feature).
holds(3308, awning).
holds(3308, table).

sample(3309).
holds(3309, building).
holds(3309, feature).
holds(3309, powerplant).
holds(3309, watertreatment).
holds(3309, industrial).
holds(3309, awning).
holds(3309, chimney).
holds(3309, pipe).
holds(3309, truck).

sample(3310).
holds(3310, building).
holds(3310, feature).
holds(3310, miscresidential).
holds(3310, countryhouse).
holds(3310, residential).
holds(3310, table).
holds(3310, tiledroof).
holds(3310, car).

sample(3311).
holds(3311, building).
holds(3311, feature).
holds(3311, awning).
holds(3311, table).

sample(3312).
holds(3312, building).
holds(3312, feature).
holds(3312, constructionsite).
holds(3312, powerplant).
holds(3312, awning).
holds(3312, table).
holds(3312, chimney).
holds(3312, pipe).
holds(3312, machine).

sample(3313).
holds(3313, building).
holds(3313, feature).
holds(3313, suburban).
holds(3313, miscresidential).
holds(3313, residential).
holds(3313, porch).
holds(3313, table).
holds(3313, tiledroof).

sample(3314).
holds(3314, building).
holds(3314, feature).
holds(3314, awning).
holds(3314, table).

sample(3315).
holds(3315, building).
holds(3315, feature).
holds(3315, miscindustrial).
holds(3315, industrial).
holds(3315, truck).

sample(3316).
holds(3316, building).
holds(3316, feature).
holds(3316, miscresidential).
holds(3316, countryhouse).
holds(3316, residential).
holds(3316, table).
holds(3316, tiledroof).
holds(3316, car).

sample(3317).
holds(3317, building).
holds(3317, feature).
holds(3317, awning).
holds(3317, table).

sample(3318).
holds(3318, building).
holds(3318, feature).
holds(3318, miscindustrial).
holds(3318, powerplant).
holds(3318, watertreatment).
holds(3318, industrial).
holds(3318, pipe).
holds(3318, truck).

sample(3319).
holds(3319, building).
holds(3319, feature).
holds(3319, miscresidential).
holds(3319, countryhouse).
holds(3319, residential).
holds(3319, table).
holds(3319, tiledroof).
holds(3319, car).

sample(3320).
holds(3320, building).
holds(3320, feature).
holds(3320, awning).
holds(3320, table).

sample(3321).
holds(3321, building).
holds(3321, feature).
holds(3321, miscindustrial).
holds(3321, powerplant).
holds(3321, watertreatment).
holds(3321, industrial).
holds(3321, chimney).
holds(3321, pipe).
holds(3321, truck).

sample(3322).
holds(3322, building).
holds(3322, feature).
holds(3322, suburban).
holds(3322, miscresidential).
holds(3322, countryhouse).
holds(3322, residential).
holds(3322, porch).
holds(3322, table).
holds(3322, tiledroof).
holds(3322, car).

sample(3323).
holds(3323, building).
holds(3323, feature).
holds(3323, awning).
holds(3323, table).

sample(3324).
holds(3324, building).
holds(3324, feature).
holds(3324, constructionsite).
holds(3324, awning).
holds(3324, table).
holds(3324, machine).

sample(3325).
holds(3325, building).
holds(3325, feature).
holds(3325, miscresidential).
holds(3325, residential).
holds(3325, table).
holds(3325, tiledroof).

sample(3326).
holds(3326, building).
holds(3326, feature).
holds(3326, awning).
holds(3326, table).

sample(3327).
holds(3327, building).
holds(3327, feature).
holds(3327, miscindustrial).
holds(3327, watertreatment).
holds(3327, industrial).
holds(3327, pipe).
holds(3327, truck).

sample(3328).
holds(3328, building).
holds(3328, feature).
holds(3328, miscresidential).
holds(3328, residential).
holds(3328, table).
holds(3328, tiledroof).

sample(3329).
holds(3329, building).
holds(3329, feature).
holds(3329, awning).
holds(3329, table).

sample(3330).
holds(3330, building).
holds(3330, feature).
holds(3330, powerplant).
holds(3330, industrial).
holds(3330, awning).
holds(3330, chimney).
holds(3330, pipe).

sample(3331).
holds(3331, building).
holds(3331, feature).
holds(3331, suburban).
holds(3331, miscresidential).
holds(3331, residential).
holds(3331, porch).
holds(3331, table).
holds(3331, tiledroof).

sample(3332).
holds(3332, building).
holds(3332, feature).
holds(3332, awning).
holds(3332, table).

sample(3333).
holds(3333, building).
holds(3333, feature).
holds(3333, miscindustrial).
holds(3333, powerplant).
holds(3333, watertreatment).
holds(3333, industrial).
holds(3333, chimney).
holds(3333, pipe).
holds(3333, truck).

sample(3334).
holds(3334, building).
holds(3334, feature).
holds(3334, suburban).
holds(3334, miscresidential).
holds(3334, residential).
holds(3334, porch).
holds(3334, table).
holds(3334, tiledroof).

sample(3335).
holds(3335, building).
holds(3335, feature).
holds(3335, awning).
holds(3335, table).

sample(3336).
holds(3336, building).
holds(3336, feature).
holds(3336, constructionsite).
holds(3336, powerplant).
holds(3336, awning).
holds(3336, table).
holds(3336, chimney).
holds(3336, pipe).
holds(3336, machine).

sample(3337).
holds(3337, building).
holds(3337, feature).
holds(3337, miscresidential).
holds(3337, residential).
holds(3337, table).
holds(3337, tiledroof).

sample(3338).
holds(3338, building).
holds(3338, feature).
holds(3338, awning).
holds(3338, table).

sample(3339).
holds(3339, building).
holds(3339, feature).
holds(3339, miscindustrial).
holds(3339, powerplant).
holds(3339, watertreatment).
holds(3339, industrial).
holds(3339, chimney).
holds(3339, pipe).
holds(3339, truck).

sample(3340).
holds(3340, building).
holds(3340, feature).
holds(3340, suburban).
holds(3340, residential).
holds(3340, awning).
holds(3340, porch).
holds(3340, table).
holds(3340, tiledroof).

sample(3341).
holds(3341, building).
holds(3341, feature).
holds(3341, awning).
holds(3341, table).

sample(3342).
holds(3342, building).
holds(3342, feature).
holds(3342, constructionsite).
holds(3342, awning).
holds(3342, table).
holds(3342, machine).

sample(3343).
holds(3343, building).
holds(3343, feature).
holds(3343, miscresidential).
holds(3343, residential).
holds(3343, table).
holds(3343, tiledroof).

sample(3344).
holds(3344, building).
holds(3344, feature).
holds(3344, awning).
holds(3344, table).

sample(3345).
holds(3345, building).
holds(3345, feature).
holds(3345, constructionsite).
holds(3345, awning).
holds(3345, table).
holds(3345, machine).

sample(3346).
holds(3346, building).
holds(3346, feature).
holds(3346, miscresidential).
holds(3346, countryhouse).
holds(3346, residential).
holds(3346, table).
holds(3346, tiledroof).
holds(3346, car).

sample(3347).
holds(3347, building).
holds(3347, feature).
holds(3347, awning).
holds(3347, table).

sample(3348).
holds(3348, building).
holds(3348, feature).
holds(3348, powerplant).
holds(3348, industrial).
holds(3348, awning).
holds(3348, chimney).
holds(3348, pipe).

sample(3349).
holds(3349, building).
holds(3349, feature).
holds(3349, miscresidential).
holds(3349, table).
holds(3349, tiledroof).

sample(3350).
holds(3350, building).
holds(3350, feature).
holds(3350, powerplant).
holds(3350, awning).

sample(3351).
holds(3351, building).
holds(3351, feature).
holds(3351, constructionsite).
holds(3351, awning).
holds(3351, table).
holds(3351, machine).

sample(3352).
holds(3352, building).
holds(3352, feature).
holds(3352, suburban).
holds(3352, residential).
holds(3352, awning).
holds(3352, porch).
holds(3352, table).
holds(3352, tiledroof).

sample(3353).
holds(3353, building).
holds(3353, feature).
holds(3353, awning).
holds(3353, table).

sample(3354).
holds(3354, building).
holds(3354, feature).
holds(3354, miscindustrial).
holds(3354, watertreatment).
holds(3354, industrial).
holds(3354, pipe).
holds(3354, truck).

sample(3355).
holds(3355, building).
holds(3355, feature).
holds(3355, miscresidential).
holds(3355, residential).
holds(3355, table).
holds(3355, tiledroof).

sample(3356).
holds(3356, building).
holds(3356, feature).
holds(3356, awning).
holds(3356, table).

sample(3357).
holds(3357, building).
holds(3357, feature).
holds(3357, constructionsite).
holds(3357, awning).
holds(3357, table).
holds(3357, machine).

sample(3358).
holds(3358, building).
holds(3358, feature).
holds(3358, suburban).
holds(3358, residential).
holds(3358, awning).
holds(3358, porch).
holds(3358, table).
holds(3358, tiledroof).

sample(3359).
holds(3359, building).
holds(3359, feature).
holds(3359, awning).
holds(3359, table).

sample(3360).
holds(3360, building).
holds(3360, feature).
holds(3360, watertreatment).
holds(3360, industrial).
holds(3360, awning).
holds(3360, pipe).
holds(3360, truck).

sample(3361).
holds(3361, building).
holds(3361, feature).
holds(3361, miscresidential).
holds(3361, residential).
holds(3361, table).
holds(3361, tiledroof).

sample(3362).
holds(3362, building).
holds(3362, feature).
holds(3362, awning).
holds(3362, table).

sample(3363).
holds(3363, building).
holds(3363, feature).
holds(3363, miscindustrial).
holds(3363, industrial).
holds(3363, truck).

sample(3364).
holds(3364, building).
holds(3364, feature).
holds(3364, suburban).
holds(3364, residential).
holds(3364, awning).
holds(3364, porch).
holds(3364, table).
holds(3364, tiledroof).

sample(3365).
holds(3365, building).
holds(3365, feature).
holds(3365, awning).
holds(3365, table).

sample(3366).
holds(3366, building).
holds(3366, feature).
holds(3366, powerplant).
holds(3366, watertreatment).
holds(3366, industrial).
holds(3366, awning).
holds(3366, chimney).
holds(3366, pipe).
holds(3366, truck).

sample(3367).
holds(3367, building).
holds(3367, feature).
holds(3367, suburban).
holds(3367, miscresidential).
holds(3367, residential).
holds(3367, porch).
holds(3367, table).
holds(3367, tiledroof).

sample(3368).
holds(3368, building).
holds(3368, feature).
holds(3368, awning).
holds(3368, table).

sample(3369).
holds(3369, building).
holds(3369, feature).
holds(3369, miscindustrial).
holds(3369, powerplant).
holds(3369, watertreatment).
holds(3369, industrial).
holds(3369, chimney).
holds(3369, pipe).
holds(3369, truck).

sample(3370).
holds(3370, building).
holds(3370, feature).
holds(3370, suburban).
holds(3370, miscresidential).
holds(3370, residential).
holds(3370, porch).
holds(3370, table).
holds(3370, tiledroof).

sample(3371).
holds(3371, building).
holds(3371, feature).
holds(3371, awning).
holds(3371, table).

sample(3372).
holds(3372, building).
holds(3372, feature).
holds(3372, powerplant).
holds(3372, industrial).
holds(3372, awning).
holds(3372, chimney).
holds(3372, pipe).

sample(3373).
holds(3373, building).
holds(3373, feature).
holds(3373, suburban).
holds(3373, miscresidential).
holds(3373, residential).
holds(3373, porch).
holds(3373, table).
holds(3373, tiledroof).

sample(3374).
holds(3374, building).
holds(3374, feature).
holds(3374, awning).
holds(3374, table).

sample(3375).
holds(3375, building).
holds(3375, feature).
holds(3375, constructionsite).
holds(3375, powerplant).
holds(3375, awning).
holds(3375, table).
holds(3375, chimney).
holds(3375, pipe).
holds(3375, machine).

sample(3376).
holds(3376, building).
holds(3376, feature).
holds(3376, suburban).
holds(3376, miscresidential).
holds(3376, residential).
holds(3376, porch).
holds(3376, table).
holds(3376, tiledroof).

sample(3377).
holds(3377, building).
holds(3377, feature).
holds(3377, awning).
holds(3377, table).

sample(3378).
holds(3378, building).
holds(3378, feature).
holds(3378, constructionsite).
holds(3378, awning).
holds(3378, table).
holds(3378, machine).

sample(3379).
holds(3379, building).
holds(3379, feature).
holds(3379, suburban).
holds(3379, miscresidential).
holds(3379, residential).
holds(3379, porch).
holds(3379, table).
holds(3379, tiledroof).

sample(3380).
holds(3380, building).
holds(3380, feature).
holds(3380, awning).
holds(3380, table).

sample(3381).
holds(3381, building).
holds(3381, feature).
holds(3381, constructionsite).
holds(3381, awning).
holds(3381, table).
holds(3381, machine).

sample(3382).
holds(3382, building).
holds(3382, feature).
holds(3382, suburban).
holds(3382, miscresidential).
holds(3382, residential).
holds(3382, porch).
holds(3382, table).
holds(3382, tiledroof).

sample(3383).
holds(3383, building).
holds(3383, feature).
holds(3383, awning).
holds(3383, table).

sample(3384).
holds(3384, building).
holds(3384, feature).
holds(3384, powerplant).
holds(3384, industrial).
holds(3384, awning).
holds(3384, chimney).
holds(3384, pipe).

sample(3385).
holds(3385, building).
holds(3385, feature).
holds(3385, suburban).
holds(3385, residential).
holds(3385, awning).
holds(3385, porch).
holds(3385, table).
holds(3385, tiledroof).

sample(3386).
holds(3386, building).
holds(3386, feature).
holds(3386, awning).
holds(3386, table).

sample(3387).
holds(3387, building).
holds(3387, feature).
holds(3387, powerplant).
holds(3387, watertreatment).
holds(3387, industrial).
holds(3387, awning).
holds(3387, chimney).
holds(3387, pipe).
holds(3387, truck).

sample(3388).
holds(3388, building).
holds(3388, feature).
holds(3388, miscresidential).
holds(3388, residential).
holds(3388, table).
holds(3388, tiledroof).

sample(3389).
holds(3389, building).
holds(3389, feature).
holds(3389, awning).
holds(3389, table).

sample(3390).
holds(3390, building).
holds(3390, feature).
holds(3390, miscindustrial).
holds(3390, powerplant).
holds(3390, watertreatment).
holds(3390, industrial).
holds(3390, chimney).
holds(3390, pipe).
holds(3390, truck).

sample(3391).
holds(3391, building).
holds(3391, feature).
holds(3391, suburban).
holds(3391, residential).
holds(3391, awning).
holds(3391, porch).
holds(3391, table).
holds(3391, tiledroof).

sample(3392).
holds(3392, building).
holds(3392, feature).
holds(3392, awning).
holds(3392, table).

sample(3393).
holds(3393, building).
holds(3393, feature).
holds(3393, constructionsite).
holds(3393, awning).
holds(3393, table).
holds(3393, machine).

sample(3394).
holds(3394, building).
holds(3394, feature).
holds(3394, suburban).
holds(3394, miscresidential).
holds(3394, residential).
holds(3394, porch).
holds(3394, table).
holds(3394, tiledroof).

sample(3395).
holds(3395, building).
holds(3395, feature).
holds(3395, awning).
holds(3395, table).

sample(3396).
holds(3396, building).
holds(3396, feature).
holds(3396, miscindustrial).
holds(3396, industrial).
holds(3396, truck).

sample(3397).
holds(3397, building).
holds(3397, feature).
holds(3397, suburban).
holds(3397, miscresidential).
holds(3397, countryhouse).
holds(3397, residential).
holds(3397, porch).
holds(3397, table).
holds(3397, tiledroof).
holds(3397, car).

sample(3398).
holds(3398, building).
holds(3398, feature).
holds(3398, awning).
holds(3398, table).

sample(3399).
holds(3399, building).
holds(3399, feature).
holds(3399, miscindustrial).
holds(3399, watertreatment).
holds(3399, industrial).
holds(3399, pipe).
holds(3399, truck).

sample(3400).
holds(3400, building).
holds(3400, feature).
holds(3400, suburban).
holds(3400, miscresidential).
holds(3400, countryhouse).
holds(3400, residential).
holds(3400, porch).
holds(3400, table).
holds(3400, tiledroof).
holds(3400, car).

sample(3401).
holds(3401, building).
holds(3401, feature).
holds(3401, awning).
holds(3401, table).

sample(3402).
holds(3402, building).
holds(3402, feature).
holds(3402, miscindustrial).
holds(3402, industrial).
holds(3402, truck).

sample(3403).
holds(3403, building).
holds(3403, feature).
holds(3403, suburban).
holds(3403, miscresidential).
holds(3403, countryhouse).
holds(3403, residential).
holds(3403, porch).
holds(3403, table).
holds(3403, tiledroof).
holds(3403, car).

sample(3404).
holds(3404, building).
holds(3404, feature).
holds(3404, awning).
holds(3404, table).

sample(3405).
holds(3405, building).
holds(3405, feature).
holds(3405, powerplant).
holds(3405, industrial).
holds(3405, awning).
holds(3405, chimney).
holds(3405, pipe).

sample(3406).
holds(3406, building).
holds(3406, feature).
holds(3406, miscresidential).
holds(3406, countryhouse).
holds(3406, residential).
holds(3406, table).
holds(3406, tiledroof).
holds(3406, car).

sample(3407).
holds(3407, building).
holds(3407, feature).
holds(3407, awning).
holds(3407, table).

sample(3408).
holds(3408, building).
holds(3408, feature).
holds(3408, constructionsite).
holds(3408, powerplant).
holds(3408, awning).
holds(3408, table).
holds(3408, chimney).
holds(3408, pipe).
holds(3408, machine).

sample(3409).
holds(3409, building).
holds(3409, feature).
holds(3409, miscresidential).
holds(3409, countryhouse).
holds(3409, residential).
holds(3409, table).
holds(3409, tiledroof).
holds(3409, car).

sample(3410).
holds(3410, building).
holds(3410, feature).
holds(3410, awning).
holds(3410, table).

sample(3411).
holds(3411, building).
holds(3411, feature).
holds(3411, miscindustrial).
holds(3411, watertreatment).
holds(3411, industrial).
holds(3411, pipe).
holds(3411, truck).

sample(3412).
holds(3412, building).
holds(3412, feature).
holds(3412, suburban).
holds(3412, miscresidential).
holds(3412, residential).
holds(3412, porch).
holds(3412, table).
holds(3412, tiledroof).

sample(3413).
holds(3413, building).
holds(3413, feature).
holds(3413, awning).
holds(3413, table).

sample(3414).
holds(3414, building).
holds(3414, feature).
holds(3414, miscindustrial).
holds(3414, industrial).
holds(3414, truck).

sample(3415).
holds(3415, building).
holds(3415, feature).
holds(3415, miscresidential).
holds(3415, countryhouse).
holds(3415, residential).
holds(3415, table).
holds(3415, tiledroof).
holds(3415, car).

sample(3416).
holds(3416, building).
holds(3416, feature).
holds(3416, awning).
holds(3416, table).

sample(3417).
holds(3417, building).
holds(3417, feature).
holds(3417, miscindustrial).
holds(3417, powerplant).
holds(3417, watertreatment).
holds(3417, industrial).
holds(3417, chimney).
holds(3417, pipe).
holds(3417, truck).

sample(3418).
holds(3418, building).
holds(3418, feature).
holds(3418, suburban).
holds(3418, miscresidential).
holds(3418, countryhouse).
holds(3418, residential).
holds(3418, porch).
holds(3418, table).
holds(3418, tiledroof).
holds(3418, car).

sample(3419).
holds(3419, building).
holds(3419, feature).
holds(3419, awning).
holds(3419, table).

sample(3420).
holds(3420, building).
holds(3420, feature).
holds(3420, constructionsite).
holds(3420, awning).
holds(3420, table).
holds(3420, machine).

sample(3421).
holds(3421, building).
holds(3421, feature).
holds(3421, suburban).
holds(3421, miscresidential).
holds(3421, countryhouse).
holds(3421, residential).
holds(3421, porch).
holds(3421, table).
holds(3421, tiledroof).
holds(3421, car).

sample(3422).
holds(3422, building).
holds(3422, feature).
holds(3422, awning).
holds(3422, table).

sample(3423).
holds(3423, building).
holds(3423, feature).
holds(3423, miscindustrial).
holds(3423, watertreatment).
holds(3423, industrial).
holds(3423, pipe).
holds(3423, truck).

sample(3424).
holds(3424, building).
holds(3424, feature).
holds(3424, miscresidential).
holds(3424, countryhouse).
holds(3424, residential).
holds(3424, table).
holds(3424, tiledroof).
holds(3424, car).

sample(3425).
holds(3425, building).
holds(3425, feature).
holds(3425, awning).
holds(3425, table).

sample(3426).
holds(3426, building).
holds(3426, feature).
holds(3426, miscindustrial).
holds(3426, industrial).
holds(3426, truck).

sample(3427).
holds(3427, building).
holds(3427, feature).
holds(3427, suburban).
holds(3427, residential).
holds(3427, awning).
holds(3427, porch).
holds(3427, table).
holds(3427, tiledroof).

sample(3428).
holds(3428, building).
holds(3428, feature).
holds(3428, awning).
holds(3428, table).

sample(3429).
holds(3429, building).
holds(3429, feature).
holds(3429, miscindustrial).
holds(3429, watertreatment).
holds(3429, industrial).
holds(3429, pipe).
holds(3429, truck).

sample(3430).
holds(3430, building).
holds(3430, feature).
holds(3430, suburban).
holds(3430, miscresidential).
holds(3430, residential).
holds(3430, porch).
holds(3430, table).
holds(3430, tiledroof).

sample(3431).
holds(3431, building).
holds(3431, feature).
holds(3431, awning).
holds(3431, table).

sample(3432).
holds(3432, building).
holds(3432, feature).
holds(3432, constructionsite).
holds(3432, powerplant).
holds(3432, awning).
holds(3432, table).
holds(3432, chimney).
holds(3432, pipe).
holds(3432, machine).

sample(3433).
holds(3433, building).
holds(3433, feature).
holds(3433, suburban).
holds(3433, miscresidential).
holds(3433, residential).
holds(3433, porch).
holds(3433, table).
holds(3433, tiledroof).

sample(3434).
holds(3434, building).
holds(3434, feature).
holds(3434, awning).
holds(3434, table).

sample(3435).
holds(3435, building).
holds(3435, feature).
holds(3435, constructionsite).
holds(3435, awning).
holds(3435, table).
holds(3435, machine).

sample(3436).
holds(3436, building).
holds(3436, feature).
holds(3436, suburban).
holds(3436, residential).
holds(3436, awning).
holds(3436, porch).
holds(3436, table).
holds(3436, tiledroof).

sample(3437).
holds(3437, building).
holds(3437, feature).
holds(3437, awning).
holds(3437, table).

sample(3438).
holds(3438, building).
holds(3438, feature).
holds(3438, miscindustrial).
holds(3438, watertreatment).
holds(3438, industrial).
holds(3438, pipe).
holds(3438, truck).

sample(3439).
holds(3439, building).
holds(3439, feature).
holds(3439, suburban).
holds(3439, residential).
holds(3439, awning).
holds(3439, porch).
holds(3439, table).
holds(3439, tiledroof).

sample(3440).
holds(3440, building).
holds(3440, feature).
holds(3440, awning).
holds(3440, table).

sample(3441).
holds(3441, building).
holds(3441, feature).
holds(3441, miscindustrial).
holds(3441, watertreatment).
holds(3441, industrial).
holds(3441, truck).

sample(3442).
holds(3442, building).
holds(3442, feature).
holds(3442, miscresidential).
holds(3442, residential).
holds(3442, table).
holds(3442, tiledroof).

sample(3443).
holds(3443, building).
holds(3443, feature).
holds(3443, awning).
holds(3443, table).

sample(3444).
holds(3444, building).
holds(3444, feature).
holds(3444, miscindustrial).
holds(3444, industrial).
holds(3444, truck).

sample(3445).
holds(3445, building).
holds(3445, feature).
holds(3445, suburban).
holds(3445, residential).
holds(3445, awning).
holds(3445, porch).
holds(3445, table).
holds(3445, tiledroof).

sample(3446).
holds(3446, building).
holds(3446, feature).
holds(3446, awning).
holds(3446, table).

sample(3447).
holds(3447, building).
holds(3447, feature).
holds(3447, powerplant).
holds(3447, industrial).
holds(3447, awning).
holds(3447, chimney).
holds(3447, pipe).

sample(3448).
holds(3448, building).
holds(3448, feature).
holds(3448, suburban).
holds(3448, miscresidential).
holds(3448, residential).
holds(3448, porch).
holds(3448, table).
holds(3448, tiledroof).

sample(3449).
holds(3449, building).
holds(3449, feature).
holds(3449, awning).
holds(3449, table).

sample(3450).
holds(3450, building).
holds(3450, feature).
holds(3450, miscindustrial).
holds(3450, watertreatment).
holds(3450, industrial).
holds(3450, truck).

sample(3451).
holds(3451, building).
holds(3451, feature).
holds(3451, suburban).
holds(3451, miscresidential).
holds(3451, residential).
holds(3451, porch).
holds(3451, table).
holds(3451, tiledroof).

sample(3452).
holds(3452, building).
holds(3452, feature).
holds(3452, awning).
holds(3452, table).

sample(3453).
holds(3453, building).
holds(3453, feature).
holds(3453, miscindustrial).
holds(3453, watertreatment).
holds(3453, industrial).
holds(3453, pipe).
holds(3453, truck).

sample(3454).
holds(3454, building).
holds(3454, feature).
holds(3454, suburban).
holds(3454, miscresidential).
holds(3454, residential).
holds(3454, porch).
holds(3454, table).
holds(3454, tiledroof).

sample(3455).
holds(3455, building).
holds(3455, feature).
holds(3455, awning).
holds(3455, table).

sample(3456).
holds(3456, building).
holds(3456, feature).
holds(3456, miscindustrial).
holds(3456, industrial).
holds(3456, truck).

sample(3457).
holds(3457, building).
holds(3457, feature).
holds(3457, suburban).
holds(3457, residential).
holds(3457, awning).
holds(3457, porch).
holds(3457, table).
holds(3457, tiledroof).

sample(3458).
holds(3458, building).
holds(3458, feature).
holds(3458, awning).
holds(3458, table).

sample(3459).
holds(3459, building).
holds(3459, feature).
holds(3459, miscindustrial).
holds(3459, industrial).
holds(3459, truck).

sample(3460).
holds(3460, building).
holds(3460, feature).
holds(3460, suburban).
holds(3460, miscresidential).
holds(3460, countryhouse).
holds(3460, residential).
holds(3460, porch).
holds(3460, table).
holds(3460, tiledroof).
holds(3460, car).

sample(3461).
holds(3461, building).
holds(3461, feature).
holds(3461, awning).
holds(3461, table).

sample(3462).
holds(3462, building).
holds(3462, feature).
holds(3462, powerplant).
holds(3462, industrial).
holds(3462, awning).
holds(3462, chimney).
holds(3462, pipe).

sample(3463).
holds(3463, building).
holds(3463, feature).
holds(3463, miscresidential).
holds(3463, countryhouse).
holds(3463, residential).
holds(3463, table).
holds(3463, tiledroof).
holds(3463, car).

sample(3464).
holds(3464, building).
holds(3464, feature).
holds(3464, awning).
holds(3464, table).

sample(3465).
holds(3465, building).
holds(3465, feature).
holds(3465, powerplant).
holds(3465, industrial).
holds(3465, awning).
holds(3465, chimney).
holds(3465, pipe).

sample(3466).
holds(3466, building).
holds(3466, feature).
holds(3466, suburban).
holds(3466, residential).
holds(3466, awning).
holds(3466, porch).
holds(3466, table).
holds(3466, tiledroof).

sample(3467).
holds(3467, building).
holds(3467, feature).
holds(3467, awning).
holds(3467, table).

sample(3468).
holds(3468, building).
holds(3468, feature).
holds(3468, constructionsite).
holds(3468, awning).
holds(3468, table).
holds(3468, machine).

sample(3469).
holds(3469, building).
holds(3469, feature).
holds(3469, suburban).
holds(3469, miscresidential).
holds(3469, residential).
holds(3469, porch).
holds(3469, table).
holds(3469, tiledroof).

sample(3470).
holds(3470, building).
holds(3470, feature).
holds(3470, awning).
holds(3470, table).

sample(3471).
holds(3471, building).
holds(3471, feature).
holds(3471, powerplant).
holds(3471, watertreatment).
holds(3471, industrial).
holds(3471, chimney).
holds(3471, pipe).
holds(3471, truck).

sample(3472).
holds(3472, building).
holds(3472, feature).
holds(3472, miscresidential).
holds(3472, countryhouse).
holds(3472, residential).
holds(3472, table).
holds(3472, tiledroof).
holds(3472, car).

sample(3473).
holds(3473, building).
holds(3473, feature).
holds(3473, awning).
holds(3473, table).

sample(3474).
holds(3474, building).
holds(3474, feature).
holds(3474, powerplant).
holds(3474, industrial).
holds(3474, awning).
holds(3474, chimney).
holds(3474, pipe).

sample(3475).
holds(3475, building).
holds(3475, feature).
holds(3475, miscresidential).
holds(3475, countryhouse).
holds(3475, residential).
holds(3475, table).
holds(3475, tiledroof).
holds(3475, car).

sample(3476).
holds(3476, building).
holds(3476, feature).
holds(3476, awning).
holds(3476, table).

sample(3477).
holds(3477, building).
holds(3477, feature).
holds(3477, watertreatment).
holds(3477, industrial).
holds(3477, pipe).
holds(3477, truck).

sample(3478).
holds(3478, building).
holds(3478, feature).
holds(3478, suburban).
holds(3478, miscresidential).
holds(3478, residential).
holds(3478, porch).
holds(3478, table).
holds(3478, tiledroof).

sample(3479).
holds(3479, building).
holds(3479, feature).
holds(3479, awning).
holds(3479, table).

sample(3480).
holds(3480, building).
holds(3480, feature).
holds(3480, miscindustrial).
holds(3480, watertreatment).
holds(3480, industrial).
holds(3480, pipe).
holds(3480, truck).

sample(3481).
holds(3481, building).
holds(3481, feature).
holds(3481, suburban).
holds(3481, miscresidential).
holds(3481, countryhouse).
holds(3481, residential).
holds(3481, porch).
holds(3481, table).
holds(3481, tiledroof).
holds(3481, car).

sample(3482).
holds(3482, building).
holds(3482, feature).
holds(3482, awning).
holds(3482, table).

sample(3483).
holds(3483, building).
holds(3483, feature).
holds(3483, miscindustrial).
holds(3483, powerplant).
holds(3483, watertreatment).
holds(3483, industrial).
holds(3483, chimney).
holds(3483, pipe).
holds(3483, truck).

sample(3484).
holds(3484, building).
holds(3484, feature).
holds(3484, suburban).
holds(3484, miscresidential).
holds(3484, countryhouse).
holds(3484, residential).
holds(3484, porch).
holds(3484, table).
holds(3484, tiledroof).
holds(3484, car).

sample(3485).
holds(3485, building).
holds(3485, feature).
holds(3485, awning).
holds(3485, table).

sample(3486).
holds(3486, building).
holds(3486, feature).
holds(3486, constructionsite).
holds(3486, awning).
holds(3486, table).
holds(3486, machine).

sample(3487).
holds(3487, building).
holds(3487, feature).
holds(3487, miscresidential).
holds(3487, countryhouse).
holds(3487, residential).
holds(3487, table).
holds(3487, tiledroof).
holds(3487, car).

sample(3488).
holds(3488, building).
holds(3488, feature).
holds(3488, awning).
holds(3488, table).

sample(3489).
holds(3489, building).
holds(3489, feature).
holds(3489, constructionsite).
holds(3489, powerplant).
holds(3489, awning).
holds(3489, table).
holds(3489, chimney).
holds(3489, pipe).
holds(3489, machine).

sample(3490).
holds(3490, building).
holds(3490, feature).
holds(3490, suburban).
holds(3490, miscresidential).
holds(3490, countryhouse).
holds(3490, residential).
holds(3490, porch).
holds(3490, table).
holds(3490, tiledroof).
holds(3490, car).

sample(3491).
holds(3491, building).
holds(3491, feature).
holds(3491, awning).
holds(3491, table).

sample(3492).
holds(3492, building).
holds(3492, feature).
holds(3492, constructionsite).
holds(3492, powerplant).
holds(3492, awning).
holds(3492, table).
holds(3492, chimney).
holds(3492, pipe).
holds(3492, machine).

sample(3493).
holds(3493, building).
holds(3493, feature).
holds(3493, suburban).
holds(3493, miscresidential).
holds(3493, countryhouse).
holds(3493, residential).
holds(3493, porch).
holds(3493, table).
holds(3493, tiledroof).
holds(3493, car).

sample(3494).
holds(3494, building).
holds(3494, feature).
holds(3494, awning).
holds(3494, table).

sample(3495).
holds(3495, building).
holds(3495, feature).
holds(3495, constructionsite).
holds(3495, awning).
holds(3495, table).
holds(3495, machine).

sample(3496).
holds(3496, building).
holds(3496, feature).
holds(3496, suburban).
holds(3496, miscresidential).
holds(3496, countryhouse).
holds(3496, residential).
holds(3496, porch).
holds(3496, table).
holds(3496, tiledroof).
holds(3496, car).

sample(3497).
holds(3497, building).
holds(3497, feature).
holds(3497, awning).
holds(3497, table).

sample(3498).
holds(3498, building).
holds(3498, feature).
holds(3498, watertreatment).
holds(3498, industrial).
holds(3498, awning).
holds(3498, pipe).
holds(3498, truck).

sample(3499).
holds(3499, building).
holds(3499, feature).
holds(3499, miscresidential).
holds(3499, countryhouse).
holds(3499, residential).
holds(3499, table).
holds(3499, tiledroof).
holds(3499, car).

sample(3500).
holds(3500, building).
holds(3500, feature).
holds(3500, awning).
holds(3500, table).

sample(3501).
holds(3501, building).
holds(3501, feature).
holds(3501, miscindustrial).
holds(3501, watertreatment).
holds(3501, industrial).
holds(3501, truck).

sample(3502).
holds(3502, building).
holds(3502, feature).
holds(3502, suburban).
holds(3502, residential).
holds(3502, awning).
holds(3502, porch).
holds(3502, table).
holds(3502, tiledroof).

sample(3503).
holds(3503, building).
holds(3503, feature).
holds(3503, awning).
holds(3503, table).

sample(3504).
holds(3504, building).
holds(3504, feature).
holds(3504, miscindustrial).
holds(3504, powerplant).
holds(3504, watertreatment).
holds(3504, industrial).
holds(3504, chimney).
holds(3504, pipe).
holds(3504, truck).

sample(3505).
holds(3505, building).
holds(3505, feature).
holds(3505, miscresidential).
holds(3505, countryhouse).
holds(3505, residential).
holds(3505, table).
holds(3505, tiledroof).
holds(3505, car).

sample(3506).
holds(3506, building).
holds(3506, feature).
holds(3506, awning).
holds(3506, table).

sample(3507).
holds(3507, building).
holds(3507, feature).
holds(3507, powerplant).
holds(3507, industrial).
holds(3507, awning).
holds(3507, chimney).
holds(3507, pipe).

sample(3508).
holds(3508, building).
holds(3508, feature).
holds(3508, miscresidential).
holds(3508, countryhouse).
holds(3508, residential).
holds(3508, table).
holds(3508, tiledroof).
holds(3508, car).

sample(3509).
holds(3509, building).
holds(3509, feature).
holds(3509, awning).
holds(3509, table).

sample(3510).
holds(3510, building).
holds(3510, feature).
holds(3510, powerplant).
holds(3510, industrial).
holds(3510, awning).
holds(3510, chimney).
holds(3510, pipe).

sample(3511).
holds(3511, building).
holds(3511, feature).
holds(3511, suburban).
holds(3511, miscresidential).
holds(3511, countryhouse).
holds(3511, residential).
holds(3511, porch).
holds(3511, table).
holds(3511, tiledroof).
holds(3511, car).

sample(3512).
holds(3512, building).
holds(3512, feature).
holds(3512, awning).
holds(3512, table).

sample(3513).
holds(3513, building).
holds(3513, feature).
holds(3513, constructionsite).
holds(3513, awning).
holds(3513, table).
holds(3513, machine).

sample(3514).
holds(3514, building).
holds(3514, feature).
holds(3514, miscresidential).
holds(3514, residential).
holds(3514, table).
holds(3514, tiledroof).

sample(3515).
holds(3515, building).
holds(3515, feature).
holds(3515, awning).
holds(3515, table).

sample(3516).
holds(3516, building).
holds(3516, feature).
holds(3516, powerplant).
holds(3516, industrial).
holds(3516, awning).
holds(3516, chimney).
holds(3516, pipe).

sample(3517).
holds(3517, building).
holds(3517, feature).
holds(3517, miscresidential).
holds(3517, residential).
holds(3517, table).
holds(3517, tiledroof).

sample(3518).
holds(3518, building).
holds(3518, feature).
holds(3518, awning).
holds(3518, table).

sample(3519).
holds(3519, building).
holds(3519, feature).
holds(3519, watertreatment).
holds(3519, industrial).
holds(3519, pipe).
holds(3519, truck).

sample(3520).
holds(3520, building).
holds(3520, feature).
holds(3520, miscresidential).
holds(3520, residential).
holds(3520, table).
holds(3520, tiledroof).

sample(3521).
holds(3521, building).
holds(3521, feature).
holds(3521, awning).
holds(3521, table).

sample(3522).
holds(3522, building).
holds(3522, feature).
holds(3522, constructionsite).
holds(3522, powerplant).
holds(3522, awning).
holds(3522, table).
holds(3522, chimney).
holds(3522, pipe).
holds(3522, machine).

sample(3523).
holds(3523, building).
holds(3523, feature).
holds(3523, suburban).
holds(3523, miscresidential).
holds(3523, residential).
holds(3523, porch).
holds(3523, table).
holds(3523, tiledroof).

sample(3524).
holds(3524, building).
holds(3524, feature).
holds(3524, awning).
holds(3524, table).

sample(3525).
holds(3525, building).
holds(3525, feature).
holds(3525, constructionsite).
holds(3525, awning).
holds(3525, table).
holds(3525, machine).

sample(3526).
holds(3526, building).
holds(3526, feature).
holds(3526, suburban).
holds(3526, miscresidential).
holds(3526, countryhouse).
holds(3526, residential).
holds(3526, porch).
holds(3526, table).
holds(3526, tiledroof).
holds(3526, car).

sample(3527).
holds(3527, building).
holds(3527, feature).
holds(3527, awning).
holds(3527, table).

sample(3528).
holds(3528, building).
holds(3528, feature).
holds(3528, powerplant).
holds(3528, industrial).
holds(3528, awning).
holds(3528, chimney).
holds(3528, pipe).

sample(3529).
holds(3529, building).
holds(3529, feature).
holds(3529, suburban).
holds(3529, miscresidential).
holds(3529, residential).
holds(3529, porch).
holds(3529, table).
holds(3529, tiledroof).

sample(3530).
holds(3530, building).
holds(3530, feature).
holds(3530, awning).
holds(3530, table).

sample(3531).
holds(3531, building).
holds(3531, feature).
holds(3531, miscindustrial).
holds(3531, watertreatment).
holds(3531, industrial).
holds(3531, pipe).
holds(3531, truck).

sample(3532).
holds(3532, building).
holds(3532, feature).
holds(3532, suburban).
holds(3532, residential).
holds(3532, awning).
holds(3532, porch).
holds(3532, table).
holds(3532, tiledroof).

sample(3533).
holds(3533, building).
holds(3533, feature).
holds(3533, awning).
holds(3533, table).

sample(3534).
holds(3534, building).
holds(3534, feature).
holds(3534, miscindustrial).
holds(3534, industrial).
holds(3534, truck).

sample(3535).
holds(3535, building).
holds(3535, feature).
holds(3535, suburban).
holds(3535, residential).
holds(3535, awning).
holds(3535, porch).
holds(3535, table).
holds(3535, tiledroof).

sample(3536).
holds(3536, building).
holds(3536, feature).
holds(3536, awning).
holds(3536, table).

sample(3537).
holds(3537, building).
holds(3537, feature).
holds(3537, miscindustrial).
holds(3537, powerplant).
holds(3537, watertreatment).
holds(3537, industrial).
holds(3537, chimney).
holds(3537, pipe).
holds(3537, truck).

sample(3538).
holds(3538, building).
holds(3538, feature).
holds(3538, suburban).
holds(3538, miscresidential).
holds(3538, residential).
holds(3538, porch).
holds(3538, table).
holds(3538, tiledroof).

sample(3539).
holds(3539, building).
holds(3539, feature).
holds(3539, awning).
holds(3539, table).

sample(3540).
holds(3540, building).
holds(3540, feature).
holds(3540, miscindustrial).
holds(3540, watertreatment).
holds(3540, industrial).
holds(3540, pipe).
holds(3540, truck).

sample(3541).
holds(3541, building).
holds(3541, feature).
holds(3541, suburban).
holds(3541, residential).
holds(3541, awning).
holds(3541, porch).
holds(3541, table).
holds(3541, tiledroof).

sample(3542).
holds(3542, building).
holds(3542, feature).
holds(3542, awning).
holds(3542, table).

sample(3543).
holds(3543, building).
holds(3543, feature).
holds(3543, powerplant).
holds(3543, industrial).
holds(3543, awning).
holds(3543, chimney).
holds(3543, pipe).

sample(3544).
holds(3544, building).
holds(3544, feature).
holds(3544, suburban).
holds(3544, miscresidential).
holds(3544, residential).
holds(3544, porch).
holds(3544, table).
holds(3544, tiledroof).

sample(3545).
holds(3545, building).
holds(3545, feature).
holds(3545, awning).
holds(3545, table).

sample(3546).
holds(3546, building).
holds(3546, feature).
holds(3546, miscindustrial).
holds(3546, watertreatment).
holds(3546, industrial).
holds(3546, pipe).
holds(3546, truck).

sample(3547).
holds(3547, building).
holds(3547, feature).
holds(3547, suburban).
holds(3547, miscresidential).
holds(3547, countryhouse).
holds(3547, residential).
holds(3547, porch).
holds(3547, table).
holds(3547, tiledroof).
holds(3547, car).

sample(3548).
holds(3548, building).
holds(3548, feature).
holds(3548, awning).
holds(3548, table).

sample(3549).
holds(3549, building).
holds(3549, feature).
holds(3549, miscindustrial).
holds(3549, watertreatment).
holds(3549, industrial).
holds(3549, pipe).
holds(3549, truck).

sample(3550).
holds(3550, building).
holds(3550, feature).
holds(3550, miscresidential).
holds(3550, residential).
holds(3550, table).
holds(3550, tiledroof).

sample(3551).
holds(3551, building).
holds(3551, feature).
holds(3551, awning).
holds(3551, table).

sample(3552).
holds(3552, building).
holds(3552, feature).
holds(3552, constructionsite).
holds(3552, awning).
holds(3552, table).
holds(3552, machine).

sample(3553).
holds(3553, building).
holds(3553, feature).
holds(3553, suburban).
holds(3553, miscresidential).
holds(3553, residential).
holds(3553, porch).
holds(3553, table).
holds(3553, tiledroof).

sample(3554).
holds(3554, building).
holds(3554, feature).
holds(3554, awning).
holds(3554, table).

sample(3555).
holds(3555, building).
holds(3555, feature).
holds(3555, miscindustrial).
holds(3555, powerplant).
holds(3555, watertreatment).
holds(3555, industrial).
holds(3555, chimney).
holds(3555, pipe).
holds(3555, truck).

sample(3556).
holds(3556, building).
holds(3556, feature).
holds(3556, suburban).
holds(3556, miscresidential).
holds(3556, countryhouse).
holds(3556, residential).
holds(3556, porch).
holds(3556, table).
holds(3556, tiledroof).
holds(3556, car).

sample(3557).
holds(3557, building).
holds(3557, feature).
holds(3557, awning).
holds(3557, table).

sample(3558).
holds(3558, building).
holds(3558, feature).
holds(3558, miscindustrial).
holds(3558, industrial).
holds(3558, truck).

sample(3559).
holds(3559, building).
holds(3559, feature).
holds(3559, suburban).
holds(3559, miscresidential).
holds(3559, residential).
holds(3559, porch).
holds(3559, table).
holds(3559, tiledroof).

sample(3560).
holds(3560, building).
holds(3560, feature).
holds(3560, awning).
holds(3560, table).

sample(3561).
holds(3561, building).
holds(3561, feature).
holds(3561, miscindustrial).
holds(3561, industrial).
holds(3561, truck).

sample(3562).
holds(3562, building).
holds(3562, feature).
holds(3562, miscresidential).
holds(3562, countryhouse).
holds(3562, residential).
holds(3562, table).
holds(3562, tiledroof).
holds(3562, car).

sample(3563).
holds(3563, building).
holds(3563, feature).
holds(3563, awning).
holds(3563, table).

sample(3564).
holds(3564, building).
holds(3564, feature).
holds(3564, miscindustrial).
holds(3564, powerplant).
holds(3564, watertreatment).
holds(3564, industrial).
holds(3564, chimney).
holds(3564, pipe).
holds(3564, truck).

sample(3565).
holds(3565, building).
holds(3565, feature).
holds(3565, suburban).
holds(3565, miscresidential).
holds(3565, countryhouse).
holds(3565, residential).
holds(3565, porch).
holds(3565, table).
holds(3565, tiledroof).
holds(3565, car).

sample(3566).
holds(3566, building).
holds(3566, feature).
holds(3566, awning).
holds(3566, table).

sample(3567).
holds(3567, building).
holds(3567, feature).
holds(3567, watertreatment).
holds(3567, industrial).
holds(3567, awning).
holds(3567, pipe).
holds(3567, truck).

sample(3568).
holds(3568, building).
holds(3568, feature).
holds(3568, suburban).
holds(3568, miscresidential).
holds(3568, countryhouse).
holds(3568, residential).
holds(3568, porch).
holds(3568, table).
holds(3568, tiledroof).
holds(3568, car).

sample(3569).
holds(3569, building).
holds(3569, feature).
holds(3569, awning).
holds(3569, table).

sample(3570).
holds(3570, building).
holds(3570, feature).
holds(3570, miscindustrial).
holds(3570, powerplant).
holds(3570, watertreatment).
holds(3570, industrial).
holds(3570, chimney).
holds(3570, pipe).
holds(3570, truck).

sample(3571).
holds(3571, building).
holds(3571, feature).
holds(3571, suburban).
holds(3571, miscresidential).
holds(3571, residential).
holds(3571, porch).
holds(3571, table).
holds(3571, tiledroof).

sample(3572).
holds(3572, building).
holds(3572, feature).
holds(3572, awning).
holds(3572, table).

sample(3573).
holds(3573, building).
holds(3573, feature).
holds(3573, miscindustrial).
holds(3573, powerplant).
holds(3573, watertreatment).
holds(3573, industrial).
holds(3573, chimney).
holds(3573, pipe).
holds(3573, truck).

sample(3574).
holds(3574, building).
holds(3574, feature).
holds(3574, suburban).
holds(3574, miscresidential).
holds(3574, countryhouse).
holds(3574, residential).
holds(3574, porch).
holds(3574, table).
holds(3574, tiledroof).
holds(3574, car).

sample(3575).
holds(3575, building).
holds(3575, feature).
holds(3575, awning).
holds(3575, table).

sample(3576).
holds(3576, building).
holds(3576, feature).
holds(3576, watertreatment).
holds(3576, industrial).
holds(3576, pipe).
holds(3576, truck).

sample(3577).
holds(3577, building).
holds(3577, feature).
holds(3577, miscresidential).
holds(3577, residential).
holds(3577, table).
holds(3577, tiledroof).

sample(3578).
holds(3578, building).
holds(3578, feature).
holds(3578, awning).
holds(3578, table).

sample(3579).
holds(3579, building).
holds(3579, feature).
holds(3579, constructionsite).
holds(3579, awning).
holds(3579, table).
holds(3579, machine).

sample(3580).
holds(3580, building).
holds(3580, feature).
holds(3580, suburban).
holds(3580, miscresidential).
holds(3580, countryhouse).
holds(3580, residential).
holds(3580, porch).
holds(3580, table).
holds(3580, tiledroof).
holds(3580, car).

sample(3581).
holds(3581, building).
holds(3581, feature).
holds(3581, awning).
holds(3581, table).

sample(3582).
holds(3582, building).
holds(3582, feature).
holds(3582, powerplant).
holds(3582, industrial).
holds(3582, awning).
holds(3582, chimney).
holds(3582, pipe).

sample(3583).
holds(3583, building).
holds(3583, feature).
holds(3583, suburban).
holds(3583, residential).
holds(3583, awning).
holds(3583, porch).
holds(3583, table).
holds(3583, tiledroof).

sample(3584).
holds(3584, building).
holds(3584, feature).
holds(3584, awning).
holds(3584, table).

sample(3585).
holds(3585, building).
holds(3585, feature).
holds(3585, powerplant).
holds(3585, industrial).
holds(3585, awning).
holds(3585, chimney).
holds(3585, pipe).

sample(3586).
holds(3586, building).
holds(3586, feature).
holds(3586, miscresidential).
holds(3586, residential).
holds(3586, table).
holds(3586, tiledroof).

sample(3587).
holds(3587, building).
holds(3587, feature).
holds(3587, awning).
holds(3587, table).

sample(3588).
holds(3588, building).
holds(3588, feature).
holds(3588, constructionsite).
holds(3588, awning).
holds(3588, table).
holds(3588, machine).

sample(3589).
holds(3589, building).
holds(3589, feature).
holds(3589, suburban).
holds(3589, residential).
holds(3589, awning).
holds(3589, porch).
holds(3589, table).
holds(3589, tiledroof).

sample(3590).
holds(3590, building).
holds(3590, feature).
holds(3590, awning).
holds(3590, table).

sample(3591).
holds(3591, building).
holds(3591, feature).
holds(3591, constructionsite).
holds(3591, awning).
holds(3591, table).
holds(3591, machine).

sample(3592).
holds(3592, building).
holds(3592, feature).
holds(3592, suburban).
holds(3592, miscresidential).
holds(3592, residential).
holds(3592, porch).
holds(3592, table).
holds(3592, tiledroof).

sample(3593).
holds(3593, building).
holds(3593, feature).
holds(3593, awning).
holds(3593, table).

sample(3594).
holds(3594, building).
holds(3594, feature).
holds(3594, constructionsite).
holds(3594, awning).
holds(3594, table).
holds(3594, machine).

sample(3595).
holds(3595, building).
holds(3595, feature).
holds(3595, suburban).
holds(3595, miscresidential).
holds(3595, countryhouse).
holds(3595, residential).
holds(3595, porch).
holds(3595, table).
holds(3595, tiledroof).
holds(3595, car).

sample(3596).
holds(3596, building).
holds(3596, feature).
holds(3596, awning).
holds(3596, table).

sample(3597).
holds(3597, building).
holds(3597, feature).
holds(3597, miscindustrial).
holds(3597, powerplant).
holds(3597, watertreatment).
holds(3597, industrial).
holds(3597, chimney).
holds(3597, pipe).
holds(3597, truck).

sample(3598).
holds(3598, building).
holds(3598, feature).
holds(3598, miscresidential).
holds(3598, residential).
holds(3598, table).
holds(3598, tiledroof).

sample(3599).
holds(3599, building).
holds(3599, feature).
holds(3599, awning).
holds(3599, table).

sample(3600).
holds(3600, building).
holds(3600, feature).
holds(3600, miscindustrial).
holds(3600, industrial).
holds(3600, truck).

sample(3601).
holds(3601, building).
holds(3601, feature).
holds(3601, miscresidential).
holds(3601, residential).
holds(3601, table).
holds(3601, tiledroof).

sample(3602).
holds(3602, building).
holds(3602, feature).
holds(3602, awning).
holds(3602, table).

sample(3603).
holds(3603, building).
holds(3603, feature).
holds(3603, miscindustrial).
holds(3603, industrial).
holds(3603, truck).

sample(3604).
holds(3604, building).
holds(3604, feature).
holds(3604, suburban).
holds(3604, miscresidential).
holds(3604, residential).
holds(3604, porch).
holds(3604, table).
holds(3604, tiledroof).

sample(3605).
holds(3605, building).
holds(3605, feature).
holds(3605, awning).
holds(3605, table).

sample(3606).
holds(3606, building).
holds(3606, feature).
holds(3606, powerplant).
holds(3606, watertreatment).
holds(3606, industrial).
holds(3606, awning).
holds(3606, chimney).
holds(3606, pipe).
holds(3606, truck).

sample(3607).
holds(3607, building).
holds(3607, feature).
holds(3607, suburban).
holds(3607, miscresidential).
holds(3607, residential).
holds(3607, porch).
holds(3607, table).
holds(3607, tiledroof).

sample(3608).
holds(3608, building).
holds(3608, feature).
holds(3608, awning).
holds(3608, table).

sample(3609).
holds(3609, building).
holds(3609, feature).
holds(3609, constructionsite).
holds(3609, awning).
holds(3609, table).
holds(3609, machine).

sample(3610).
holds(3610, building).
holds(3610, feature).
holds(3610, miscresidential).
holds(3610, countryhouse).
holds(3610, residential).
holds(3610, table).
holds(3610, tiledroof).
holds(3610, car).

sample(3611).
holds(3611, building).
holds(3611, feature).
holds(3611, awning).
holds(3611, table).

sample(3612).
holds(3612, building).
holds(3612, feature).
holds(3612, miscindustrial).
holds(3612, industrial).
holds(3612, truck).

sample(3613).
holds(3613, building).
holds(3613, feature).
holds(3613, miscresidential).
holds(3613, residential).
holds(3613, table).
holds(3613, tiledroof).

sample(3614).
holds(3614, building).
holds(3614, feature).
holds(3614, awning).
holds(3614, table).

sample(3615).
holds(3615, building).
holds(3615, feature).
holds(3615, miscindustrial).
holds(3615, industrial).
holds(3615, truck).

sample(3616).
holds(3616, building).
holds(3616, feature).
holds(3616, suburban).
holds(3616, residential).
holds(3616, awning).
holds(3616, porch).
holds(3616, table).
holds(3616, tiledroof).

sample(3617).
holds(3617, building).
holds(3617, feature).
holds(3617, awning).
holds(3617, table).

sample(3618).
holds(3618, building).
holds(3618, feature).
holds(3618, miscindustrial).
holds(3618, industrial).
holds(3618, truck).

sample(3619).
holds(3619, building).
holds(3619, feature).
holds(3619, suburban).
holds(3619, miscresidential).
holds(3619, residential).
holds(3619, porch).
holds(3619, table).
holds(3619, tiledroof).

sample(3620).
holds(3620, building).
holds(3620, feature).
holds(3620, awning).
holds(3620, table).

sample(3621).
holds(3621, building).
holds(3621, feature).
holds(3621, miscindustrial).
holds(3621, powerplant).
holds(3621, watertreatment).
holds(3621, industrial).
holds(3621, chimney).
holds(3621, pipe).
holds(3621, truck).

sample(3622).
holds(3622, building).
holds(3622, feature).
holds(3622, suburban).
holds(3622, miscresidential).
holds(3622, residential).
holds(3622, porch).
holds(3622, table).
holds(3622, tiledroof).

sample(3623).
holds(3623, building).
holds(3623, feature).
holds(3623, awning).
holds(3623, table).

sample(3624).
holds(3624, building).
holds(3624, feature).
holds(3624, miscindustrial).
holds(3624, watertreatment).
holds(3624, industrial).
holds(3624, pipe).
holds(3624, truck).

sample(3625).
holds(3625, building).
holds(3625, feature).
holds(3625, suburban).
holds(3625, miscresidential).
holds(3625, residential).
holds(3625, porch).
holds(3625, table).
holds(3625, tiledroof).

sample(3626).
holds(3626, building).
holds(3626, feature).
holds(3626, awning).
holds(3626, table).

sample(3627).
holds(3627, building).
holds(3627, feature).
holds(3627, miscindustrial).
holds(3627, industrial).
holds(3627, truck).

sample(3628).
holds(3628, building).
holds(3628, feature).
holds(3628, miscresidential).
holds(3628, countryhouse).
holds(3628, residential).
holds(3628, table).
holds(3628, tiledroof).
holds(3628, car).

sample(3629).
holds(3629, building).
holds(3629, feature).
holds(3629, awning).
holds(3629, table).

sample(3630).
holds(3630, building).
holds(3630, feature).
holds(3630, constructionsite).
holds(3630, powerplant).
holds(3630, awning).
holds(3630, table).
holds(3630, chimney).
holds(3630, pipe).
holds(3630, machine).

sample(3631).
holds(3631, building).
holds(3631, feature).
holds(3631, suburban).
holds(3631, miscresidential).
holds(3631, countryhouse).
holds(3631, residential).
holds(3631, porch).
holds(3631, table).
holds(3631, tiledroof).
holds(3631, car).

sample(3632).
holds(3632, building).
holds(3632, feature).
holds(3632, awning).
holds(3632, table).

sample(3633).
holds(3633, building).
holds(3633, feature).
holds(3633, miscindustrial).
holds(3633, powerplant).
holds(3633, watertreatment).
holds(3633, industrial).
holds(3633, chimney).
holds(3633, pipe).
holds(3633, truck).

sample(3634).
holds(3634, building).
holds(3634, feature).
holds(3634, miscresidential).
holds(3634, countryhouse).
holds(3634, residential).
holds(3634, table).
holds(3634, tiledroof).
holds(3634, car).

sample(3635).
holds(3635, building).
holds(3635, feature).
holds(3635, awning).
holds(3635, table).

sample(3636).
holds(3636, building).
holds(3636, feature).
holds(3636, powerplant).
holds(3636, watertreatment).
holds(3636, industrial).
holds(3636, awning).
holds(3636, chimney).
holds(3636, pipe).
holds(3636, truck).

sample(3637).
holds(3637, building).
holds(3637, feature).
holds(3637, suburban).
holds(3637, residential).
holds(3637, awning).
holds(3637, porch).
holds(3637, table).
holds(3637, tiledroof).

sample(3638).
holds(3638, building).
holds(3638, feature).
holds(3638, awning).
holds(3638, table).

sample(3639).
holds(3639, building).
holds(3639, feature).
holds(3639, miscindustrial).
holds(3639, powerplant).
holds(3639, watertreatment).
holds(3639, industrial).
holds(3639, chimney).
holds(3639, pipe).
holds(3639, truck).

sample(3640).
holds(3640, building).
holds(3640, feature).
holds(3640, suburban).
holds(3640, residential).
holds(3640, awning).
holds(3640, porch).
holds(3640, table).
holds(3640, tiledroof).

sample(3641).
holds(3641, building).
holds(3641, feature).
holds(3641, awning).
holds(3641, table).

sample(3642).
holds(3642, building).
holds(3642, feature).
holds(3642, powerplant).
holds(3642, industrial).
holds(3642, awning).
holds(3642, chimney).
holds(3642, pipe).

sample(3643).
holds(3643, building).
holds(3643, feature).
holds(3643, suburban).
holds(3643, miscresidential).
holds(3643, countryhouse).
holds(3643, residential).
holds(3643, porch).
holds(3643, table).
holds(3643, tiledroof).
holds(3643, car).

sample(3644).
holds(3644, building).
holds(3644, feature).
holds(3644, awning).
holds(3644, table).

sample(3645).
holds(3645, building).
holds(3645, feature).
holds(3645, miscindustrial).
holds(3645, industrial).
holds(3645, truck).

sample(3646).
holds(3646, building).
holds(3646, feature).
holds(3646, suburban).
holds(3646, residential).
holds(3646, awning).
holds(3646, porch).
holds(3646, table).
holds(3646, tiledroof).

sample(3647).
holds(3647, building).
holds(3647, feature).
holds(3647, awning).
holds(3647, table).

sample(3648).
holds(3648, building).
holds(3648, feature).
holds(3648, powerplant).
holds(3648, industrial).
holds(3648, awning).
holds(3648, chimney).
holds(3648, pipe).

sample(3649).
holds(3649, building).
holds(3649, feature).
holds(3649, suburban).
holds(3649, residential).
holds(3649, awning).
holds(3649, porch).
holds(3649, table).
holds(3649, tiledroof).

sample(3650).
holds(3650, building).
holds(3650, feature).
holds(3650, awning).
holds(3650, table).

sample(3651).
holds(3651, building).
holds(3651, feature).
holds(3651, miscindustrial).
holds(3651, watertreatment).
holds(3651, industrial).
holds(3651, pipe).
holds(3651, truck).

sample(3652).
holds(3652, building).
holds(3652, feature).
holds(3652, suburban).
holds(3652, residential).
holds(3652, awning).
holds(3652, porch).
holds(3652, table).
holds(3652, tiledroof).

sample(3653).
holds(3653, building).
holds(3653, feature).
holds(3653, awning).
holds(3653, table).

sample(3654).
holds(3654, building).
holds(3654, feature).
holds(3654, miscindustrial).
holds(3654, industrial).
holds(3654, truck).

sample(3655).
holds(3655, building).
holds(3655, feature).
holds(3655, miscresidential).
holds(3655, residential).
holds(3655, table).
holds(3655, tiledroof).

sample(3656).
holds(3656, building).
holds(3656, feature).
holds(3656, awning).
holds(3656, table).

sample(3657).
holds(3657, building).
holds(3657, feature).
holds(3657, miscindustrial).
holds(3657, industrial).
holds(3657, truck).

sample(3658).
holds(3658, building).
holds(3658, feature).
holds(3658, suburban).
holds(3658, miscresidential).
holds(3658, residential).
holds(3658, porch).
holds(3658, table).
holds(3658, tiledroof).

sample(3659).
holds(3659, building).
holds(3659, feature).
holds(3659, awning).
holds(3659, table).

sample(3660).
holds(3660, building).
holds(3660, feature).
holds(3660, powerplant).
holds(3660, industrial).
holds(3660, awning).
holds(3660, chimney).
holds(3660, pipe).

sample(3661).
holds(3661, building).
holds(3661, feature).
holds(3661, suburban).
holds(3661, miscresidential).
holds(3661, countryhouse).
holds(3661, residential).
holds(3661, porch).
holds(3661, table).
holds(3661, tiledroof).
holds(3661, car).

sample(3662).
holds(3662, building).
holds(3662, feature).
holds(3662, awning).
holds(3662, table).

sample(3663).
holds(3663, building).
holds(3663, feature).
holds(3663, powerplant).
holds(3663, industrial).
holds(3663, awning).
holds(3663, chimney).
holds(3663, pipe).

sample(3664).
holds(3664, building).
holds(3664, feature).
holds(3664, miscresidential).
holds(3664, residential).
holds(3664, table).
holds(3664, tiledroof).

sample(3665).
holds(3665, building).
holds(3665, feature).
holds(3665, awning).
holds(3665, table).

sample(3666).
holds(3666, building).
holds(3666, feature).
holds(3666, miscindustrial).
holds(3666, watertreatment).
holds(3666, industrial).
holds(3666, pipe).
holds(3666, truck).

sample(3667).
holds(3667, building).
holds(3667, feature).
holds(3667, miscresidential).
holds(3667, countryhouse).
holds(3667, residential).
holds(3667, table).
holds(3667, tiledroof).
holds(3667, car).

sample(3668).
holds(3668, building).
holds(3668, feature).
holds(3668, awning).
holds(3668, table).

sample(3669).
holds(3669, building).
holds(3669, feature).
holds(3669, powerplant).
holds(3669, industrial).
holds(3669, awning).
holds(3669, chimney).
holds(3669, pipe).

sample(3670).
holds(3670, building).
holds(3670, feature).
holds(3670, suburban).
holds(3670, miscresidential).
holds(3670, countryhouse).
holds(3670, residential).
holds(3670, porch).
holds(3670, table).
holds(3670, tiledroof).
holds(3670, car).

sample(3671).
holds(3671, building).
holds(3671, feature).
holds(3671, awning).
holds(3671, table).

sample(3672).
holds(3672, building).
holds(3672, feature).
holds(3672, miscindustrial).
holds(3672, watertreatment).
holds(3672, industrial).
holds(3672, pipe).
holds(3672, truck).

sample(3673).
holds(3673, building).
holds(3673, feature).
holds(3673, miscresidential).
holds(3673, residential).
holds(3673, table).
holds(3673, tiledroof).

sample(3674).
holds(3674, building).
holds(3674, feature).
holds(3674, awning).
holds(3674, table).

sample(3675).
holds(3675, building).
holds(3675, feature).
holds(3675, watertreatment).
holds(3675, industrial).
holds(3675, awning).
holds(3675, pipe).
holds(3675, truck).

sample(3676).
holds(3676, building).
holds(3676, feature).
holds(3676, suburban).
holds(3676, miscresidential).
holds(3676, residential).
holds(3676, porch).
holds(3676, table).
holds(3676, tiledroof).

sample(3677).
holds(3677, building).
holds(3677, feature).
holds(3677, awning).
holds(3677, table).

sample(3678).
holds(3678, building).
holds(3678, feature).
holds(3678, miscindustrial).
holds(3678, industrial).
holds(3678, truck).

sample(3679).
holds(3679, building).
holds(3679, feature).
holds(3679, miscresidential).
holds(3679, residential).
holds(3679, table).
holds(3679, tiledroof).

sample(3680).
holds(3680, building).
holds(3680, feature).
holds(3680, awning).
holds(3680, table).

sample(3681).
holds(3681, building).
holds(3681, feature).
holds(3681, miscindustrial).
holds(3681, powerplant).
holds(3681, watertreatment).
holds(3681, industrial).
holds(3681, chimney).
holds(3681, pipe).
holds(3681, truck).

sample(3682).
holds(3682, building).
holds(3682, feature).
holds(3682, suburban).
holds(3682, residential).
holds(3682, awning).
holds(3682, porch).
holds(3682, table).
holds(3682, tiledroof).

sample(3683).
holds(3683, building).
holds(3683, feature).
holds(3683, awning).
holds(3683, table).

sample(3684).
holds(3684, building).
holds(3684, feature).
holds(3684, powerplant).
holds(3684, watertreatment).
holds(3684, industrial).
holds(3684, awning).
holds(3684, chimney).
holds(3684, pipe).
holds(3684, truck).

sample(3685).
holds(3685, building).
holds(3685, feature).
holds(3685, miscresidential).
holds(3685, countryhouse).
holds(3685, residential).
holds(3685, table).
holds(3685, tiledroof).
holds(3685, car).

sample(3686).
holds(3686, building).
holds(3686, feature).
holds(3686, awning).
holds(3686, table).

sample(3687).
holds(3687, building).
holds(3687, feature).
holds(3687, miscindustrial).
holds(3687, watertreatment).
holds(3687, industrial).
holds(3687, truck).

sample(3688).
holds(3688, building).
holds(3688, feature).
holds(3688, suburban).
holds(3688, miscresidential).
holds(3688, residential).
holds(3688, porch).
holds(3688, table).
holds(3688, tiledroof).

sample(3689).
holds(3689, building).
holds(3689, feature).
holds(3689, awning).
holds(3689, table).

sample(3690).
holds(3690, building).
holds(3690, feature).
holds(3690, constructionsite).
holds(3690, awning).
holds(3690, table).
holds(3690, machine).

sample(3691).
holds(3691, building).
holds(3691, feature).
holds(3691, suburban).
holds(3691, miscresidential).
holds(3691, residential).
holds(3691, porch).
holds(3691, table).
holds(3691, tiledroof).

sample(3692).
holds(3692, building).
holds(3692, feature).
holds(3692, table).
holds(3692, tiledroof).

sample(3693).
holds(3693, building).
holds(3693, feature).
holds(3693, constructionsite).
holds(3693, powerplant).
holds(3693, awning).
holds(3693, table).
holds(3693, chimney).
holds(3693, pipe).
holds(3693, machine).

sample(3694).
holds(3694, building).
holds(3694, feature).
holds(3694, miscresidential).
holds(3694, countryhouse).
holds(3694, residential).
holds(3694, table).
holds(3694, tiledroof).
holds(3694, car).

sample(3695).
holds(3695, building).
holds(3695, feature).
holds(3695, awning).
holds(3695, table).

sample(3696).
holds(3696, building).
holds(3696, feature).
holds(3696, miscindustrial).
holds(3696, powerplant).
holds(3696, watertreatment).
holds(3696, industrial).
holds(3696, chimney).
holds(3696, pipe).
holds(3696, truck).

sample(3697).
holds(3697, building).
holds(3697, feature).
holds(3697, suburban).
holds(3697, miscresidential).
holds(3697, residential).
holds(3697, porch).
holds(3697, table).
holds(3697, tiledroof).

sample(3698).
holds(3698, building).
holds(3698, feature).
holds(3698, awning).
holds(3698, table).

sample(3699).
holds(3699, building).
holds(3699, feature).
holds(3699, miscindustrial).
holds(3699, powerplant).
holds(3699, watertreatment).
holds(3699, industrial).
holds(3699, chimney).
holds(3699, pipe).
holds(3699, truck).

sample(3700).
holds(3700, building).
holds(3700, feature).
holds(3700, miscresidential).
holds(3700, residential).
holds(3700, table).
holds(3700, tiledroof).

sample(3701).
holds(3701, building).
holds(3701, feature).
holds(3701, awning).
holds(3701, table).

sample(3702).
holds(3702, building).
holds(3702, feature).
holds(3702, constructionsite).
holds(3702, awning).
holds(3702, table).
holds(3702, machine).

sample(3703).
holds(3703, building).
holds(3703, feature).
holds(3703, miscresidential).
holds(3703, residential).
holds(3703, table).
holds(3703, tiledroof).

sample(3704).
holds(3704, building).
holds(3704, feature).
holds(3704, awning).
holds(3704, table).

sample(3705).
holds(3705, building).
holds(3705, feature).
holds(3705, constructionsite).
holds(3705, awning).
holds(3705, table).
holds(3705, machine).

sample(3706).
holds(3706, building).
holds(3706, feature).
holds(3706, suburban).
holds(3706, residential).
holds(3706, awning).
holds(3706, porch).
holds(3706, table).
holds(3706, tiledroof).

sample(3707).
holds(3707, building).
holds(3707, feature).
holds(3707, awning).
holds(3707, table).

sample(3708).
holds(3708, building).
holds(3708, feature).
holds(3708, miscindustrial).
holds(3708, industrial).
holds(3708, truck).

sample(3709).
holds(3709, building).
holds(3709, feature).
holds(3709, suburban).
holds(3709, miscresidential).
holds(3709, residential).
holds(3709, porch).
holds(3709, table).
holds(3709, tiledroof).

sample(3710).
holds(3710, building).
holds(3710, feature).
holds(3710, awning).
holds(3710, table).

sample(3711).
holds(3711, building).
holds(3711, feature).
holds(3711, powerplant).
holds(3711, industrial).
holds(3711, awning).
holds(3711, chimney).
holds(3711, pipe).

sample(3712).
holds(3712, building).
holds(3712, feature).
holds(3712, suburban).
holds(3712, miscresidential).
holds(3712, countryhouse).
holds(3712, residential).
holds(3712, porch).
holds(3712, table).
holds(3712, tiledroof).
holds(3712, car).

sample(3713).
holds(3713, building).
holds(3713, feature).
holds(3713, awning).
holds(3713, table).

sample(3714).
holds(3714, building).
holds(3714, feature).
holds(3714, miscindustrial).
holds(3714, watertreatment).
holds(3714, industrial).
holds(3714, pipe).
holds(3714, truck).

sample(3715).
holds(3715, building).
holds(3715, feature).
holds(3715, suburban).
holds(3715, miscresidential).
holds(3715, countryhouse).
holds(3715, residential).
holds(3715, porch).
holds(3715, table).
holds(3715, tiledroof).
holds(3715, car).

sample(3716).
holds(3716, building).
holds(3716, feature).
holds(3716, awning).
holds(3716, table).

sample(3717).
holds(3717, building).
holds(3717, feature).
holds(3717, constructionsite).
holds(3717, awning).
holds(3717, table).
holds(3717, machine).

sample(3718).
holds(3718, building).
holds(3718, feature).
holds(3718, suburban).
holds(3718, residential).
holds(3718, awning).
holds(3718, porch).
holds(3718, table).
holds(3718, tiledroof).

sample(3719).
holds(3719, building).
holds(3719, feature).
holds(3719, awning).
holds(3719, table).

sample(3720).
holds(3720, building).
holds(3720, feature).
holds(3720, powerplant).
holds(3720, industrial).
holds(3720, awning).
holds(3720, chimney).
holds(3720, pipe).

sample(3721).
holds(3721, building).
holds(3721, feature).
holds(3721, suburban).
holds(3721, residential).
holds(3721, awning).
holds(3721, porch).
holds(3721, table).
holds(3721, tiledroof).

sample(3722).
holds(3722, building).
holds(3722, feature).
holds(3722, awning).
holds(3722, table).

sample(3723).
holds(3723, building).
holds(3723, feature).
holds(3723, constructionsite).
holds(3723, awning).
holds(3723, table).
holds(3723, machine).

sample(3724).
holds(3724, building).
holds(3724, feature).
holds(3724, suburban).
holds(3724, miscresidential).
holds(3724, residential).
holds(3724, porch).
holds(3724, table).
holds(3724, tiledroof).

sample(3725).
holds(3725, building).
holds(3725, feature).
holds(3725, awning).
holds(3725, table).

sample(3726).
holds(3726, building).
holds(3726, feature).
holds(3726, powerplant).
holds(3726, watertreatment).
holds(3726, industrial).
holds(3726, awning).
holds(3726, chimney).
holds(3726, pipe).
holds(3726, truck).

sample(3727).
holds(3727, building).
holds(3727, feature).
holds(3727, suburban).
holds(3727, miscresidential).
holds(3727, countryhouse).
holds(3727, residential).
holds(3727, porch).
holds(3727, table).
holds(3727, tiledroof).
holds(3727, car).

sample(3728).
holds(3728, building).
holds(3728, feature).
holds(3728, awning).
holds(3728, table).

sample(3729).
holds(3729, building).
holds(3729, feature).
holds(3729, constructionsite).
holds(3729, powerplant).
holds(3729, awning).
holds(3729, table).
holds(3729, chimney).
holds(3729, pipe).
holds(3729, machine).

sample(3730).
holds(3730, building).
holds(3730, feature).
holds(3730, miscresidential).
holds(3730, countryhouse).
holds(3730, residential).
holds(3730, table).
holds(3730, tiledroof).
holds(3730, car).

sample(3731).
holds(3731, building).
holds(3731, feature).
holds(3731, awning).
holds(3731, table).

sample(3732).
holds(3732, building).
holds(3732, feature).
holds(3732, constructionsite).
holds(3732, awning).
holds(3732, table).
holds(3732, machine).

sample(3733).
holds(3733, building).
holds(3733, feature).
holds(3733, suburban).
holds(3733, residential).
holds(3733, awning).
holds(3733, porch).
holds(3733, table).
holds(3733, tiledroof).

sample(3734).
holds(3734, building).
holds(3734, feature).
holds(3734, awning).
holds(3734, table).

sample(3735).
holds(3735, building).
holds(3735, feature).
holds(3735, powerplant).
holds(3735, watertreatment).
holds(3735, industrial).
holds(3735, chimney).
holds(3735, pipe).
holds(3735, truck).

sample(3736).
holds(3736, building).
holds(3736, feature).
holds(3736, miscresidential).
holds(3736, countryhouse).
holds(3736, residential).
holds(3736, table).
holds(3736, tiledroof).
holds(3736, car).

sample(3737).
holds(3737, building).
holds(3737, feature).
holds(3737, awning).
holds(3737, table).

sample(3738).
holds(3738, building).
holds(3738, feature).
holds(3738, constructionsite).
holds(3738, powerplant).
holds(3738, awning).
holds(3738, table).
holds(3738, chimney).
holds(3738, pipe).
holds(3738, machine).

sample(3739).
holds(3739, building).
holds(3739, feature).
holds(3739, suburban).
holds(3739, residential).
holds(3739, awning).
holds(3739, porch).
holds(3739, table).
holds(3739, tiledroof).

sample(3740).
holds(3740, building).
holds(3740, feature).
holds(3740, awning).
holds(3740, table).

sample(3741).
holds(3741, building).
holds(3741, feature).
holds(3741, miscindustrial).
holds(3741, industrial).
holds(3741, truck).

sample(3742).
holds(3742, building).
holds(3742, feature).
holds(3742, suburban).
holds(3742, miscresidential).
holds(3742, residential).
holds(3742, porch).
holds(3742, table).
holds(3742, tiledroof).

sample(3743).
holds(3743, building).
holds(3743, feature).
holds(3743, awning).
holds(3743, table).

sample(3744).
holds(3744, building).
holds(3744, feature).
holds(3744, miscindustrial).
holds(3744, powerplant).
holds(3744, watertreatment).
holds(3744, industrial).
holds(3744, chimney).
holds(3744, pipe).
holds(3744, truck).

sample(3745).
holds(3745, building).
holds(3745, feature).
holds(3745, suburban).
holds(3745, miscresidential).
holds(3745, countryhouse).
holds(3745, residential).
holds(3745, porch).
holds(3745, table).
holds(3745, tiledroof).
holds(3745, car).

sample(3746).
holds(3746, building).
holds(3746, feature).
holds(3746, awning).
holds(3746, table).

sample(3747).
holds(3747, building).
holds(3747, feature).
holds(3747, miscindustrial).
holds(3747, watertreatment).
holds(3747, industrial).
holds(3747, pipe).
holds(3747, truck).

sample(3748).
holds(3748, building).
holds(3748, feature).
holds(3748, suburban).
holds(3748, miscresidential).
holds(3748, countryhouse).
holds(3748, residential).
holds(3748, porch).
holds(3748, table).
holds(3748, tiledroof).
holds(3748, car).

sample(3749).
holds(3749, building).
holds(3749, feature).
holds(3749, awning).
holds(3749, table).

sample(3750).
holds(3750, building).
holds(3750, feature).
holds(3750, miscindustrial).
holds(3750, industrial).
holds(3750, truck).

sample(3751).
holds(3751, building).
holds(3751, feature).
holds(3751, suburban).
holds(3751, miscresidential).
holds(3751, residential).
holds(3751, porch).
holds(3751, table).
holds(3751, tiledroof).

sample(3752).
holds(3752, building).
holds(3752, feature).
holds(3752, awning).
holds(3752, table).

sample(3753).
holds(3753, building).
holds(3753, feature).
holds(3753, constructionsite).
holds(3753, awning).
holds(3753, table).
holds(3753, machine).

sample(3754).
holds(3754, building).
holds(3754, feature).
holds(3754, suburban).
holds(3754, miscresidential).
holds(3754, countryhouse).
holds(3754, residential).
holds(3754, porch).
holds(3754, table).
holds(3754, tiledroof).
holds(3754, car).

sample(3755).
holds(3755, building).
holds(3755, feature).
holds(3755, awning).
holds(3755, table).

sample(3756).
holds(3756, building).
holds(3756, feature).
holds(3756, miscindustrial).
holds(3756, industrial).
holds(3756, truck).

sample(3757).
holds(3757, building).
holds(3757, feature).
holds(3757, suburban).
holds(3757, miscresidential).
holds(3757, countryhouse).
holds(3757, residential).
holds(3757, porch).
holds(3757, table).
holds(3757, tiledroof).
holds(3757, car).

sample(3758).
holds(3758, building).
holds(3758, feature).
holds(3758, awning).
holds(3758, table).

sample(3759).
holds(3759, building).
holds(3759, feature).
holds(3759, miscindustrial).
holds(3759, industrial).
holds(3759, truck).

sample(3760).
holds(3760, building).
holds(3760, feature).
holds(3760, suburban).
holds(3760, miscresidential).
holds(3760, countryhouse).
holds(3760, residential).
holds(3760, porch).
holds(3760, table).
holds(3760, tiledroof).
holds(3760, car).

sample(3761).
holds(3761, building).
holds(3761, feature).
holds(3761, awning).
holds(3761, table).

sample(3762).
holds(3762, building).
holds(3762, feature).
holds(3762, constructionsite).
holds(3762, awning).
holds(3762, table).
holds(3762, machine).

sample(3763).
holds(3763, building).
holds(3763, feature).
holds(3763, miscresidential).
holds(3763, countryhouse).
holds(3763, residential).
holds(3763, table).
holds(3763, tiledroof).
holds(3763, car).

sample(3764).
holds(3764, building).
holds(3764, feature).
holds(3764, awning).
holds(3764, table).

sample(3765).
holds(3765, building).
holds(3765, feature).
holds(3765, constructionsite).
holds(3765, awning).
holds(3765, table).
holds(3765, machine).

sample(3766).
holds(3766, building).
holds(3766, feature).
holds(3766, suburban).
holds(3766, miscresidential).
holds(3766, countryhouse).
holds(3766, residential).
holds(3766, porch).
holds(3766, table).
holds(3766, tiledroof).
holds(3766, car).

sample(3767).
holds(3767, building).
holds(3767, feature).
holds(3767, awning).
holds(3767, table).

sample(3768).
holds(3768, building).
holds(3768, feature).
holds(3768, miscindustrial).
holds(3768, industrial).
holds(3768, truck).

sample(3769).
holds(3769, building).
holds(3769, feature).
holds(3769, miscresidential).
holds(3769, countryhouse).
holds(3769, residential).
holds(3769, table).
holds(3769, tiledroof).
holds(3769, car).

sample(3770).
holds(3770, building).
holds(3770, feature).
holds(3770, awning).
holds(3770, table).

sample(3771).
holds(3771, building).
holds(3771, feature).
holds(3771, powerplant).
holds(3771, industrial).
holds(3771, awning).
holds(3771, chimney).
holds(3771, pipe).

sample(3772).
holds(3772, building).
holds(3772, feature).
holds(3772, suburban).
holds(3772, miscresidential).
holds(3772, countryhouse).
holds(3772, residential).
holds(3772, porch).
holds(3772, table).
holds(3772, tiledroof).
holds(3772, car).

sample(3773).
holds(3773, building).
holds(3773, feature).
holds(3773, awning).
holds(3773, table).

sample(3774).
holds(3774, building).
holds(3774, feature).
holds(3774, powerplant).
holds(3774, watertreatment).
holds(3774, industrial).
holds(3774, awning).
holds(3774, chimney).
holds(3774, pipe).
holds(3774, truck).

sample(3775).
holds(3775, building).
holds(3775, feature).
holds(3775, miscresidential).
holds(3775, residential).
holds(3775, table).
holds(3775, tiledroof).

sample(3776).
holds(3776, building).
holds(3776, feature).
holds(3776, awning).
holds(3776, table).

sample(3777).
holds(3777, building).
holds(3777, feature).
holds(3777, constructionsite).
holds(3777, awning).
holds(3777, table).
holds(3777, machine).

sample(3778).
holds(3778, building).
holds(3778, feature).
holds(3778, suburban).
holds(3778, miscresidential).
holds(3778, countryhouse).
holds(3778, residential).
holds(3778, porch).
holds(3778, table).
holds(3778, tiledroof).
holds(3778, car).

sample(3779).
holds(3779, building).
holds(3779, feature).
holds(3779, awning).
holds(3779, table).

sample(3780).
holds(3780, building).
holds(3780, feature).
holds(3780, miscindustrial).
holds(3780, industrial).
holds(3780, truck).

sample(3781).
holds(3781, building).
holds(3781, feature).
holds(3781, miscresidential).
holds(3781, countryhouse).
holds(3781, residential).
holds(3781, table).
holds(3781, tiledroof).
holds(3781, car).

sample(3782).
holds(3782, building).
holds(3782, feature).
holds(3782, awning).
holds(3782, table).

sample(3783).
holds(3783, building).
holds(3783, feature).
holds(3783, miscindustrial).
holds(3783, industrial).
holds(3783, truck).

sample(3784).
holds(3784, building).
holds(3784, feature).
holds(3784, suburban).
holds(3784, miscresidential).
holds(3784, countryhouse).
holds(3784, residential).
holds(3784, porch).
holds(3784, table).
holds(3784, tiledroof).
holds(3784, car).

sample(3785).
holds(3785, building).
holds(3785, feature).
holds(3785, awning).
holds(3785, table).

sample(3786).
holds(3786, building).
holds(3786, feature).
holds(3786, miscindustrial).
holds(3786, industrial).
holds(3786, truck).

sample(3787).
holds(3787, building).
holds(3787, feature).
holds(3787, suburban).
holds(3787, residential).
holds(3787, awning).
holds(3787, porch).
holds(3787, table).
holds(3787, tiledroof).

sample(3788).
holds(3788, building).
holds(3788, feature).
holds(3788, awning).
holds(3788, table).

sample(3789).
holds(3789, building).
holds(3789, feature).
holds(3789, constructionsite).
holds(3789, awning).
holds(3789, table).
holds(3789, machine).

sample(3790).
holds(3790, building).
holds(3790, feature).
holds(3790, suburban).
holds(3790, miscresidential).
holds(3790, residential).
holds(3790, porch).
holds(3790, table).
holds(3790, tiledroof).

sample(3791).
holds(3791, building).
holds(3791, feature).
holds(3791, awning).
holds(3791, table).

sample(3792).
holds(3792, building).
holds(3792, feature).
holds(3792, miscindustrial).
holds(3792, industrial).
holds(3792, truck).

sample(3793).
holds(3793, building).
holds(3793, feature).
holds(3793, suburban).
holds(3793, residential).
holds(3793, awning).
holds(3793, porch).
holds(3793, table).
holds(3793, tiledroof).

sample(3794).
holds(3794, building).
holds(3794, feature).
holds(3794, awning).
holds(3794, table).

sample(3795).
holds(3795, building).
holds(3795, feature).
holds(3795, constructionsite).
holds(3795, awning).
holds(3795, table).
holds(3795, machine).

sample(3796).
holds(3796, building).
holds(3796, feature).
holds(3796, miscresidential).
holds(3796, countryhouse).
holds(3796, residential).
holds(3796, table).
holds(3796, tiledroof).
holds(3796, car).

sample(3797).
holds(3797, building).
holds(3797, feature).
holds(3797, awning).
holds(3797, table).

sample(3798).
holds(3798, building).
holds(3798, feature).
holds(3798, miscindustrial).
holds(3798, powerplant).
holds(3798, watertreatment).
holds(3798, industrial).
holds(3798, chimney).
holds(3798, pipe).
holds(3798, truck).

sample(3799).
holds(3799, building).
holds(3799, feature).
holds(3799, suburban).
holds(3799, miscresidential).
holds(3799, residential).
holds(3799, porch).
holds(3799, table).
holds(3799, tiledroof).

sample(3800).
holds(3800, building).
holds(3800, feature).
holds(3800, awning).
holds(3800, table).

sample(3801).
holds(3801, building).
holds(3801, feature).
holds(3801, miscindustrial).
holds(3801, powerplant).
holds(3801, watertreatment).
holds(3801, industrial).
holds(3801, chimney).
holds(3801, pipe).
holds(3801, truck).

sample(3802).
holds(3802, building).
holds(3802, feature).
holds(3802, suburban).
holds(3802, miscresidential).
holds(3802, residential).
holds(3802, porch).
holds(3802, table).
holds(3802, tiledroof).

sample(3803).
holds(3803, building).
holds(3803, feature).
holds(3803, awning).
holds(3803, table).

sample(3804).
holds(3804, building).
holds(3804, feature).
holds(3804, constructionsite).
holds(3804, powerplant).
holds(3804, awning).
holds(3804, table).
holds(3804, chimney).
holds(3804, pipe).
holds(3804, machine).

sample(3805).
holds(3805, building).
holds(3805, feature).
holds(3805, suburban).
holds(3805, residential).
holds(3805, awning).
holds(3805, porch).
holds(3805, table).
holds(3805, tiledroof).

sample(3806).
holds(3806, building).
holds(3806, feature).
holds(3806, awning).
holds(3806, table).

sample(3807).
holds(3807, building).
holds(3807, feature).
holds(3807, miscindustrial).
holds(3807, powerplant).
holds(3807, watertreatment).
holds(3807, industrial).
holds(3807, chimney).
holds(3807, pipe).
holds(3807, truck).

sample(3808).
holds(3808, building).
holds(3808, feature).
holds(3808, suburban).
holds(3808, miscresidential).
holds(3808, residential).
holds(3808, porch).
holds(3808, table).
holds(3808, tiledroof).

sample(3809).
holds(3809, building).
holds(3809, feature).
holds(3809, awning).
holds(3809, table).

sample(3810).
holds(3810, building).
holds(3810, feature).
holds(3810, miscindustrial).
holds(3810, powerplant).
holds(3810, watertreatment).
holds(3810, industrial).
holds(3810, chimney).
holds(3810, pipe).
holds(3810, truck).

sample(3811).
holds(3811, building).
holds(3811, feature).
holds(3811, suburban).
holds(3811, miscresidential).
holds(3811, residential).
holds(3811, porch).
holds(3811, table).
holds(3811, tiledroof).

sample(3812).
holds(3812, building).
holds(3812, feature).
holds(3812, awning).
holds(3812, table).

sample(3813).
holds(3813, building).
holds(3813, feature).
holds(3813, miscindustrial).
holds(3813, industrial).
holds(3813, truck).

sample(3814).
holds(3814, building).
holds(3814, feature).
holds(3814, miscresidential).
holds(3814, residential).
holds(3814, table).
holds(3814, tiledroof).

sample(3815).
holds(3815, building).
holds(3815, feature).
holds(3815, awning).
holds(3815, table).

sample(3816).
holds(3816, building).
holds(3816, feature).
holds(3816, constructionsite).
holds(3816, awning).
holds(3816, table).
holds(3816, machine).

sample(3817).
holds(3817, building).
holds(3817, feature).
holds(3817, suburban).
holds(3817, miscresidential).
holds(3817, countryhouse).
holds(3817, residential).
holds(3817, porch).
holds(3817, table).
holds(3817, tiledroof).
holds(3817, car).

sample(3818).
holds(3818, building).
holds(3818, feature).
holds(3818, awning).
holds(3818, table).

sample(3819).
holds(3819, building).
holds(3819, feature).
holds(3819, miscindustrial).
holds(3819, powerplant).
holds(3819, watertreatment).
holds(3819, industrial).
holds(3819, chimney).
holds(3819, pipe).
holds(3819, truck).

sample(3820).
holds(3820, building).
holds(3820, feature).
holds(3820, suburban).
holds(3820, miscresidential).
holds(3820, residential).
holds(3820, porch).
holds(3820, table).
holds(3820, tiledroof).

sample(3821).
holds(3821, building).
holds(3821, feature).
holds(3821, awning).
holds(3821, table).

sample(3822).
holds(3822, building).
holds(3822, feature).
holds(3822, miscindustrial).
holds(3822, industrial).
holds(3822, truck).

sample(3823).
holds(3823, building).
holds(3823, feature).
holds(3823, suburban).
holds(3823, residential).
holds(3823, awning).
holds(3823, porch).
holds(3823, table).
holds(3823, tiledroof).

sample(3824).
holds(3824, building).
holds(3824, feature).
holds(3824, awning).
holds(3824, table).

sample(3825).
holds(3825, building).
holds(3825, feature).
holds(3825, miscindustrial).
holds(3825, powerplant).
holds(3825, watertreatment).
holds(3825, industrial).
holds(3825, chimney).
holds(3825, pipe).
holds(3825, truck).

sample(3826).
holds(3826, building).
holds(3826, feature).
holds(3826, miscresidential).
holds(3826, residential).
holds(3826, table).
holds(3826, tiledroof).

sample(3827).
holds(3827, building).
holds(3827, feature).
holds(3827, awning).
holds(3827, table).

sample(3828).
holds(3828, building).
holds(3828, feature).
holds(3828, miscindustrial).
holds(3828, industrial).
holds(3828, truck).

sample(3829).
holds(3829, building).
holds(3829, feature).
holds(3829, miscresidential).
holds(3829, countryhouse).
holds(3829, residential).
holds(3829, table).
holds(3829, tiledroof).
holds(3829, car).

sample(3830).
holds(3830, building).
holds(3830, feature).
holds(3830, awning).
holds(3830, table).

sample(3831).
holds(3831, building).
holds(3831, feature).
holds(3831, miscindustrial).
holds(3831, watertreatment).
holds(3831, industrial).
holds(3831, pipe).
holds(3831, truck).

sample(3832).
holds(3832, building).
holds(3832, feature).
holds(3832, suburban).
holds(3832, miscresidential).
holds(3832, residential).
holds(3832, porch).
holds(3832, table).
holds(3832, tiledroof).

sample(3833).
holds(3833, building).
holds(3833, feature).
holds(3833, awning).
holds(3833, table).

sample(3834).
holds(3834, building).
holds(3834, feature).
holds(3834, constructionsite).
holds(3834, powerplant).
holds(3834, awning).
holds(3834, table).
holds(3834, chimney).
holds(3834, pipe).
holds(3834, machine).

sample(3835).
holds(3835, building).
holds(3835, feature).
holds(3835, miscresidential).
holds(3835, countryhouse).
holds(3835, residential).
holds(3835, table).
holds(3835, tiledroof).
holds(3835, car).

sample(3836).
holds(3836, building).
holds(3836, feature).
holds(3836, awning).
holds(3836, table).

sample(3837).
holds(3837, building).
holds(3837, feature).
holds(3837, constructionsite).
holds(3837, awning).
holds(3837, table).
holds(3837, machine).

sample(3838).
holds(3838, building).
holds(3838, feature).
holds(3838, suburban).
holds(3838, miscresidential).
holds(3838, countryhouse).
holds(3838, residential).
holds(3838, porch).
holds(3838, table).
holds(3838, tiledroof).
holds(3838, car).

sample(3839).
holds(3839, building).
holds(3839, feature).
holds(3839, awning).
holds(3839, table).

sample(3840).
holds(3840, building).
holds(3840, feature).
holds(3840, miscindustrial).
holds(3840, industrial).
holds(3840, truck).

sample(3841).
holds(3841, building).
holds(3841, feature).
holds(3841, miscresidential).
holds(3841, countryhouse).
holds(3841, residential).
holds(3841, table).
holds(3841, tiledroof).
holds(3841, car).

sample(3842).
holds(3842, building).
holds(3842, feature).
holds(3842, awning).
holds(3842, table).

sample(3843).
holds(3843, building).
holds(3843, feature).
holds(3843, miscindustrial).
holds(3843, watertreatment).
holds(3843, industrial).
holds(3843, pipe).
holds(3843, truck).

sample(3844).
holds(3844, building).
holds(3844, feature).
holds(3844, miscresidential).
holds(3844, countryhouse).
holds(3844, residential).
holds(3844, table).
holds(3844, tiledroof).
holds(3844, car).

sample(3845).
holds(3845, building).
holds(3845, feature).
holds(3845, awning).
holds(3845, table).

sample(3846).
holds(3846, building).
holds(3846, feature).
holds(3846, powerplant).
holds(3846, industrial).
holds(3846, awning).
holds(3846, chimney).
holds(3846, pipe).

sample(3847).
holds(3847, building).
holds(3847, feature).
holds(3847, miscresidential).
holds(3847, countryhouse).
holds(3847, residential).
holds(3847, table).
holds(3847, tiledroof).
holds(3847, car).

sample(3848).
holds(3848, building).
holds(3848, feature).
holds(3848, awning).
holds(3848, table).

sample(3849).
holds(3849, building).
holds(3849, feature).
holds(3849, constructionsite).
holds(3849, powerplant).
holds(3849, awning).
holds(3849, table).
holds(3849, chimney).
holds(3849, pipe).
holds(3849, machine).

sample(3850).
holds(3850, building).
holds(3850, feature).
holds(3850, suburban).
holds(3850, miscresidential).
holds(3850, residential).
holds(3850, porch).
holds(3850, table).
holds(3850, tiledroof).

sample(3851).
holds(3851, building).
holds(3851, feature).
holds(3851, awning).
holds(3851, table).

sample(3852).
holds(3852, building).
holds(3852, feature).
holds(3852, miscindustrial).
holds(3852, watertreatment).
holds(3852, industrial).
holds(3852, pipe).
holds(3852, truck).

sample(3853).
holds(3853, building).
holds(3853, feature).
holds(3853, miscresidential).
holds(3853, countryhouse).
holds(3853, residential).
holds(3853, table).
holds(3853, tiledroof).
holds(3853, car).

sample(3854).
holds(3854, building).
holds(3854, feature).
holds(3854, awning).
holds(3854, table).

sample(3855).
holds(3855, building).
holds(3855, feature).
holds(3855, miscindustrial).
holds(3855, industrial).
holds(3855, truck).

sample(3856).
holds(3856, building).
holds(3856, feature).
holds(3856, suburban).
holds(3856, miscresidential).
holds(3856, countryhouse).
holds(3856, residential).
holds(3856, porch).
holds(3856, table).
holds(3856, tiledroof).
holds(3856, car).

sample(3857).
holds(3857, building).
holds(3857, feature).
holds(3857, awning).
holds(3857, table).

sample(3858).
holds(3858, building).
holds(3858, feature).
holds(3858, powerplant).
holds(3858, watertreatment).
holds(3858, industrial).
holds(3858, awning).
holds(3858, chimney).
holds(3858, pipe).
holds(3858, truck).

sample(3859).
holds(3859, building).
holds(3859, feature).
holds(3859, suburban).
holds(3859, residential).
holds(3859, awning).
holds(3859, porch).
holds(3859, table).
holds(3859, tiledroof).

sample(3860).
holds(3860, building).
holds(3860, feature).
holds(3860, awning).
holds(3860, table).

sample(3861).
holds(3861, building).
holds(3861, feature).
holds(3861, powerplant).
holds(3861, industrial).
holds(3861, awning).
holds(3861, chimney).
holds(3861, pipe).

sample(3862).
holds(3862, building).
holds(3862, feature).
holds(3862, suburban).
holds(3862, miscresidential).
holds(3862, residential).
holds(3862, porch).
holds(3862, table).
holds(3862, tiledroof).

sample(3863).
holds(3863, building).
holds(3863, feature).
holds(3863, awning).
holds(3863, table).

sample(3864).
holds(3864, building).
holds(3864, feature).
holds(3864, miscindustrial).
holds(3864, powerplant).
holds(3864, watertreatment).
holds(3864, industrial).
holds(3864, chimney).
holds(3864, pipe).
holds(3864, truck).

sample(3865).
holds(3865, building).
holds(3865, feature).
holds(3865, miscresidential).
holds(3865, countryhouse).
holds(3865, residential).
holds(3865, table).
holds(3865, tiledroof).
holds(3865, car).

sample(3866).
holds(3866, building).
holds(3866, feature).
holds(3866, awning).
holds(3866, table).

sample(3867).
holds(3867, building).
holds(3867, feature).
holds(3867, miscindustrial).
holds(3867, powerplant).
holds(3867, watertreatment).
holds(3867, industrial).
holds(3867, chimney).
holds(3867, pipe).
holds(3867, truck).

sample(3868).
holds(3868, building).
holds(3868, feature).
holds(3868, suburban).
holds(3868, miscresidential).
holds(3868, residential).
holds(3868, porch).
holds(3868, table).
holds(3868, tiledroof).

sample(3869).
holds(3869, building).
holds(3869, feature).
holds(3869, awning).
holds(3869, table).

sample(3870).
holds(3870, building).
holds(3870, feature).
holds(3870, miscindustrial).
holds(3870, powerplant).
holds(3870, watertreatment).
holds(3870, industrial).
holds(3870, chimney).
holds(3870, pipe).
holds(3870, truck).

sample(3871).
holds(3871, building).
holds(3871, feature).
holds(3871, suburban).
holds(3871, miscresidential).
holds(3871, countryhouse).
holds(3871, residential).
holds(3871, porch).
holds(3871, table).
holds(3871, tiledroof).
holds(3871, car).

sample(3872).
holds(3872, building).
holds(3872, feature).
holds(3872, awning).
holds(3872, table).

sample(3873).
holds(3873, building).
holds(3873, feature).
holds(3873, miscindustrial).
holds(3873, powerplant).
holds(3873, watertreatment).
holds(3873, industrial).
holds(3873, chimney).
holds(3873, pipe).
holds(3873, truck).

sample(3874).
holds(3874, building).
holds(3874, feature).
holds(3874, suburban).
holds(3874, miscresidential).
holds(3874, residential).
holds(3874, porch).
holds(3874, table).
holds(3874, tiledroof).

sample(3875).
holds(3875, building).
holds(3875, feature).
holds(3875, awning).
holds(3875, table).

sample(3876).
holds(3876, building).
holds(3876, feature).
holds(3876, watertreatment).
holds(3876, industrial).
holds(3876, awning).
holds(3876, pipe).
holds(3876, truck).

sample(3877).
holds(3877, building).
holds(3877, feature).
holds(3877, suburban).
holds(3877, miscresidential).
holds(3877, countryhouse).
holds(3877, residential).
holds(3877, porch).
holds(3877, table).
holds(3877, tiledroof).
holds(3877, car).

sample(3878).
holds(3878, building).
holds(3878, feature).
holds(3878, awning).
holds(3878, table).

sample(3879).
holds(3879, building).
holds(3879, feature).
holds(3879, constructionsite).
holds(3879, awning).
holds(3879, table).
holds(3879, machine).

sample(3880).
holds(3880, building).
holds(3880, feature).
holds(3880, miscresidential).
holds(3880, table).
holds(3880, tiledroof).

sample(3881).
holds(3881, building).
holds(3881, feature).
holds(3881, awning).
holds(3881, table).

sample(3882).
holds(3882, building).
holds(3882, feature).
holds(3882, miscindustrial).
holds(3882, watertreatment).
holds(3882, industrial).
holds(3882, pipe).
holds(3882, truck).

sample(3883).
holds(3883, building).
holds(3883, feature).
holds(3883, suburban).
holds(3883, residential).
holds(3883, awning).
holds(3883, porch).
holds(3883, table).
holds(3883, tiledroof).

sample(3884).
holds(3884, building).
holds(3884, feature).
holds(3884, awning).
holds(3884, table).

sample(3885).
holds(3885, building).
holds(3885, feature).
holds(3885, miscindustrial).
holds(3885, powerplant).
holds(3885, watertreatment).
holds(3885, industrial).
holds(3885, chimney).
holds(3885, pipe).
holds(3885, truck).

sample(3886).
holds(3886, building).
holds(3886, feature).
holds(3886, suburban).
holds(3886, miscresidential).
holds(3886, countryhouse).
holds(3886, residential).
holds(3886, porch).
holds(3886, table).
holds(3886, tiledroof).
holds(3886, car).

sample(3887).
holds(3887, building).
holds(3887, feature).
holds(3887, table).

sample(3888).
holds(3888, building).
holds(3888, feature).
holds(3888, constructionsite).
holds(3888, awning).
holds(3888, table).
holds(3888, machine).

sample(3889).
holds(3889, building).
holds(3889, feature).
holds(3889, suburban).
holds(3889, residential).
holds(3889, awning).
holds(3889, porch).
holds(3889, table).
holds(3889, tiledroof).

sample(3890).
holds(3890, building).
holds(3890, feature).
holds(3890, awning).
holds(3890, table).

sample(3891).
holds(3891, building).
holds(3891, feature).
holds(3891, constructionsite).
holds(3891, awning).
holds(3891, table).
holds(3891, machine).

sample(3892).
holds(3892, building).
holds(3892, feature).
holds(3892, suburban).
holds(3892, residential).
holds(3892, awning).
holds(3892, porch).
holds(3892, table).
holds(3892, tiledroof).

sample(3893).
holds(3893, building).
holds(3893, feature).
holds(3893, awning).
holds(3893, table).

sample(3894).
holds(3894, building).
holds(3894, feature).
holds(3894, powerplant).
holds(3894, industrial).
holds(3894, awning).
holds(3894, chimney).
holds(3894, pipe).

sample(3895).
holds(3895, building).
holds(3895, feature).
holds(3895, suburban).
holds(3895, residential).
holds(3895, awning).
holds(3895, porch).
holds(3895, table).
holds(3895, tiledroof).

sample(3896).
holds(3896, building).
holds(3896, feature).
holds(3896, awning).
holds(3896, table).

sample(3897).
holds(3897, building).
holds(3897, feature).
holds(3897, miscindustrial).
holds(3897, powerplant).
holds(3897, watertreatment).
holds(3897, industrial).
holds(3897, chimney).
holds(3897, pipe).
holds(3897, truck).

sample(3898).
holds(3898, building).
holds(3898, feature).
holds(3898, miscresidential).
holds(3898, countryhouse).
holds(3898, residential).
holds(3898, table).
holds(3898, tiledroof).
holds(3898, car).

sample(3899).
holds(3899, building).
holds(3899, feature).
holds(3899, awning).
holds(3899, table).

sample(3900).
holds(3900, building).
holds(3900, feature).
holds(3900, watertreatment).
holds(3900, industrial).
holds(3900, awning).
holds(3900, pipe).
holds(3900, truck).

sample(3901).
holds(3901, building).
holds(3901, feature).
holds(3901, suburban).
holds(3901, miscresidential).
holds(3901, countryhouse).
holds(3901, residential).
holds(3901, porch).
holds(3901, table).
holds(3901, tiledroof).
holds(3901, car).

sample(3902).
holds(3902, building).
holds(3902, feature).
holds(3902, awning).
holds(3902, table).

sample(3903).
holds(3903, building).
holds(3903, feature).
holds(3903, powerplant).
holds(3903, industrial).
holds(3903, awning).
holds(3903, chimney).
holds(3903, pipe).

sample(3904).
holds(3904, building).
holds(3904, feature).
holds(3904, miscresidential).
holds(3904, countryhouse).
holds(3904, residential).
holds(3904, table).
holds(3904, tiledroof).
holds(3904, car).

sample(3905).
holds(3905, building).
holds(3905, feature).
holds(3905, awning).
holds(3905, table).

sample(3906).
holds(3906, building).
holds(3906, feature).
holds(3906, miscindustrial).
holds(3906, powerplant).
holds(3906, watertreatment).
holds(3906, industrial).
holds(3906, chimney).
holds(3906, pipe).
holds(3906, truck).

sample(3907).
holds(3907, building).
holds(3907, feature).
holds(3907, suburban).
holds(3907, residential).
holds(3907, awning).
holds(3907, porch).
holds(3907, table).
holds(3907, tiledroof).

sample(3908).
holds(3908, building).
holds(3908, feature).
holds(3908, awning).
holds(3908, table).

sample(3909).
holds(3909, building).
holds(3909, feature).
holds(3909, miscindustrial).
holds(3909, powerplant).
holds(3909, watertreatment).
holds(3909, industrial).
holds(3909, chimney).
holds(3909, pipe).
holds(3909, truck).

sample(3910).
holds(3910, building).
holds(3910, feature).
holds(3910, suburban).
holds(3910, residential).
holds(3910, awning).
holds(3910, porch).
holds(3910, table).
holds(3910, tiledroof).

sample(3911).
holds(3911, building).
holds(3911, feature).
holds(3911, awning).
holds(3911, table).

sample(3912).
holds(3912, building).
holds(3912, feature).
holds(3912, miscindustrial).
holds(3912, powerplant).
holds(3912, watertreatment).
holds(3912, industrial).
holds(3912, chimney).
holds(3912, pipe).
holds(3912, truck).

sample(3913).
holds(3913, building).
holds(3913, feature).
holds(3913, miscresidential).
holds(3913, countryhouse).
holds(3913, residential).
holds(3913, table).
holds(3913, tiledroof).
holds(3913, car).

sample(3914).
holds(3914, building).
holds(3914, feature).
holds(3914, awning).
holds(3914, table).

sample(3915).
holds(3915, building).
holds(3915, feature).
holds(3915, powerplant).
holds(3915, industrial).
holds(3915, awning).
holds(3915, chimney).
holds(3915, pipe).

sample(3916).
holds(3916, building).
holds(3916, feature).
holds(3916, miscresidential).
holds(3916, residential).
holds(3916, table).
holds(3916, tiledroof).

sample(3917).
holds(3917, building).
holds(3917, feature).
holds(3917, awning).
holds(3917, table).

sample(3918).
holds(3918, building).
holds(3918, feature).
holds(3918, constructionsite).
holds(3918, awning).
holds(3918, table).
holds(3918, machine).

sample(3919).
holds(3919, building).
holds(3919, feature).
holds(3919, suburban).
holds(3919, miscresidential).
holds(3919, residential).
holds(3919, porch).
holds(3919, table).
holds(3919, tiledroof).

sample(3920).
holds(3920, building).
holds(3920, feature).
holds(3920, awning).
holds(3920, table).

sample(3921).
holds(3921, building).
holds(3921, feature).
holds(3921, miscindustrial).
holds(3921, industrial).
holds(3921, truck).

sample(3922).
holds(3922, building).
holds(3922, feature).
holds(3922, suburban).
holds(3922, residential).
holds(3922, awning).
holds(3922, porch).
holds(3922, table).
holds(3922, tiledroof).

sample(3923).
holds(3923, building).
holds(3923, feature).
holds(3923, awning).
holds(3923, table).

sample(3924).
holds(3924, building).
holds(3924, feature).
holds(3924, miscindustrial).
holds(3924, watertreatment).
holds(3924, industrial).
holds(3924, truck).

sample(3925).
holds(3925, building).
holds(3925, feature).
holds(3925, suburban).
holds(3925, miscresidential).
holds(3925, residential).
holds(3925, porch).
holds(3925, table).
holds(3925, tiledroof).

sample(3926).
holds(3926, building).
holds(3926, feature).
holds(3926, awning).
holds(3926, table).

sample(3927).
holds(3927, building).
holds(3927, feature).
holds(3927, powerplant).
holds(3927, industrial).
holds(3927, awning).
holds(3927, chimney).
holds(3927, pipe).

sample(3928).
holds(3928, building).
holds(3928, feature).
holds(3928, suburban).
holds(3928, miscresidential).
holds(3928, residential).
holds(3928, porch).
holds(3928, table).
holds(3928, tiledroof).

sample(3929).
holds(3929, building).
holds(3929, feature).
holds(3929, awning).
holds(3929, table).

sample(3930).
holds(3930, building).
holds(3930, feature).
holds(3930, miscindustrial).
holds(3930, industrial).
holds(3930, truck).

sample(3931).
holds(3931, building).
holds(3931, feature).
holds(3931, suburban).
holds(3931, miscresidential).
holds(3931, residential).
holds(3931, porch).
holds(3931, table).
holds(3931, tiledroof).

sample(3932).
holds(3932, building).
holds(3932, feature).
holds(3932, awning).
holds(3932, table).

sample(3933).
holds(3933, building).
holds(3933, feature).
holds(3933, miscindustrial).
holds(3933, watertreatment).
holds(3933, industrial).
holds(3933, pipe).
holds(3933, truck).

sample(3934).
holds(3934, building).
holds(3934, feature).
holds(3934, miscresidential).
holds(3934, residential).
holds(3934, table).
holds(3934, tiledroof).

sample(3935).
holds(3935, building).
holds(3935, feature).
holds(3935, awning).
holds(3935, table).

sample(3936).
holds(3936, building).
holds(3936, feature).
holds(3936, powerplant).
holds(3936, industrial).
holds(3936, awning).
holds(3936, chimney).
holds(3936, pipe).

sample(3937).
holds(3937, building).
holds(3937, feature).
holds(3937, suburban).
holds(3937, miscresidential).
holds(3937, residential).
holds(3937, porch).
holds(3937, table).
holds(3937, tiledroof).

sample(3938).
holds(3938, building).
holds(3938, feature).
holds(3938, awning).
holds(3938, table).

sample(3939).
holds(3939, building).
holds(3939, feature).
holds(3939, miscindustrial).
holds(3939, powerplant).
holds(3939, watertreatment).
holds(3939, industrial).
holds(3939, chimney).
holds(3939, pipe).
holds(3939, truck).

sample(3940).
holds(3940, building).
holds(3940, feature).
holds(3940, miscresidential).
holds(3940, residential).
holds(3940, table).
holds(3940, tiledroof).

sample(3941).
holds(3941, building).
holds(3941, feature).
holds(3941, awning).
holds(3941, table).

sample(3942).
holds(3942, building).
holds(3942, feature).
holds(3942, constructionsite).
holds(3942, awning).
holds(3942, table).
holds(3942, machine).

sample(3943).
holds(3943, building).
holds(3943, feature).
holds(3943, suburban).
holds(3943, residential).
holds(3943, awning).
holds(3943, porch).
holds(3943, table).
holds(3943, tiledroof).

sample(3944).
holds(3944, building).
holds(3944, feature).
holds(3944, awning).
holds(3944, table).

sample(3945).
holds(3945, building).
holds(3945, feature).
holds(3945, miscindustrial).
holds(3945, industrial).
holds(3945, truck).

sample(3946).
holds(3946, building).
holds(3946, feature).
holds(3946, miscresidential).
holds(3946, residential).
holds(3946, table).
holds(3946, tiledroof).

sample(3947).
holds(3947, building).
holds(3947, feature).
holds(3947, awning).
holds(3947, table).

sample(3948).
holds(3948, building).
holds(3948, feature).
holds(3948, miscindustrial).
holds(3948, industrial).
holds(3948, truck).

sample(3949).
holds(3949, building).
holds(3949, feature).
holds(3949, miscresidential).
holds(3949, residential).
holds(3949, table).
holds(3949, tiledroof).

sample(3950).
holds(3950, building).
holds(3950, feature).
holds(3950, awning).
holds(3950, table).

sample(3951).
holds(3951, building).
holds(3951, feature).
holds(3951, constructionsite).
holds(3951, awning).
holds(3951, table).
holds(3951, machine).

sample(3952).
holds(3952, building).
holds(3952, feature).
holds(3952, suburban).
holds(3952, miscresidential).
holds(3952, residential).
holds(3952, porch).
holds(3952, table).
holds(3952, tiledroof).

sample(3953).
holds(3953, building).
holds(3953, feature).
holds(3953, awning).
holds(3953, table).

sample(3954).
holds(3954, building).
holds(3954, feature).
holds(3954, powerplant).
holds(3954, industrial).
holds(3954, awning).
holds(3954, chimney).
holds(3954, pipe).

sample(3955).
holds(3955, building).
holds(3955, feature).
holds(3955, miscresidential).
holds(3955, countryhouse).
holds(3955, residential).
holds(3955, table).
holds(3955, tiledroof).
holds(3955, car).

sample(3956).
holds(3956, building).
holds(3956, feature).
holds(3956, awning).
holds(3956, table).

sample(3957).
holds(3957, building).
holds(3957, feature).
holds(3957, miscindustrial).
holds(3957, watertreatment).
holds(3957, industrial).
holds(3957, pipe).
holds(3957, truck).

sample(3958).
holds(3958, building).
holds(3958, feature).
holds(3958, suburban).
holds(3958, miscresidential).
holds(3958, residential).
holds(3958, porch).
holds(3958, table).
holds(3958, tiledroof).

sample(3959).
holds(3959, building).
holds(3959, feature).
holds(3959, awning).
holds(3959, table).

sample(3960).
holds(3960, building).
holds(3960, feature).
holds(3960, constructionsite).
holds(3960, awning).
holds(3960, table).
holds(3960, machine).

sample(3961).
holds(3961, building).
holds(3961, feature).
holds(3961, suburban).
holds(3961, miscresidential).
holds(3961, residential).
holds(3961, porch).
holds(3961, table).
holds(3961, tiledroof).

sample(3962).
holds(3962, building).
holds(3962, feature).
holds(3962, awning).
holds(3962, table).

sample(3963).
holds(3963, building).
holds(3963, feature).
holds(3963, miscindustrial).
holds(3963, industrial).
holds(3963, truck).

sample(3964).
holds(3964, building).
holds(3964, feature).
holds(3964, suburban).
holds(3964, residential).
holds(3964, awning).
holds(3964, porch).
holds(3964, table).
holds(3964, tiledroof).

sample(3965).
holds(3965, building).
holds(3965, feature).
holds(3965, awning).
holds(3965, table).

sample(3966).
holds(3966, building).
holds(3966, feature).
holds(3966, constructionsite).
holds(3966, awning).
holds(3966, table).
holds(3966, machine).

sample(3967).
holds(3967, building).
holds(3967, feature).
holds(3967, miscresidential).
holds(3967, countryhouse).
holds(3967, residential).
holds(3967, table).
holds(3967, tiledroof).
holds(3967, car).

sample(3968).
holds(3968, building).
holds(3968, feature).
holds(3968, awning).
holds(3968, table).

sample(3969).
holds(3969, building).
holds(3969, feature).
holds(3969, powerplant).
holds(3969, industrial).
holds(3969, awning).
holds(3969, chimney).
holds(3969, pipe).

sample(3970).
holds(3970, building).
holds(3970, feature).
holds(3970, suburban).
holds(3970, miscresidential).
holds(3970, countryhouse).
holds(3970, residential).
holds(3970, porch).
holds(3970, table).
holds(3970, tiledroof).
holds(3970, car).

sample(3971).
holds(3971, building).
holds(3971, feature).
holds(3971, awning).
holds(3971, table).

sample(3972).
holds(3972, building).
holds(3972, feature).
holds(3972, constructionsite).
holds(3972, powerplant).
holds(3972, awning).
holds(3972, table).
holds(3972, chimney).
holds(3972, pipe).
holds(3972, machine).

sample(3973).
holds(3973, building).
holds(3973, feature).
holds(3973, suburban).
holds(3973, miscresidential).
holds(3973, countryhouse).
holds(3973, residential).
holds(3973, porch).
holds(3973, table).
holds(3973, tiledroof).
holds(3973, car).

sample(3974).
holds(3974, building).
holds(3974, feature).
holds(3974, awning).
holds(3974, table).

sample(3975).
holds(3975, building).
holds(3975, feature).
holds(3975, miscindustrial).
holds(3975, powerplant).
holds(3975, watertreatment).
holds(3975, industrial).
holds(3975, chimney).
holds(3975, pipe).
holds(3975, truck).

sample(3976).
holds(3976, building).
holds(3976, feature).
holds(3976, suburban).
holds(3976, miscresidential).
holds(3976, countryhouse).
holds(3976, residential).
holds(3976, porch).
holds(3976, table).
holds(3976, tiledroof).
holds(3976, car).

sample(3977).
holds(3977, building).
holds(3977, feature).
holds(3977, awning).
holds(3977, table).

sample(3978).
holds(3978, building).
holds(3978, feature).
holds(3978, constructionsite).
holds(3978, awning).
holds(3978, table).
holds(3978, machine).

sample(3979).
holds(3979, building).
holds(3979, feature).
holds(3979, suburban).
holds(3979, miscresidential).
holds(3979, residential).
holds(3979, porch).
holds(3979, table).
holds(3979, tiledroof).

sample(3980).
holds(3980, building).
holds(3980, feature).
holds(3980, awning).
holds(3980, table).

sample(3981).
holds(3981, building).
holds(3981, feature).
holds(3981, miscindustrial).
holds(3981, powerplant).
holds(3981, watertreatment).
holds(3981, industrial).
holds(3981, chimney).
holds(3981, pipe).
holds(3981, truck).

sample(3982).
holds(3982, building).
holds(3982, feature).
holds(3982, miscresidential).
holds(3982, countryhouse).
holds(3982, residential).
holds(3982, table).
holds(3982, tiledroof).
holds(3982, car).

sample(3983).
holds(3983, building).
holds(3983, feature).
holds(3983, awning).
holds(3983, table).

sample(3984).
holds(3984, building).
holds(3984, feature).
holds(3984, watertreatment).
holds(3984, industrial).
holds(3984, awning).
holds(3984, pipe).
holds(3984, truck).

sample(3985).
holds(3985, building).
holds(3985, feature).
holds(3985, miscresidential).
holds(3985, countryhouse).
holds(3985, residential).
holds(3985, table).
holds(3985, tiledroof).
holds(3985, car).

sample(3986).
holds(3986, building).
holds(3986, feature).
holds(3986, awning).
holds(3986, table).

sample(3987).
holds(3987, building).
holds(3987, feature).
holds(3987, constructionsite).
holds(3987, awning).
holds(3987, table).
holds(3987, machine).

sample(3988).
holds(3988, building).
holds(3988, feature).
holds(3988, suburban).
holds(3988, miscresidential).
holds(3988, countryhouse).
holds(3988, residential).
holds(3988, porch).
holds(3988, table).
holds(3988, tiledroof).
holds(3988, car).

sample(3989).
holds(3989, building).
holds(3989, feature).
holds(3989, miscresidential).
holds(3989, residential).
holds(3989, table).
holds(3989, tiledroof).

sample(3990).
holds(3990, building).
holds(3990, feature).
holds(3990, constructionsite).
holds(3990, awning).
holds(3990, table).
holds(3990, machine).

sample(3991).
holds(3991, building).
holds(3991, feature).
holds(3991, suburban).
holds(3991, miscresidential).
holds(3991, residential).
holds(3991, porch).
holds(3991, table).
holds(3991, tiledroof).

sample(3992).
holds(3992, building).
holds(3992, feature).
holds(3992, awning).
holds(3992, table).

sample(3993).
holds(3993, building).
holds(3993, feature).
holds(3993, powerplant).
holds(3993, industrial).
holds(3993, awning).
holds(3993, chimney).
holds(3993, pipe).

sample(3994).
holds(3994, building).
holds(3994, feature).
holds(3994, suburban).
holds(3994, miscresidential).
holds(3994, countryhouse).
holds(3994, residential).
holds(3994, porch).
holds(3994, table).
holds(3994, tiledroof).
holds(3994, car).

sample(3995).
holds(3995, building).
holds(3995, feature).
holds(3995, awning).
holds(3995, table).

sample(3996).
holds(3996, building).
holds(3996, feature).
holds(3996, powerplant).
holds(3996, watertreatment).
holds(3996, industrial).
holds(3996, awning).
holds(3996, chimney).
holds(3996, pipe).
holds(3996, truck).

sample(3997).
holds(3997, building).
holds(3997, feature).
holds(3997, suburban).
holds(3997, miscresidential).
holds(3997, residential).
holds(3997, porch).
holds(3997, table).
holds(3997, tiledroof).

sample(3998).
holds(3998, building).
holds(3998, feature).
holds(3998, awning).
holds(3998, table).

sample(3999).
holds(3999, building).
holds(3999, feature).
holds(3999, miscindustrial).
holds(3999, industrial).
holds(3999, truck).

